p cnf 5048 15836
1 0
2 0
3 0
4 0
5 0
6 0
7 0
8 0
9 0
10 0
11 0
12 0
13 0
14 0
15 0
16 0
17 0
18 0
19 0
20 0
21 0
22 0
23 0
24 0
25 0
26 0
27 0
28 0
29 0
30 0
31 0
32 0
33 0
34 0
35 0
36 0
37 0
38 0
39 0
40 0
41 0
42 0
43 0
44 0
45 0
46 0
47 0
48 0
49 0
50 0
51 0
52 0
53 0
54 0
55 0
56 0
57 0
58 0
59 0
60 0
61 0
62 0
63 0
64 0
65 0
66 0
67 0
68 0
69 0
70 0
71 0
72 0
73 0
74 0
75 0
76 0
77 0
78 0
79 0
80 0
81 0
82 0
83 0
84 0
85 0
86 0
87 0
88 0
89 0
90 0
91 0
92 0
93 0
94 0
95 0
96 0
97 0
98 0
99 0
100 0
101 0
102 0
103 0
104 0
105 0
106 0
107 0
108 0
109 0
110 0
111 0
112 0
113 0
114 0
115 0
116 0
117 0
118 0
119 0
120 0
121 0
122 0
123 0
124 0
125 0
126 0
127 0
128 0
129 0
130 0
131 0
132 0
133 0
134 0
135 0
136 0
137 0
138 0
139 0
140 0
141 0
142 0
143 0
144 0
145 0
146 0
147 0
148 0
149 0
150 0
151 0
152 0
153 0
154 0
155 0
156 0
157 0
158 0
159 0
160 0
161 0
162 0
163 0
164 0
165 0
166 0
167 0
168 0
169 0
170 0
171 0
172 0
173 0
174 0
175 0
176 0
177 0
178 0
179 0
180 0
181 0
182 0
183 0
184 0
185 0
186 0
187 0
188 0
189 0
190 0
191 0
192 0
193 0
194 0
195 0
196 0
197 0
198 0
199 0
200 0
201 0
202 0
203 0
204 0
205 0
206 0
207 0
208 0
209 0
210 0
211 0
212 0
213 0
214 0
215 0
216 0
217 0
218 0
219 0
220 0
221 0
222 0
223 0
224 0
225 0
226 0
227 0
228 0
229 0
230 0
231 0
232 0
233 0
234 0
235 0
236 0
237 0
238 0
239 0
240 0
241 0
242 0
243 0
244 0
245 0
246 0
247 0
248 0
249 0
250 0
251 0
252 0
253 0
254 0
255 0
256 0
257 0
258 0
259 0
260 0
261 0
262 0
263 0
264 0
265 0
266 0
267 0
268 0
269 0
270 0
271 0
272 0
273 0
274 0
275 0
276 0
277 0
278 0
279 0
280 0
281 0
282 0
283 0
284 0
285 0
286 0
287 0
288 0
289 0
290 0
291 0
292 0
293 0
294 0
295 0
296 0
297 0
298 0
299 0
300 0
301 0
302 0
303 0
304 0
305 0
306 0
307 0
308 0
309 0
310 0
311 0
312 0
313 0
314 0
315 0
316 0
317 0
318 0
319 0
320 0
321 0
322 0
323 0
324 0
325 0
326 0
327 0
328 0
329 0
330 0
331 0
332 0
333 0
334 0
335 0
336 0
337 0
338 0
339 0
340 0
341 0
342 0
343 0
344 0
345 0
346 0
347 0
348 0
349 0
350 0
351 0
352 0
353 0
354 0
355 0
356 0
357 0
358 0
359 0
360 0
361 0
362 0
363 0
364 0
365 0
366 0
367 0
368 0
369 0
370 0
371 0
372 0
373 0
374 0
375 0
376 0
377 0
378 0
379 0
380 0
381 0
382 0
383 0
384 0
385 0
386 0
387 0
388 0
389 0
390 0
391 0
392 0
393 0
394 0
395 0
396 0
397 0
398 0
399 0
400 0
401 0
402 0
403 0
404 0
405 0
406 0
407 0
408 0
409 0
410 0
411 0
412 0
413 0
414 0
415 0
416 0
417 0
418 0
419 0
420 0
421 0
422 0
423 0
424 0
425 0
426 0
427 0
428 0
429 0
430 0
431 0
432 0
433 0
434 0
435 0
436 0
437 0
438 0
439 0
440 0
441 0
442 0
443 0
444 0
445 0
446 0
447 0
448 0
449 0
450 0
451 0
452 0
453 0
454 0
455 0
456 0
457 0
458 0
459 0
460 0
461 0
462 0
463 0
464 0
465 0
466 0
467 0
468 0
469 0
470 0
471 0
472 0
473 0
474 0
475 0
476 0
477 0
478 0
479 0
480 0
481 0
482 0
483 0
484 0
485 0
486 0
487 0
488 0
489 0
490 0
491 0
492 0
493 0
-1177 1118 1120 1128 1136 0
-495 1178 0
-494 1178 0
-494 -495 1179 0
-497 1180 0
-496 1180 0
-496 -497 1181 0
-499 1182 0
-498 1182 0
-498 -499 1183 0
-501 1184 0
-500 1184 0
-500 -501 1185 0
-503 1186 0
-502 1186 0
-502 -503 1187 0
-505 1188 0
-504 1188 0
-504 -505 1189 0
-507 1190 0
-506 1190 0
-506 -507 1191 0
-509 1192 0
-508 1192 0
-508 -509 1193 0
-511 1194 0
-510 1194 0
-510 -511 1195 0
-513 1196 0
-512 1196 0
-512 -513 1197 0
-515 1198 0
-514 1198 0
-514 -515 1199 0
-517 1200 0
-516 1200 0
-516 -517 1201 0
-519 1202 0
-518 1202 0
-518 -519 1203 0
-521 1204 0
-520 1204 0
-520 -521 1205 0
-523 1206 0
-522 1206 0
-522 -523 1207 0
-525 1208 0
-524 1208 0
-524 -525 1209 0
-527 1210 0
-526 1210 0
-526 -527 1211 0
-529 1212 0
-528 1212 0
-528 -529 1213 0
-531 1214 0
-530 1214 0
-530 -531 1215 0
-533 1216 0
-532 1216 0
-532 -533 1217 0
-535 1218 0
-534 1218 0
-534 -535 1219 0
-537 1220 0
-536 1220 0
-536 -537 1221 0
-539 1222 0
-538 1222 0
-538 -539 1223 0
-541 1224 0
-540 1224 0
-540 -541 1225 0
-543 1226 0
-542 1226 0
-542 -543 1227 0
-545 1228 0
-544 1228 0
-544 -545 1229 0
-547 1230 0
-546 1230 0
-546 -547 1231 0
-549 1232 0
-548 1232 0
-548 -549 1233 0
-551 1234 0
-550 1234 0
-550 -551 1235 0
-553 1236 0
-552 1236 0
-552 -553 1237 0
-555 1238 0
-554 1238 0
-554 -555 1239 0
-557 1240 0
-556 1240 0
-556 -557 1241 0
-559 1242 0
-558 1242 0
-558 -559 1243 0
-561 1244 0
-560 1244 0
-560 -561 1245 0
-563 1246 0
-562 1246 0
-562 -563 1247 0
-565 1248 0
-564 1248 0
-564 -565 1249 0
-567 1250 0
-566 1250 0
-566 -567 1251 0
-569 1252 0
-568 1252 0
-568 -569 1253 0
-571 1254 0
-570 1254 0
-570 -571 1255 0
-573 1256 0
-572 1256 0
-572 -573 1257 0
-575 1258 0
-574 1258 0
-574 -575 1259 0
-577 1260 0
-576 1260 0
-576 -577 1261 0
-579 1262 0
-578 1262 0
-578 -579 1263 0
-581 1264 0
-580 1264 0
-580 -581 1265 0
-583 1266 0
-582 1266 0
-582 -583 1267 0
-585 1268 0
-584 1268 0
-584 -585 1269 0
-587 1270 0
-586 1270 0
-586 -587 1271 0
-589 1272 0
-588 1272 0
-588 -589 1273 0
-591 1274 0
-590 1274 0
-590 -591 1275 0
-593 1276 0
-592 1276 0
-592 -593 1277 0
-595 1278 0
-594 1278 0
-594 -595 1279 0
-597 1280 0
-596 1280 0
-596 -597 1281 0
-599 1282 0
-598 1282 0
-598 -599 1283 0
-601 1284 0
-600 1284 0
-600 -601 1285 0
-603 1286 0
-602 1286 0
-602 -603 1287 0
-605 1288 0
-604 1288 0
-604 -605 1289 0
-607 1290 0
-606 1290 0
-606 -607 1291 0
-609 1292 0
-608 1292 0
-608 -609 1293 0
-611 1294 0
-610 1294 0
-610 -611 1295 0
-613 1296 0
-612 1296 0
-612 -613 1297 0
-615 1298 0
-614 1298 0
-614 -615 1299 0
-617 1300 0
-616 1300 0
-616 -617 1301 0
-619 1302 0
-618 1302 0
-618 -619 1303 0
-621 1304 0
-620 1304 0
-620 -621 1305 0
-623 1306 0
-622 1306 0
-622 -623 1307 0
-625 1308 0
-624 1308 0
-624 -625 1309 0
-627 1310 0
-626 1310 0
-626 -627 1311 0
-629 1312 0
-628 1312 0
-628 -629 1313 0
-631 1314 0
-630 1314 0
-630 -631 1315 0
-633 1316 0
-632 1316 0
-632 -633 1317 0
-635 1318 0
-634 1318 0
-634 -635 1319 0
-637 1320 0
-636 1320 0
-636 -637 1321 0
-639 1322 0
-638 1322 0
-638 -639 1323 0
-641 1324 0
-640 1324 0
-640 -641 1325 0
-643 1326 0
-642 1326 0
-642 -643 1327 0
-645 1328 0
-644 1328 0
-644 -645 1329 0
-647 1330 0
-646 1330 0
-646 -647 1331 0
-649 1332 0
-648 1332 0
-648 -649 1333 0
-651 1334 0
-650 1334 0
-650 -651 1335 0
-653 1336 0
-652 1336 0
-652 -653 1337 0
-655 1338 0
-654 1338 0
-654 -655 1339 0
-657 1340 0
-656 1340 0
-656 -657 1341 0
-659 1342 0
-658 1342 0
-658 -659 1343 0
-661 1344 0
-660 1344 0
-660 -661 1345 0
-663 1346 0
-662 1346 0
-662 -663 1347 0
-665 1348 0
-664 1348 0
-664 -665 1349 0
-667 1350 0
-666 1350 0
-666 -667 1351 0
-669 1352 0
-668 1352 0
-668 -669 1353 0
-671 1354 0
-670 1354 0
-670 -671 1355 0
-673 1356 0
-672 1356 0
-672 -673 1357 0
-675 1358 0
-674 1358 0
-674 -675 1359 0
-677 1360 0
-676 1360 0
-676 -677 1361 0
-679 1362 0
-678 1362 0
-678 -679 1363 0
-681 1364 0
-680 1364 0
-680 -681 1365 0
-683 1366 0
-682 1366 0
-682 -683 1367 0
-685 1368 0
-684 1368 0
-684 -685 1369 0
-687 1370 0
-686 1370 0
-686 -687 1371 0
-689 1372 0
-688 1372 0
-688 -689 1373 0
-691 1374 0
-690 1374 0
-690 -691 1375 0
-693 1376 0
-692 1376 0
-692 -693 1377 0
-695 1378 0
-694 1378 0
-694 -695 1379 0
-697 1380 0
-696 1380 0
-696 -697 1381 0
-699 1382 0
-698 1382 0
-698 -699 1383 0
-701 1384 0
-700 1384 0
-700 -701 1385 0
-703 1386 0
-702 1386 0
-702 -703 1387 0
-705 1388 0
-704 1388 0
-704 -705 1389 0
-707 1390 0
-706 1390 0
-706 -707 1391 0
-709 1392 0
-708 1392 0
-708 -709 1393 0
-711 1394 0
-710 1394 0
-710 -711 1395 0
-713 1396 0
-712 1396 0
-712 -713 1397 0
-715 1398 0
-714 1398 0
-714 -715 1399 0
-717 1400 0
-716 1400 0
-716 -717 1401 0
-719 1402 0
-718 1402 0
-718 -719 1403 0
-721 1404 0
-720 1404 0
-720 -721 1405 0
-723 1406 0
-722 1406 0
-722 -723 1407 0
-725 1408 0
-724 1408 0
-724 -725 1409 0
-727 1410 0
-726 1410 0
-726 -727 1411 0
-729 1412 0
-728 1412 0
-728 -729 1413 0
-731 1414 0
-730 1414 0
-730 -731 1415 0
-733 1416 0
-732 1416 0
-732 -733 1417 0
-735 1418 0
-734 1418 0
-734 -735 1419 0
-737 1420 0
-736 1420 0
-736 -737 1421 0
-739 1422 0
-738 1422 0
-738 -739 1423 0
-741 1424 0
-740 1424 0
-740 -741 1425 0
-743 1426 0
-742 1426 0
-742 -743 1427 0
-745 1428 0
-744 1428 0
-744 -745 1429 0
-747 1430 0
-746 1430 0
-746 -747 1431 0
-749 1432 0
-748 1432 0
-748 -749 1433 0
-751 1434 0
-750 1434 0
-750 -751 1435 0
-753 1436 0
-752 1436 0
-752 -753 1437 0
-755 1438 0
-754 1438 0
-754 -755 1439 0
-757 1440 0
-756 1440 0
-756 -757 1441 0
-759 1442 0
-758 1442 0
-758 -759 1443 0
-761 1444 0
-760 1444 0
-760 -761 1445 0
-763 1446 0
-762 1446 0
-762 -763 1447 0
-765 1448 0
-764 1448 0
-764 -765 1449 0
-767 1450 0
-766 1450 0
-766 -767 1451 0
-769 1452 0
-768 1452 0
-768 -769 1453 0
-771 1454 0
-770 1454 0
-770 -771 1455 0
-773 1456 0
-772 1456 0
-772 -773 1457 0
-775 1458 0
-774 1458 0
-774 -775 1459 0
-777 1460 0
-776 1460 0
-776 -777 1461 0
-779 1462 0
-778 1462 0
-778 -779 1463 0
-781 1464 0
-780 1464 0
-780 -781 1465 0
-783 1466 0
-782 1466 0
-782 -783 1467 0
-785 1468 0
-784 1468 0
-784 -785 1469 0
-787 1470 0
-786 1470 0
-786 -787 1471 0
-789 1472 0
-788 1472 0
-788 -789 1473 0
-791 1474 0
-790 1474 0
-790 -791 1475 0
-793 1476 0
-792 1476 0
-792 -793 1477 0
-795 1478 0
-794 1478 0
-794 -795 1479 0
-797 1480 0
-796 1480 0
-796 -797 1481 0
-799 1482 0
-798 1482 0
-798 -799 1483 0
-801 1484 0
-800 1484 0
-800 -801 1485 0
-803 1486 0
-802 1486 0
-802 -803 1487 0
-805 1488 0
-804 1488 0
-804 -805 1489 0
-807 1490 0
-806 1490 0
-806 -807 1491 0
-809 1492 0
-808 1492 0
-808 -809 1493 0
-811 1494 0
-810 1494 0
-810 -811 1495 0
-813 1496 0
-812 1496 0
-812 -813 1497 0
-815 1498 0
-814 1498 0
-814 -815 1499 0
-817 1500 0
-816 1500 0
-816 -817 1501 0
-819 1502 0
-818 1502 0
-818 -819 1503 0
-821 1504 0
-820 1504 0
-820 -821 1505 0
-823 1506 0
-822 1506 0
-822 -823 1507 0
-825 1508 0
-824 1508 0
-824 -825 1509 0
-827 1510 0
-826 1510 0
-826 -827 1511 0
-829 1512 0
-828 1512 0
-828 -829 1513 0
-831 1514 0
-830 1514 0
-830 -831 1515 0
-833 1516 0
-832 1516 0
-832 -833 1517 0
-835 1518 0
-834 1518 0
-834 -835 1519 0
-837 1520 0
-836 1520 0
-836 -837 1521 0
-839 1522 0
-838 1522 0
-838 -839 1523 0
-841 1524 0
-840 1524 0
-840 -841 1525 0
-843 1526 0
-842 1526 0
-842 -843 1527 0
-845 1528 0
-844 1528 0
-844 -845 1529 0
-847 1530 0
-846 1530 0
-846 -847 1531 0
-849 1532 0
-848 1532 0
-848 -849 1533 0
-851 1534 0
-850 1534 0
-850 -851 1535 0
-853 1536 0
-852 1536 0
-852 -853 1537 0
-855 1538 0
-854 1538 0
-854 -855 1539 0
-857 1540 0
-856 1540 0
-856 -857 1541 0
-859 1542 0
-858 1542 0
-858 -859 1543 0
-861 1544 0
-860 1544 0
-860 -861 1545 0
-863 1546 0
-862 1546 0
-862 -863 1547 0
-865 1548 0
-864 1548 0
-864 -865 1549 0
-867 1550 0
-866 1550 0
-866 -867 1551 0
-869 1552 0
-868 1552 0
-868 -869 1553 0
-871 1554 0
-870 1554 0
-870 -871 1555 0
-873 1556 0
-872 1556 0
-872 -873 1557 0
-875 1558 0
-874 1558 0
-874 -875 1559 0
-877 1560 0
-876 1560 0
-876 -877 1561 0
-879 1562 0
-878 1562 0
-878 -879 1563 0
-881 1564 0
-880 1564 0
-880 -881 1565 0
-883 1566 0
-882 1566 0
-882 -883 1567 0
-885 1568 0
-884 1568 0
-884 -885 1569 0
-887 1570 0
-886 1570 0
-886 -887 1571 0
-889 1572 0
-888 1572 0
-888 -889 1573 0
-891 1574 0
-890 1574 0
-890 -891 1575 0
-893 1576 0
-892 1576 0
-892 -893 1577 0
-895 1578 0
-894 1578 0
-894 -895 1579 0
-897 1580 0
-896 1580 0
-896 -897 1581 0
-899 1582 0
-898 1582 0
-898 -899 1583 0
-901 1584 0
-900 1584 0
-900 -901 1585 0
-903 1586 0
-902 1586 0
-902 -903 1587 0
-905 1588 0
-904 1588 0
-904 -905 1589 0
-907 1590 0
-906 1590 0
-906 -907 1591 0
-909 1592 0
-908 1592 0
-908 -909 1593 0
-911 1594 0
-910 1594 0
-910 -911 1595 0
-913 1596 0
-912 1596 0
-912 -913 1597 0
-915 1598 0
-914 1598 0
-914 -915 1599 0
-917 1600 0
-916 1600 0
-916 -917 1601 0
-919 1602 0
-918 1602 0
-918 -919 1603 0
-921 1604 0
-920 1604 0
-920 -921 1605 0
-923 1606 0
-922 1606 0
-922 -923 1607 0
-925 1608 0
-924 1608 0
-924 -925 1609 0
-927 1610 0
-926 1610 0
-926 -927 1611 0
-929 1612 0
-928 1612 0
-928 -929 1613 0
-931 1614 0
-930 1614 0
-930 -931 1615 0
-933 1616 0
-932 1616 0
-932 -933 1617 0
-935 1618 0
-934 1618 0
-934 -935 1619 0
-937 1620 0
-936 1620 0
-936 -937 1621 0
-939 1622 0
-938 1622 0
-938 -939 1623 0
-941 1624 0
-940 1624 0
-940 -941 1625 0
-943 1626 0
-942 1626 0
-942 -943 1627 0
-945 1628 0
-944 1628 0
-944 -945 1629 0
-947 1630 0
-946 1630 0
-946 -947 1631 0
-949 1632 0
-948 1632 0
-948 -949 1633 0
-951 1634 0
-950 1634 0
-950 -951 1635 0
-953 1636 0
-952 1636 0
-952 -953 1637 0
-955 1638 0
-954 1638 0
-954 -955 1639 0
-957 1640 0
-956 1640 0
-956 -957 1641 0
-959 1642 0
-958 1642 0
-958 -959 1643 0
-961 1644 0
-960 1644 0
-960 -961 1645 0
-963 1646 0
-962 1646 0
-962 -963 1647 0
-965 1648 0
-964 1648 0
-964 -965 1649 0
-967 1650 0
-966 1650 0
-966 -967 1651 0
-969 1652 0
-968 1652 0
-968 -969 1653 0
-971 1654 0
-970 1654 0
-970 -971 1655 0
-973 1656 0
-972 1656 0
-972 -973 1657 0
-975 1658 0
-974 1658 0
-974 -975 1659 0
-977 1660 0
-976 1660 0
-976 -977 1661 0
-979 1662 0
-978 1662 0
-978 -979 1663 0
-981 1664 0
-980 1664 0
-980 -981 1665 0
-983 1666 0
-982 1666 0
-982 -983 1667 0
-985 1668 0
-984 1668 0
-984 -985 1669 0
-987 1670 0
-986 1670 0
-986 -987 1671 0
-989 1672 0
-988 1672 0
-988 -989 1673 0
-991 1674 0
-990 1674 0
-990 -991 1675 0
-993 1676 0
-992 1676 0
-992 -993 1677 0
-995 1678 0
-994 1678 0
-994 -995 1679 0
-997 1680 0
-996 1680 0
-996 -997 1681 0
-999 1682 0
-998 1682 0
-998 -999 1683 0
-1001 1684 0
-1000 1684 0
-1000 -1001 1685 0
-1003 1686 0
-1002 1686 0
-1002 -1003 1687 0
-1005 1688 0
-1004 1688 0
-1004 -1005 1689 0
-1007 1690 0
-1006 1690 0
-1006 -1007 1691 0
-1009 1692 0
-1008 1692 0
-1008 -1009 1693 0
-1011 1694 0
-1010 1694 0
-1010 -1011 1695 0
-1013 1696 0
-1012 1696 0
-1012 -1013 1697 0
-1015 1698 0
-1014 1698 0
-1014 -1015 1699 0
-1017 1700 0
-1016 1700 0
-1016 -1017 1701 0
-1019 1702 0
-1018 1702 0
-1018 -1019 1703 0
-1021 1704 0
-1020 1704 0
-1020 -1021 1705 0
-1023 1706 0
-1022 1706 0
-1022 -1023 1707 0
-1025 1708 0
-1024 1708 0
-1024 -1025 1709 0
-1027 1710 0
-1026 1710 0
-1026 -1027 1711 0
-1029 1712 0
-1028 1712 0
-1028 -1029 1713 0
-1031 1714 0
-1030 1714 0
-1030 -1031 1715 0
-1033 1716 0
-1032 1716 0
-1032 -1033 1717 0
-1035 1718 0
-1034 1718 0
-1034 -1035 1719 0
-1037 1720 0
-1036 1720 0
-1036 -1037 1721 0
-1039 1722 0
-1038 1722 0
-1038 -1039 1723 0
-1041 1724 0
-1040 1724 0
-1040 -1041 1725 0
-1043 1726 0
-1042 1726 0
-1042 -1043 1727 0
-1045 1728 0
-1044 1728 0
-1044 -1045 1729 0
-1047 1730 0
-1046 1730 0
-1046 -1047 1731 0
-1049 1732 0
-1048 1732 0
-1048 -1049 1733 0
-1051 1734 0
-1050 1734 0
-1050 -1051 1735 0
-1053 1736 0
-1052 1736 0
-1052 -1053 1737 0
-1055 1738 0
-1054 1738 0
-1054 -1055 1739 0
-1057 1740 0
-1056 1740 0
-1056 -1057 1741 0
-1059 1742 0
-1058 1742 0
-1058 -1059 1743 0
-1061 1744 0
-1060 1744 0
-1060 -1061 1745 0
-1063 1746 0
-1062 1746 0
-1062 -1063 1747 0
-1065 1748 0
-1064 1748 0
-1064 -1065 1749 0
-1067 1750 0
-1066 1750 0
-1066 -1067 1751 0
-1069 1752 0
-1068 1752 0
-1068 -1069 1753 0
-1071 1754 0
-1070 1754 0
-1070 -1071 1755 0
-1073 1756 0
-1072 1756 0
-1072 -1073 1757 0
-1075 1758 0
-1074 1758 0
-1074 -1075 1759 0
-1077 1760 0
-1076 1760 0
-1076 -1077 1761 0
-1079 1762 0
-1078 1762 0
-1078 -1079 1763 0
-1081 1764 0
-1080 1764 0
-1080 -1081 1765 0
-1083 1766 0
-1082 1766 0
-1082 -1083 1767 0
-1085 1768 0
-1084 1768 0
-1084 -1085 1769 0
-1087 1770 0
-1086 1770 0
-1086 -1087 1771 0
-1089 1772 0
-1088 1772 0
-1088 -1089 1773 0
-1091 1774 0
-1090 1774 0
-1090 -1091 1775 0
-1093 1776 0
-1092 1776 0
-1092 -1093 1777 0
-1095 1778 0
-1094 1778 0
-1094 -1095 1779 0
-1097 1780 0
-1096 1780 0
-1096 -1097 1781 0
-1099 1782 0
-1098 1782 0
-1098 -1099 1783 0
-1101 1784 0
-1100 1784 0
-1100 -1101 1785 0
-1103 1786 0
-1102 1786 0
-1102 -1103 1787 0
-1105 1788 0
-1104 1788 0
-1104 -1105 1789 0
-1107 1790 0
-1106 1790 0
-1106 -1107 1791 0
-1109 1792 0
-1108 1792 0
-1108 -1109 1793 0
-1111 1794 0
-1110 1794 0
-1110 -1111 1795 0
-1113 1796 0
-1112 1796 0
-1112 -1113 1797 0
-1115 1798 0
-1114 1798 0
-1114 -1115 1799 0
-1117 1800 0
-1116 1800 0
-1116 -1117 1801 0
-1119 1802 0
-1118 1802 0
-1118 -1119 1803 0
-1121 1804 0
-1120 1804 0
-1120 -1121 1805 0
-1123 1806 0
-1122 1806 0
-1122 -1123 1807 0
-1125 1808 0
-1124 1808 0
-1124 -1125 1809 0
-1127 1810 0
-1126 1810 0
-1126 -1127 1811 0
-1129 1812 0
-1128 1812 0
-1128 -1129 1813 0
-1131 1814 0
-1130 1814 0
-1130 -1131 1815 0
-1133 1816 0
-1132 1816 0
-1132 -1133 1817 0
-1135 1818 0
-1134 1818 0
-1134 -1135 1819 0
-1137 1820 0
-1136 1820 0
-1136 -1137 1821 0
-1139 1822 0
-1138 1822 0
-1138 -1139 1823 0
-1141 1824 0
-1140 1824 0
-1140 -1141 1825 0
-1143 1826 0
-1142 1826 0
-1142 -1143 1827 0
-1145 1828 0
-1144 1828 0
-1144 -1145 1829 0
-1147 1830 0
-1146 1830 0
-1146 -1147 1831 0
-1149 1832 0
-1148 1832 0
-1148 -1149 1833 0
-1151 1834 0
-1150 1834 0
-1150 -1151 1835 0
-1153 1836 0
-1152 1836 0
-1152 -1153 1837 0
-1155 1838 0
-1154 1838 0
-1154 -1155 1839 0
-1157 1840 0
-1156 1840 0
-1156 -1157 1841 0
-1159 1842 0
-1158 1842 0
-1158 -1159 1843 0
-1161 1844 0
-1160 1844 0
-1160 -1161 1845 0
-1163 1846 0
-1162 1846 0
-1162 -1163 1847 0
-1165 1848 0
-1164 1848 0
-1164 -1165 1849 0
-1167 1850 0
-1166 1850 0
-1166 -1167 1851 0
-1169 1852 0
-1168 1852 0
-1168 -1169 1853 0
-1171 1854 0
-1170 1854 0
-1170 -1171 1855 0
-1173 1856 0
-1172 1856 0
-1172 -1173 1857 0
-1175 1858 0
-1174 1858 0
-1174 -1175 1859 0
-1177 1860 0
-1176 1860 0
-1176 -1177 1861 0
-1180 1862 0
-1181 1863 0
-1178 1862 0
-1179 1863 0
-1178 -1180 1863 0
-1178 -1181 1864 0
-1179 -1180 1864 0
-1179 -1181 1865 0
-1184 1866 0
-1185 1867 0
-1182 1866 0
-1183 1867 0
-1182 -1184 1867 0
-1182 -1185 1868 0
-1183 -1184 1868 0
-1183 -1185 1869 0
-1188 1870 0
-1189 1871 0
-1186 1870 0
-1187 1871 0
-1186 -1188 1871 0
-1186 -1189 1872 0
-1187 -1188 1872 0
-1187 -1189 1873 0
-1192 1874 0
-1193 1875 0
-1190 1874 0
-1191 1875 0
-1190 -1192 1875 0
-1190 -1193 1876 0
-1191 -1192 1876 0
-1191 -1193 1877 0
-1196 1878 0
-1197 1879 0
-1194 1878 0
-1195 1879 0
-1194 -1196 1879 0
-1194 -1197 1880 0
-1195 -1196 1880 0
-1195 -1197 1881 0
-1200 1882 0
-1201 1883 0
-1198 1882 0
-1199 1883 0
-1198 -1200 1883 0
-1198 -1201 1884 0
-1199 -1200 1884 0
-1199 -1201 1885 0
-1204 1886 0
-1205 1887 0
-1202 1886 0
-1203 1887 0
-1202 -1204 1887 0
-1202 -1205 1888 0
-1203 -1204 1888 0
-1203 -1205 1889 0
-1208 1890 0
-1209 1891 0
-1206 1890 0
-1207 1891 0
-1206 -1208 1891 0
-1206 -1209 1892 0
-1207 -1208 1892 0
-1207 -1209 1893 0
-1212 1894 0
-1213 1895 0
-1210 1894 0
-1211 1895 0
-1210 -1212 1895 0
-1210 -1213 1896 0
-1211 -1212 1896 0
-1211 -1213 1897 0
-1216 1898 0
-1217 1899 0
-1214 1898 0
-1215 1899 0
-1214 -1216 1899 0
-1214 -1217 1900 0
-1215 -1216 1900 0
-1215 -1217 1901 0
-1220 1902 0
-1221 1903 0
-1218 1902 0
-1219 1903 0
-1218 -1220 1903 0
-1218 -1221 1904 0
-1219 -1220 1904 0
-1219 -1221 1905 0
-1224 1906 0
-1225 1907 0
-1222 1906 0
-1223 1907 0
-1222 -1224 1907 0
-1222 -1225 1908 0
-1223 -1224 1908 0
-1223 -1225 1909 0
-1228 1910 0
-1229 1911 0
-1226 1910 0
-1227 1911 0
-1226 -1228 1911 0
-1226 -1229 1912 0
-1227 -1228 1912 0
-1227 -1229 1913 0
-1232 1914 0
-1233 1915 0
-1230 1914 0
-1231 1915 0
-1230 -1232 1915 0
-1230 -1233 1916 0
-1231 -1232 1916 0
-1231 -1233 1917 0
-1236 1918 0
-1237 1919 0
-1234 1918 0
-1235 1919 0
-1234 -1236 1919 0
-1234 -1237 1920 0
-1235 -1236 1920 0
-1235 -1237 1921 0
-1240 1922 0
-1241 1923 0
-1238 1922 0
-1239 1923 0
-1238 -1240 1923 0
-1238 -1241 1924 0
-1239 -1240 1924 0
-1239 -1241 1925 0
-1244 1926 0
-1245 1927 0
-1242 1926 0
-1243 1927 0
-1242 -1244 1927 0
-1242 -1245 1928 0
-1243 -1244 1928 0
-1243 -1245 1929 0
-1248 1930 0
-1249 1931 0
-1246 1930 0
-1247 1931 0
-1246 -1248 1931 0
-1246 -1249 1932 0
-1247 -1248 1932 0
-1247 -1249 1933 0
-1252 1934 0
-1253 1935 0
-1250 1934 0
-1251 1935 0
-1250 -1252 1935 0
-1250 -1253 1936 0
-1251 -1252 1936 0
-1251 -1253 1937 0
-1256 1938 0
-1257 1939 0
-1254 1938 0
-1255 1939 0
-1254 -1256 1939 0
-1254 -1257 1940 0
-1255 -1256 1940 0
-1255 -1257 1941 0
-1260 1942 0
-1261 1943 0
-1258 1942 0
-1259 1943 0
-1258 -1260 1943 0
-1258 -1261 1944 0
-1259 -1260 1944 0
-1259 -1261 1945 0
-1264 1946 0
-1265 1947 0
-1262 1946 0
-1263 1947 0
-1262 -1264 1947 0
-1262 -1265 1948 0
-1263 -1264 1948 0
-1263 -1265 1949 0
-1268 1950 0
-1269 1951 0
-1266 1950 0
-1267 1951 0
-1266 -1268 1951 0
-1266 -1269 1952 0
-1267 -1268 1952 0
-1267 -1269 1953 0
-1272 1954 0
-1273 1955 0
-1270 1954 0
-1271 1955 0
-1270 -1272 1955 0
-1270 -1273 1956 0
-1271 -1272 1956 0
-1271 -1273 1957 0
-1276 1958 0
-1277 1959 0
-1274 1958 0
-1275 1959 0
-1274 -1276 1959 0
-1274 -1277 1960 0
-1275 -1276 1960 0
-1275 -1277 1961 0
-1280 1962 0
-1281 1963 0
-1278 1962 0
-1279 1963 0
-1278 -1280 1963 0
-1278 -1281 1964 0
-1279 -1280 1964 0
-1279 -1281 1965 0
-1284 1966 0
-1285 1967 0
-1282 1966 0
-1283 1967 0
-1282 -1284 1967 0
-1282 -1285 1968 0
-1283 -1284 1968 0
-1283 -1285 1969 0
-1288 1970 0
-1289 1971 0
-1286 1970 0
-1287 1971 0
-1286 -1288 1971 0
-1286 -1289 1972 0
-1287 -1288 1972 0
-1287 -1289 1973 0
-1292 1974 0
-1293 1975 0
-1290 1974 0
-1291 1975 0
-1290 -1292 1975 0
-1290 -1293 1976 0
-1291 -1292 1976 0
-1291 -1293 1977 0
-1296 1978 0
-1297 1979 0
-1294 1978 0
-1295 1979 0
-1294 -1296 1979 0
-1294 -1297 1980 0
-1295 -1296 1980 0
-1295 -1297 1981 0
-1300 1982 0
-1301 1983 0
-1298 1982 0
-1299 1983 0
-1298 -1300 1983 0
-1298 -1301 1984 0
-1299 -1300 1984 0
-1299 -1301 1985 0
-1304 1986 0
-1305 1987 0
-1302 1986 0
-1303 1987 0
-1302 -1304 1987 0
-1302 -1305 1988 0
-1303 -1304 1988 0
-1303 -1305 1989 0
-1308 1990 0
-1309 1991 0
-1306 1990 0
-1307 1991 0
-1306 -1308 1991 0
-1306 -1309 1992 0
-1307 -1308 1992 0
-1307 -1309 1993 0
-1312 1994 0
-1313 1995 0
-1310 1994 0
-1311 1995 0
-1310 -1312 1995 0
-1310 -1313 1996 0
-1311 -1312 1996 0
-1311 -1313 1997 0
-1316 1998 0
-1317 1999 0
-1314 1998 0
-1315 1999 0
-1314 -1316 1999 0
-1314 -1317 2000 0
-1315 -1316 2000 0
-1315 -1317 2001 0
-1320 2002 0
-1321 2003 0
-1318 2002 0
-1319 2003 0
-1318 -1320 2003 0
-1318 -1321 2004 0
-1319 -1320 2004 0
-1319 -1321 2005 0
-1324 2006 0
-1325 2007 0
-1322 2006 0
-1323 2007 0
-1322 -1324 2007 0
-1322 -1325 2008 0
-1323 -1324 2008 0
-1323 -1325 2009 0
-1328 2010 0
-1329 2011 0
-1326 2010 0
-1327 2011 0
-1326 -1328 2011 0
-1326 -1329 2012 0
-1327 -1328 2012 0
-1327 -1329 2013 0
-1332 2014 0
-1333 2015 0
-1330 2014 0
-1331 2015 0
-1330 -1332 2015 0
-1330 -1333 2016 0
-1331 -1332 2016 0
-1331 -1333 2017 0
-1336 2018 0
-1337 2019 0
-1334 2018 0
-1335 2019 0
-1334 -1336 2019 0
-1334 -1337 2020 0
-1335 -1336 2020 0
-1335 -1337 2021 0
-1340 2022 0
-1341 2023 0
-1338 2022 0
-1339 2023 0
-1338 -1340 2023 0
-1338 -1341 2024 0
-1339 -1340 2024 0
-1339 -1341 2025 0
-1344 2026 0
-1345 2027 0
-1342 2026 0
-1343 2027 0
-1342 -1344 2027 0
-1342 -1345 2028 0
-1343 -1344 2028 0
-1343 -1345 2029 0
-1348 2030 0
-1349 2031 0
-1346 2030 0
-1347 2031 0
-1346 -1348 2031 0
-1346 -1349 2032 0
-1347 -1348 2032 0
-1347 -1349 2033 0
-1352 2034 0
-1353 2035 0
-1350 2034 0
-1351 2035 0
-1350 -1352 2035 0
-1350 -1353 2036 0
-1351 -1352 2036 0
-1351 -1353 2037 0
-1356 2038 0
-1357 2039 0
-1354 2038 0
-1355 2039 0
-1354 -1356 2039 0
-1354 -1357 2040 0
-1355 -1356 2040 0
-1355 -1357 2041 0
-1360 2042 0
-1361 2043 0
-1358 2042 0
-1359 2043 0
-1358 -1360 2043 0
-1358 -1361 2044 0
-1359 -1360 2044 0
-1359 -1361 2045 0
-1364 2046 0
-1365 2047 0
-1362 2046 0
-1363 2047 0
-1362 -1364 2047 0
-1362 -1365 2048 0
-1363 -1364 2048 0
-1363 -1365 2049 0
-1368 2050 0
-1369 2051 0
-1366 2050 0
-1367 2051 0
-1366 -1368 2051 0
-1366 -1369 2052 0
-1367 -1368 2052 0
-1367 -1369 2053 0
-1372 2054 0
-1373 2055 0
-1370 2054 0
-1371 2055 0
-1370 -1372 2055 0
-1370 -1373 2056 0
-1371 -1372 2056 0
-1371 -1373 2057 0
-1376 2058 0
-1377 2059 0
-1374 2058 0
-1375 2059 0
-1374 -1376 2059 0
-1374 -1377 2060 0
-1375 -1376 2060 0
-1375 -1377 2061 0
-1380 2062 0
-1381 2063 0
-1378 2062 0
-1379 2063 0
-1378 -1380 2063 0
-1378 -1381 2064 0
-1379 -1380 2064 0
-1379 -1381 2065 0
-1384 2066 0
-1385 2067 0
-1382 2066 0
-1383 2067 0
-1382 -1384 2067 0
-1382 -1385 2068 0
-1383 -1384 2068 0
-1383 -1385 2069 0
-1388 2070 0
-1389 2071 0
-1386 2070 0
-1387 2071 0
-1386 -1388 2071 0
-1386 -1389 2072 0
-1387 -1388 2072 0
-1387 -1389 2073 0
-1392 2074 0
-1393 2075 0
-1390 2074 0
-1391 2075 0
-1390 -1392 2075 0
-1390 -1393 2076 0
-1391 -1392 2076 0
-1391 -1393 2077 0
-1396 2078 0
-1397 2079 0
-1394 2078 0
-1395 2079 0
-1394 -1396 2079 0
-1394 -1397 2080 0
-1395 -1396 2080 0
-1395 -1397 2081 0
-1400 2082 0
-1401 2083 0
-1398 2082 0
-1399 2083 0
-1398 -1400 2083 0
-1398 -1401 2084 0
-1399 -1400 2084 0
-1399 -1401 2085 0
-1404 2086 0
-1405 2087 0
-1402 2086 0
-1403 2087 0
-1402 -1404 2087 0
-1402 -1405 2088 0
-1403 -1404 2088 0
-1403 -1405 2089 0
-1408 2090 0
-1409 2091 0
-1406 2090 0
-1407 2091 0
-1406 -1408 2091 0
-1406 -1409 2092 0
-1407 -1408 2092 0
-1407 -1409 2093 0
-1412 2094 0
-1413 2095 0
-1410 2094 0
-1411 2095 0
-1410 -1412 2095 0
-1410 -1413 2096 0
-1411 -1412 2096 0
-1411 -1413 2097 0
-1416 2098 0
-1417 2099 0
-1414 2098 0
-1415 2099 0
-1414 -1416 2099 0
-1414 -1417 2100 0
-1415 -1416 2100 0
-1415 -1417 2101 0
-1420 2102 0
-1421 2103 0
-1418 2102 0
-1419 2103 0
-1418 -1420 2103 0
-1418 -1421 2104 0
-1419 -1420 2104 0
-1419 -1421 2105 0
-1424 2106 0
-1425 2107 0
-1422 2106 0
-1423 2107 0
-1422 -1424 2107 0
-1422 -1425 2108 0
-1423 -1424 2108 0
-1423 -1425 2109 0
-1428 2110 0
-1429 2111 0
-1426 2110 0
-1427 2111 0
-1426 -1428 2111 0
-1426 -1429 2112 0
-1427 -1428 2112 0
-1427 -1429 2113 0
-1432 2114 0
-1433 2115 0
-1430 2114 0
-1431 2115 0
-1430 -1432 2115 0
-1430 -1433 2116 0
-1431 -1432 2116 0
-1431 -1433 2117 0
-1436 2118 0
-1437 2119 0
-1434 2118 0
-1435 2119 0
-1434 -1436 2119 0
-1434 -1437 2120 0
-1435 -1436 2120 0
-1435 -1437 2121 0
-1440 2122 0
-1441 2123 0
-1438 2122 0
-1439 2123 0
-1438 -1440 2123 0
-1438 -1441 2124 0
-1439 -1440 2124 0
-1439 -1441 2125 0
-1444 2126 0
-1445 2127 0
-1442 2126 0
-1443 2127 0
-1442 -1444 2127 0
-1442 -1445 2128 0
-1443 -1444 2128 0
-1443 -1445 2129 0
-1448 2130 0
-1449 2131 0
-1446 2130 0
-1447 2131 0
-1446 -1448 2131 0
-1446 -1449 2132 0
-1447 -1448 2132 0
-1447 -1449 2133 0
-1452 2134 0
-1453 2135 0
-1450 2134 0
-1451 2135 0
-1450 -1452 2135 0
-1450 -1453 2136 0
-1451 -1452 2136 0
-1451 -1453 2137 0
-1456 2138 0
-1457 2139 0
-1454 2138 0
-1455 2139 0
-1454 -1456 2139 0
-1454 -1457 2140 0
-1455 -1456 2140 0
-1455 -1457 2141 0
-1460 2142 0
-1461 2143 0
-1458 2142 0
-1459 2143 0
-1458 -1460 2143 0
-1458 -1461 2144 0
-1459 -1460 2144 0
-1459 -1461 2145 0
-1464 2146 0
-1465 2147 0
-1462 2146 0
-1463 2147 0
-1462 -1464 2147 0
-1462 -1465 2148 0
-1463 -1464 2148 0
-1463 -1465 2149 0
-1468 2150 0
-1469 2151 0
-1466 2150 0
-1467 2151 0
-1466 -1468 2151 0
-1466 -1469 2152 0
-1467 -1468 2152 0
-1467 -1469 2153 0
-1472 2154 0
-1473 2155 0
-1470 2154 0
-1471 2155 0
-1470 -1472 2155 0
-1470 -1473 2156 0
-1471 -1472 2156 0
-1471 -1473 2157 0
-1476 2158 0
-1477 2159 0
-1474 2158 0
-1475 2159 0
-1474 -1476 2159 0
-1474 -1477 2160 0
-1475 -1476 2160 0
-1475 -1477 2161 0
-1480 2162 0
-1481 2163 0
-1478 2162 0
-1479 2163 0
-1478 -1480 2163 0
-1478 -1481 2164 0
-1479 -1480 2164 0
-1479 -1481 2165 0
-1484 2166 0
-1485 2167 0
-1482 2166 0
-1483 2167 0
-1482 -1484 2167 0
-1482 -1485 2168 0
-1483 -1484 2168 0
-1483 -1485 2169 0
-1488 2170 0
-1489 2171 0
-1486 2170 0
-1487 2171 0
-1486 -1488 2171 0
-1486 -1489 2172 0
-1487 -1488 2172 0
-1487 -1489 2173 0
-1492 2174 0
-1493 2175 0
-1490 2174 0
-1491 2175 0
-1490 -1492 2175 0
-1490 -1493 2176 0
-1491 -1492 2176 0
-1491 -1493 2177 0
-1496 2178 0
-1497 2179 0
-1494 2178 0
-1495 2179 0
-1494 -1496 2179 0
-1494 -1497 2180 0
-1495 -1496 2180 0
-1495 -1497 2181 0
-1500 2182 0
-1501 2183 0
-1498 2182 0
-1499 2183 0
-1498 -1500 2183 0
-1498 -1501 2184 0
-1499 -1500 2184 0
-1499 -1501 2185 0
-1504 2186 0
-1505 2187 0
-1502 2186 0
-1503 2187 0
-1502 -1504 2187 0
-1502 -1505 2188 0
-1503 -1504 2188 0
-1503 -1505 2189 0
-1508 2190 0
-1509 2191 0
-1506 2190 0
-1507 2191 0
-1506 -1508 2191 0
-1506 -1509 2192 0
-1507 -1508 2192 0
-1507 -1509 2193 0
-1512 2194 0
-1513 2195 0
-1510 2194 0
-1511 2195 0
-1510 -1512 2195 0
-1510 -1513 2196 0
-1511 -1512 2196 0
-1511 -1513 2197 0
-1516 2198 0
-1517 2199 0
-1514 2198 0
-1515 2199 0
-1514 -1516 2199 0
-1514 -1517 2200 0
-1515 -1516 2200 0
-1515 -1517 2201 0
-1520 2202 0
-1521 2203 0
-1518 2202 0
-1519 2203 0
-1518 -1520 2203 0
-1518 -1521 2204 0
-1519 -1520 2204 0
-1519 -1521 2205 0
-1524 2206 0
-1525 2207 0
-1522 2206 0
-1523 2207 0
-1522 -1524 2207 0
-1522 -1525 2208 0
-1523 -1524 2208 0
-1523 -1525 2209 0
-1528 2210 0
-1529 2211 0
-1526 2210 0
-1527 2211 0
-1526 -1528 2211 0
-1526 -1529 2212 0
-1527 -1528 2212 0
-1527 -1529 2213 0
-1532 2214 0
-1533 2215 0
-1530 2214 0
-1531 2215 0
-1530 -1532 2215 0
-1530 -1533 2216 0
-1531 -1532 2216 0
-1531 -1533 2217 0
-1536 2218 0
-1537 2219 0
-1534 2218 0
-1535 2219 0
-1534 -1536 2219 0
-1534 -1537 2220 0
-1535 -1536 2220 0
-1535 -1537 2221 0
-1540 2222 0
-1541 2223 0
-1538 2222 0
-1539 2223 0
-1538 -1540 2223 0
-1538 -1541 2224 0
-1539 -1540 2224 0
-1539 -1541 2225 0
-1544 2226 0
-1545 2227 0
-1542 2226 0
-1543 2227 0
-1542 -1544 2227 0
-1542 -1545 2228 0
-1543 -1544 2228 0
-1543 -1545 2229 0
-1548 2230 0
-1549 2231 0
-1546 2230 0
-1547 2231 0
-1546 -1548 2231 0
-1546 -1549 2232 0
-1547 -1548 2232 0
-1547 -1549 2233 0
-1552 2234 0
-1553 2235 0
-1550 2234 0
-1551 2235 0
-1550 -1552 2235 0
-1550 -1553 2236 0
-1551 -1552 2236 0
-1551 -1553 2237 0
-1556 2238 0
-1557 2239 0
-1554 2238 0
-1555 2239 0
-1554 -1556 2239 0
-1554 -1557 2240 0
-1555 -1556 2240 0
-1555 -1557 2241 0
-1560 2242 0
-1561 2243 0
-1558 2242 0
-1559 2243 0
-1558 -1560 2243 0
-1558 -1561 2244 0
-1559 -1560 2244 0
-1559 -1561 2245 0
-1564 2246 0
-1565 2247 0
-1562 2246 0
-1563 2247 0
-1562 -1564 2247 0
-1562 -1565 2248 0
-1563 -1564 2248 0
-1563 -1565 2249 0
-1568 2250 0
-1569 2251 0
-1566 2250 0
-1567 2251 0
-1566 -1568 2251 0
-1566 -1569 2252 0
-1567 -1568 2252 0
-1567 -1569 2253 0
-1572 2254 0
-1573 2255 0
-1570 2254 0
-1571 2255 0
-1570 -1572 2255 0
-1570 -1573 2256 0
-1571 -1572 2256 0
-1571 -1573 2257 0
-1576 2258 0
-1577 2259 0
-1574 2258 0
-1575 2259 0
-1574 -1576 2259 0
-1574 -1577 2260 0
-1575 -1576 2260 0
-1575 -1577 2261 0
-1580 2262 0
-1581 2263 0
-1578 2262 0
-1579 2263 0
-1578 -1580 2263 0
-1578 -1581 2264 0
-1579 -1580 2264 0
-1579 -1581 2265 0
-1584 2266 0
-1585 2267 0
-1582 2266 0
-1583 2267 0
-1582 -1584 2267 0
-1582 -1585 2268 0
-1583 -1584 2268 0
-1583 -1585 2269 0
-1588 2270 0
-1589 2271 0
-1586 2270 0
-1587 2271 0
-1586 -1588 2271 0
-1586 -1589 2272 0
-1587 -1588 2272 0
-1587 -1589 2273 0
-1592 2274 0
-1593 2275 0
-1590 2274 0
-1591 2275 0
-1590 -1592 2275 0
-1590 -1593 2276 0
-1591 -1592 2276 0
-1591 -1593 2277 0
-1596 2278 0
-1597 2279 0
-1594 2278 0
-1595 2279 0
-1594 -1596 2279 0
-1594 -1597 2280 0
-1595 -1596 2280 0
-1595 -1597 2281 0
-1600 2282 0
-1601 2283 0
-1598 2282 0
-1599 2283 0
-1598 -1600 2283 0
-1598 -1601 2284 0
-1599 -1600 2284 0
-1599 -1601 2285 0
-1604 2286 0
-1605 2287 0
-1602 2286 0
-1603 2287 0
-1602 -1604 2287 0
-1602 -1605 2288 0
-1603 -1604 2288 0
-1603 -1605 2289 0
-1608 2290 0
-1609 2291 0
-1606 2290 0
-1607 2291 0
-1606 -1608 2291 0
-1606 -1609 2292 0
-1607 -1608 2292 0
-1607 -1609 2293 0
-1612 2294 0
-1613 2295 0
-1610 2294 0
-1611 2295 0
-1610 -1612 2295 0
-1610 -1613 2296 0
-1611 -1612 2296 0
-1611 -1613 2297 0
-1616 2298 0
-1617 2299 0
-1614 2298 0
-1615 2299 0
-1614 -1616 2299 0
-1614 -1617 2300 0
-1615 -1616 2300 0
-1615 -1617 2301 0
-1620 2302 0
-1621 2303 0
-1618 2302 0
-1619 2303 0
-1618 -1620 2303 0
-1618 -1621 2304 0
-1619 -1620 2304 0
-1619 -1621 2305 0
-1624 2306 0
-1625 2307 0
-1622 2306 0
-1623 2307 0
-1622 -1624 2307 0
-1622 -1625 2308 0
-1623 -1624 2308 0
-1623 -1625 2309 0
-1628 2310 0
-1629 2311 0
-1626 2310 0
-1627 2311 0
-1626 -1628 2311 0
-1626 -1629 2312 0
-1627 -1628 2312 0
-1627 -1629 2313 0
-1632 2314 0
-1633 2315 0
-1630 2314 0
-1631 2315 0
-1630 -1632 2315 0
-1630 -1633 2316 0
-1631 -1632 2316 0
-1631 -1633 2317 0
-1636 2318 0
-1637 2319 0
-1634 2318 0
-1635 2319 0
-1634 -1636 2319 0
-1634 -1637 2320 0
-1635 -1636 2320 0
-1635 -1637 2321 0
-1640 2322 0
-1641 2323 0
-1638 2322 0
-1639 2323 0
-1638 -1640 2323 0
-1638 -1641 2324 0
-1639 -1640 2324 0
-1639 -1641 2325 0
-1644 2326 0
-1645 2327 0
-1642 2326 0
-1643 2327 0
-1642 -1644 2327 0
-1642 -1645 2328 0
-1643 -1644 2328 0
-1643 -1645 2329 0
-1648 2330 0
-1649 2331 0
-1646 2330 0
-1647 2331 0
-1646 -1648 2331 0
-1646 -1649 2332 0
-1647 -1648 2332 0
-1647 -1649 2333 0
-1652 2334 0
-1653 2335 0
-1650 2334 0
-1651 2335 0
-1650 -1652 2335 0
-1650 -1653 2336 0
-1651 -1652 2336 0
-1651 -1653 2337 0
-1656 2338 0
-1657 2339 0
-1654 2338 0
-1655 2339 0
-1654 -1656 2339 0
-1654 -1657 2340 0
-1655 -1656 2340 0
-1655 -1657 2341 0
-1660 2342 0
-1661 2343 0
-1658 2342 0
-1659 2343 0
-1658 -1660 2343 0
-1658 -1661 2344 0
-1659 -1660 2344 0
-1659 -1661 2345 0
-1664 2346 0
-1665 2347 0
-1662 2346 0
-1663 2347 0
-1662 -1664 2347 0
-1662 -1665 2348 0
-1663 -1664 2348 0
-1663 -1665 2349 0
-1668 2350 0
-1669 2351 0
-1666 2350 0
-1667 2351 0
-1666 -1668 2351 0
-1666 -1669 2352 0
-1667 -1668 2352 0
-1667 -1669 2353 0
-1672 2354 0
-1673 2355 0
-1670 2354 0
-1671 2355 0
-1670 -1672 2355 0
-1670 -1673 2356 0
-1671 -1672 2356 0
-1671 -1673 2357 0
-1676 2358 0
-1677 2359 0
-1674 2358 0
-1675 2359 0
-1674 -1676 2359 0
-1674 -1677 2360 0
-1675 -1676 2360 0
-1675 -1677 2361 0
-1680 2362 0
-1681 2363 0
-1678 2362 0
-1679 2363 0
-1678 -1680 2363 0
-1678 -1681 2364 0
-1679 -1680 2364 0
-1679 -1681 2365 0
-1684 2366 0
-1685 2367 0
-1682 2366 0
-1683 2367 0
-1682 -1684 2367 0
-1682 -1685 2368 0
-1683 -1684 2368 0
-1683 -1685 2369 0
-1688 2370 0
-1689 2371 0
-1686 2370 0
-1687 2371 0
-1686 -1688 2371 0
-1686 -1689 2372 0
-1687 -1688 2372 0
-1687 -1689 2373 0
-1692 2374 0
-1693 2375 0
-1690 2374 0
-1691 2375 0
-1690 -1692 2375 0
-1690 -1693 2376 0
-1691 -1692 2376 0
-1691 -1693 2377 0
-1696 2378 0
-1697 2379 0
-1694 2378 0
-1695 2379 0
-1694 -1696 2379 0
-1694 -1697 2380 0
-1695 -1696 2380 0
-1695 -1697 2381 0
-1700 2382 0
-1701 2383 0
-1698 2382 0
-1699 2383 0
-1698 -1700 2383 0
-1698 -1701 2384 0
-1699 -1700 2384 0
-1699 -1701 2385 0
-1704 2386 0
-1705 2387 0
-1702 2386 0
-1703 2387 0
-1702 -1704 2387 0
-1702 -1705 2388 0
-1703 -1704 2388 0
-1703 -1705 2389 0
-1708 2390 0
-1709 2391 0
-1706 2390 0
-1707 2391 0
-1706 -1708 2391 0
-1706 -1709 2392 0
-1707 -1708 2392 0
-1707 -1709 2393 0
-1712 2394 0
-1713 2395 0
-1710 2394 0
-1711 2395 0
-1710 -1712 2395 0
-1710 -1713 2396 0
-1711 -1712 2396 0
-1711 -1713 2397 0
-1716 2398 0
-1717 2399 0
-1714 2398 0
-1715 2399 0
-1714 -1716 2399 0
-1714 -1717 2400 0
-1715 -1716 2400 0
-1715 -1717 2401 0
-1720 2402 0
-1721 2403 0
-1718 2402 0
-1719 2403 0
-1718 -1720 2403 0
-1718 -1721 2404 0
-1719 -1720 2404 0
-1719 -1721 2405 0
-1724 2406 0
-1725 2407 0
-1722 2406 0
-1723 2407 0
-1722 -1724 2407 0
-1722 -1725 2408 0
-1723 -1724 2408 0
-1723 -1725 2409 0
-1728 2410 0
-1729 2411 0
-1726 2410 0
-1727 2411 0
-1726 -1728 2411 0
-1726 -1729 2412 0
-1727 -1728 2412 0
-1727 -1729 2413 0
-1732 2414 0
-1733 2415 0
-1730 2414 0
-1731 2415 0
-1730 -1732 2415 0
-1730 -1733 2416 0
-1731 -1732 2416 0
-1731 -1733 2417 0
-1736 2418 0
-1737 2419 0
-1734 2418 0
-1735 2419 0
-1734 -1736 2419 0
-1734 -1737 2420 0
-1735 -1736 2420 0
-1735 -1737 2421 0
-1740 2422 0
-1741 2423 0
-1738 2422 0
-1739 2423 0
-1738 -1740 2423 0
-1738 -1741 2424 0
-1739 -1740 2424 0
-1739 -1741 2425 0
-1744 2426 0
-1745 2427 0
-1742 2426 0
-1743 2427 0
-1742 -1744 2427 0
-1742 -1745 2428 0
-1743 -1744 2428 0
-1743 -1745 2429 0
-1748 2430 0
-1749 2431 0
-1746 2430 0
-1747 2431 0
-1746 -1748 2431 0
-1746 -1749 2432 0
-1747 -1748 2432 0
-1747 -1749 2433 0
-1752 2434 0
-1753 2435 0
-1750 2434 0
-1751 2435 0
-1750 -1752 2435 0
-1750 -1753 2436 0
-1751 -1752 2436 0
-1751 -1753 2437 0
-1756 2438 0
-1757 2439 0
-1754 2438 0
-1755 2439 0
-1754 -1756 2439 0
-1754 -1757 2440 0
-1755 -1756 2440 0
-1755 -1757 2441 0
-1760 2442 0
-1761 2443 0
-1758 2442 0
-1759 2443 0
-1758 -1760 2443 0
-1758 -1761 2444 0
-1759 -1760 2444 0
-1759 -1761 2445 0
-1764 2446 0
-1765 2447 0
-1762 2446 0
-1763 2447 0
-1762 -1764 2447 0
-1762 -1765 2448 0
-1763 -1764 2448 0
-1763 -1765 2449 0
-1768 2450 0
-1769 2451 0
-1766 2450 0
-1767 2451 0
-1766 -1768 2451 0
-1766 -1769 2452 0
-1767 -1768 2452 0
-1767 -1769 2453 0
-1772 2454 0
-1773 2455 0
-1770 2454 0
-1771 2455 0
-1770 -1772 2455 0
-1770 -1773 2456 0
-1771 -1772 2456 0
-1771 -1773 2457 0
-1776 2458 0
-1777 2459 0
-1774 2458 0
-1775 2459 0
-1774 -1776 2459 0
-1774 -1777 2460 0
-1775 -1776 2460 0
-1775 -1777 2461 0
-1780 2462 0
-1781 2463 0
-1778 2462 0
-1779 2463 0
-1778 -1780 2463 0
-1778 -1781 2464 0
-1779 -1780 2464 0
-1779 -1781 2465 0
-1784 2466 0
-1785 2467 0
-1782 2466 0
-1783 2467 0
-1782 -1784 2467 0
-1782 -1785 2468 0
-1783 -1784 2468 0
-1783 -1785 2469 0
-1788 2470 0
-1789 2471 0
-1786 2470 0
-1787 2471 0
-1786 -1788 2471 0
-1786 -1789 2472 0
-1787 -1788 2472 0
-1787 -1789 2473 0
-1792 2474 0
-1793 2475 0
-1790 2474 0
-1791 2475 0
-1790 -1792 2475 0
-1790 -1793 2476 0
-1791 -1792 2476 0
-1791 -1793 2477 0
-1796 2478 0
-1797 2479 0
-1794 2478 0
-1795 2479 0
-1794 -1796 2479 0
-1794 -1797 2480 0
-1795 -1796 2480 0
-1795 -1797 2481 0
-1800 2482 0
-1801 2483 0
-1798 2482 0
-1799 2483 0
-1798 -1800 2483 0
-1798 -1801 2484 0
-1799 -1800 2484 0
-1799 -1801 2485 0
-1804 2486 0
-1805 2487 0
-1802 2486 0
-1803 2487 0
-1802 -1804 2487 0
-1802 -1805 2488 0
-1803 -1804 2488 0
-1803 -1805 2489 0
-1808 2490 0
-1809 2491 0
-1806 2490 0
-1807 2491 0
-1806 -1808 2491 0
-1806 -1809 2492 0
-1807 -1808 2492 0
-1807 -1809 2493 0
-1812 2494 0
-1813 2495 0
-1810 2494 0
-1811 2495 0
-1810 -1812 2495 0
-1810 -1813 2496 0
-1811 -1812 2496 0
-1811 -1813 2497 0
-1816 2498 0
-1817 2499 0
-1814 2498 0
-1815 2499 0
-1814 -1816 2499 0
-1814 -1817 2500 0
-1815 -1816 2500 0
-1815 -1817 2501 0
-1820 2502 0
-1821 2503 0
-1818 2502 0
-1819 2503 0
-1818 -1820 2503 0
-1818 -1821 2504 0
-1819 -1820 2504 0
-1819 -1821 2505 0
-1824 2506 0
-1825 2507 0
-1822 2506 0
-1823 2507 0
-1822 -1824 2507 0
-1822 -1825 2508 0
-1823 -1824 2508 0
-1823 -1825 2509 0
-1828 2510 0
-1829 2511 0
-1826 2510 0
-1827 2511 0
-1826 -1828 2511 0
-1826 -1829 2512 0
-1827 -1828 2512 0
-1827 -1829 2513 0
-1832 2514 0
-1833 2515 0
-1830 2514 0
-1831 2515 0
-1830 -1832 2515 0
-1830 -1833 2516 0
-1831 -1832 2516 0
-1831 -1833 2517 0
-1836 2518 0
-1837 2519 0
-1834 2518 0
-1835 2519 0
-1834 -1836 2519 0
-1834 -1837 2520 0
-1835 -1836 2520 0
-1835 -1837 2521 0
-1840 2522 0
-1841 2523 0
-1838 2522 0
-1839 2523 0
-1838 -1840 2523 0
-1838 -1841 2524 0
-1839 -1840 2524 0
-1839 -1841 2525 0
-1844 2526 0
-1845 2527 0
-1842 2526 0
-1843 2527 0
-1842 -1844 2527 0
-1842 -1845 2528 0
-1843 -1844 2528 0
-1843 -1845 2529 0
-1848 2530 0
-1849 2531 0
-1846 2530 0
-1847 2531 0
-1846 -1848 2531 0
-1846 -1849 2532 0
-1847 -1848 2532 0
-1847 -1849 2533 0
-1852 2534 0
-1853 2535 0
-1850 2534 0
-1851 2535 0
-1850 -1852 2535 0
-1850 -1853 2536 0
-1851 -1852 2536 0
-1851 -1853 2537 0
-1856 2538 0
-1857 2539 0
-1854 2538 0
-1855 2539 0
-1854 -1856 2539 0
-1854 -1857 2540 0
-1855 -1856 2540 0
-1855 -1857 2541 0
-1860 2542 0
-1861 2543 0
-1858 2542 0
-1859 2543 0
-1858 -1860 2543 0
-1858 -1861 2544 0
-1859 -1860 2544 0
-1859 -1861 2545 0
-1866 2546 0
-1867 2547 0
-1868 2548 0
-1869 2549 0
-1862 2546 0
-1863 2547 0
-1864 2548 0
-1865 2549 0
-1862 -1866 2547 0
-1862 -1867 2548 0
-1862 -1868 2549 0
-1862 -1869 2550 0
-1863 -1866 2548 0
-1863 -1867 2549 0
-1863 -1868 2550 0
-1863 -1869 2551 0
-1864 -1866 2549 0
-1864 -1867 2550 0
-1864 -1868 2551 0
-1864 -1869 2552 0
-1865 -1866 2550 0
-1865 -1867 2551 0
-1865 -1868 2552 0
-1865 -1869 2553 0
-1874 2554 0
-1875 2555 0
-1876 2556 0
-1877 2557 0
-1870 2554 0
-1871 2555 0
-1872 2556 0
-1873 2557 0
-1870 -1874 2555 0
-1870 -1875 2556 0
-1870 -1876 2557 0
-1870 -1877 2558 0
-1871 -1874 2556 0
-1871 -1875 2557 0
-1871 -1876 2558 0
-1871 -1877 2559 0
-1872 -1874 2557 0
-1872 -1875 2558 0
-1872 -1876 2559 0
-1872 -1877 2560 0
-1873 -1874 2558 0
-1873 -1875 2559 0
-1873 -1876 2560 0
-1873 -1877 2561 0
-1882 2562 0
-1883 2563 0
-1884 2564 0
-1885 2565 0
-1878 2562 0
-1879 2563 0
-1880 2564 0
-1881 2565 0
-1878 -1882 2563 0
-1878 -1883 2564 0
-1878 -1884 2565 0
-1878 -1885 2566 0
-1879 -1882 2564 0
-1879 -1883 2565 0
-1879 -1884 2566 0
-1879 -1885 2567 0
-1880 -1882 2565 0
-1880 -1883 2566 0
-1880 -1884 2567 0
-1880 -1885 2568 0
-1881 -1882 2566 0
-1881 -1883 2567 0
-1881 -1884 2568 0
-1881 -1885 2569 0
-1890 2570 0
-1891 2571 0
-1892 2572 0
-1893 2573 0
-1886 2570 0
-1887 2571 0
-1888 2572 0
-1889 2573 0
-1886 -1890 2571 0
-1886 -1891 2572 0
-1886 -1892 2573 0
-1886 -1893 2574 0
-1887 -1890 2572 0
-1887 -1891 2573 0
-1887 -1892 2574 0
-1887 -1893 2575 0
-1888 -1890 2573 0
-1888 -1891 2574 0
-1888 -1892 2575 0
-1888 -1893 2576 0
-1889 -1890 2574 0
-1889 -1891 2575 0
-1889 -1892 2576 0
-1889 -1893 2577 0
-1898 2578 0
-1899 2579 0
-1900 2580 0
-1901 2581 0
-1894 2578 0
-1895 2579 0
-1896 2580 0
-1897 2581 0
-1894 -1898 2579 0
-1894 -1899 2580 0
-1894 -1900 2581 0
-1894 -1901 2582 0
-1895 -1898 2580 0
-1895 -1899 2581 0
-1895 -1900 2582 0
-1895 -1901 2583 0
-1896 -1898 2581 0
-1896 -1899 2582 0
-1896 -1900 2583 0
-1896 -1901 2584 0
-1897 -1898 2582 0
-1897 -1899 2583 0
-1897 -1900 2584 0
-1897 -1901 2585 0
-1906 2586 0
-1907 2587 0
-1908 2588 0
-1909 2589 0
-1902 2586 0
-1903 2587 0
-1904 2588 0
-1905 2589 0
-1902 -1906 2587 0
-1902 -1907 2588 0
-1902 -1908 2589 0
-1902 -1909 2590 0
-1903 -1906 2588 0
-1903 -1907 2589 0
-1903 -1908 2590 0
-1903 -1909 2591 0
-1904 -1906 2589 0
-1904 -1907 2590 0
-1904 -1908 2591 0
-1904 -1909 2592 0
-1905 -1906 2590 0
-1905 -1907 2591 0
-1905 -1908 2592 0
-1905 -1909 2593 0
-1914 2594 0
-1915 2595 0
-1916 2596 0
-1917 2597 0
-1910 2594 0
-1911 2595 0
-1912 2596 0
-1913 2597 0
-1910 -1914 2595 0
-1910 -1915 2596 0
-1910 -1916 2597 0
-1910 -1917 2598 0
-1911 -1914 2596 0
-1911 -1915 2597 0
-1911 -1916 2598 0
-1911 -1917 2599 0
-1912 -1914 2597 0
-1912 -1915 2598 0
-1912 -1916 2599 0
-1912 -1917 2600 0
-1913 -1914 2598 0
-1913 -1915 2599 0
-1913 -1916 2600 0
-1913 -1917 2601 0
-1922 2602 0
-1923 2603 0
-1924 2604 0
-1925 2605 0
-1918 2602 0
-1919 2603 0
-1920 2604 0
-1921 2605 0
-1918 -1922 2603 0
-1918 -1923 2604 0
-1918 -1924 2605 0
-1918 -1925 2606 0
-1919 -1922 2604 0
-1919 -1923 2605 0
-1919 -1924 2606 0
-1919 -1925 2607 0
-1920 -1922 2605 0
-1920 -1923 2606 0
-1920 -1924 2607 0
-1920 -1925 2608 0
-1921 -1922 2606 0
-1921 -1923 2607 0
-1921 -1924 2608 0
-1921 -1925 2609 0
-1930 2610 0
-1931 2611 0
-1932 2612 0
-1933 2613 0
-1926 2610 0
-1927 2611 0
-1928 2612 0
-1929 2613 0
-1926 -1930 2611 0
-1926 -1931 2612 0
-1926 -1932 2613 0
-1926 -1933 2614 0
-1927 -1930 2612 0
-1927 -1931 2613 0
-1927 -1932 2614 0
-1927 -1933 2615 0
-1928 -1930 2613 0
-1928 -1931 2614 0
-1928 -1932 2615 0
-1928 -1933 2616 0
-1929 -1930 2614 0
-1929 -1931 2615 0
-1929 -1932 2616 0
-1929 -1933 2617 0
-1938 2618 0
-1939 2619 0
-1940 2620 0
-1941 2621 0
-1934 2618 0
-1935 2619 0
-1936 2620 0
-1937 2621 0
-1934 -1938 2619 0
-1934 -1939 2620 0
-1934 -1940 2621 0
-1934 -1941 2622 0
-1935 -1938 2620 0
-1935 -1939 2621 0
-1935 -1940 2622 0
-1935 -1941 2623 0
-1936 -1938 2621 0
-1936 -1939 2622 0
-1936 -1940 2623 0
-1936 -1941 2624 0
-1937 -1938 2622 0
-1937 -1939 2623 0
-1937 -1940 2624 0
-1937 -1941 2625 0
-1946 2626 0
-1947 2627 0
-1948 2628 0
-1949 2629 0
-1942 2626 0
-1943 2627 0
-1944 2628 0
-1945 2629 0
-1942 -1946 2627 0
-1942 -1947 2628 0
-1942 -1948 2629 0
-1942 -1949 2630 0
-1943 -1946 2628 0
-1943 -1947 2629 0
-1943 -1948 2630 0
-1943 -1949 2631 0
-1944 -1946 2629 0
-1944 -1947 2630 0
-1944 -1948 2631 0
-1944 -1949 2632 0
-1945 -1946 2630 0
-1945 -1947 2631 0
-1945 -1948 2632 0
-1945 -1949 2633 0
-1954 2634 0
-1955 2635 0
-1956 2636 0
-1957 2637 0
-1950 2634 0
-1951 2635 0
-1952 2636 0
-1953 2637 0
-1950 -1954 2635 0
-1950 -1955 2636 0
-1950 -1956 2637 0
-1950 -1957 2638 0
-1951 -1954 2636 0
-1951 -1955 2637 0
-1951 -1956 2638 0
-1951 -1957 2639 0
-1952 -1954 2637 0
-1952 -1955 2638 0
-1952 -1956 2639 0
-1952 -1957 2640 0
-1953 -1954 2638 0
-1953 -1955 2639 0
-1953 -1956 2640 0
-1953 -1957 2641 0
-1962 2642 0
-1963 2643 0
-1964 2644 0
-1965 2645 0
-1958 2642 0
-1959 2643 0
-1960 2644 0
-1961 2645 0
-1958 -1962 2643 0
-1958 -1963 2644 0
-1958 -1964 2645 0
-1958 -1965 2646 0
-1959 -1962 2644 0
-1959 -1963 2645 0
-1959 -1964 2646 0
-1959 -1965 2647 0
-1960 -1962 2645 0
-1960 -1963 2646 0
-1960 -1964 2647 0
-1960 -1965 2648 0
-1961 -1962 2646 0
-1961 -1963 2647 0
-1961 -1964 2648 0
-1961 -1965 2649 0
-1970 2650 0
-1971 2651 0
-1972 2652 0
-1973 2653 0
-1966 2650 0
-1967 2651 0
-1968 2652 0
-1969 2653 0
-1966 -1970 2651 0
-1966 -1971 2652 0
-1966 -1972 2653 0
-1966 -1973 2654 0
-1967 -1970 2652 0
-1967 -1971 2653 0
-1967 -1972 2654 0
-1967 -1973 2655 0
-1968 -1970 2653 0
-1968 -1971 2654 0
-1968 -1972 2655 0
-1968 -1973 2656 0
-1969 -1970 2654 0
-1969 -1971 2655 0
-1969 -1972 2656 0
-1969 -1973 2657 0
-1978 2658 0
-1979 2659 0
-1980 2660 0
-1981 2661 0
-1974 2658 0
-1975 2659 0
-1976 2660 0
-1977 2661 0
-1974 -1978 2659 0
-1974 -1979 2660 0
-1974 -1980 2661 0
-1974 -1981 2662 0
-1975 -1978 2660 0
-1975 -1979 2661 0
-1975 -1980 2662 0
-1975 -1981 2663 0
-1976 -1978 2661 0
-1976 -1979 2662 0
-1976 -1980 2663 0
-1976 -1981 2664 0
-1977 -1978 2662 0
-1977 -1979 2663 0
-1977 -1980 2664 0
-1977 -1981 2665 0
-1986 2666 0
-1987 2667 0
-1988 2668 0
-1989 2669 0
-1982 2666 0
-1983 2667 0
-1984 2668 0
-1985 2669 0
-1982 -1986 2667 0
-1982 -1987 2668 0
-1982 -1988 2669 0
-1982 -1989 2670 0
-1983 -1986 2668 0
-1983 -1987 2669 0
-1983 -1988 2670 0
-1983 -1989 2671 0
-1984 -1986 2669 0
-1984 -1987 2670 0
-1984 -1988 2671 0
-1984 -1989 2672 0
-1985 -1986 2670 0
-1985 -1987 2671 0
-1985 -1988 2672 0
-1985 -1989 2673 0
-1994 2674 0
-1995 2675 0
-1996 2676 0
-1997 2677 0
-1990 2674 0
-1991 2675 0
-1992 2676 0
-1993 2677 0
-1990 -1994 2675 0
-1990 -1995 2676 0
-1990 -1996 2677 0
-1990 -1997 2678 0
-1991 -1994 2676 0
-1991 -1995 2677 0
-1991 -1996 2678 0
-1991 -1997 2679 0
-1992 -1994 2677 0
-1992 -1995 2678 0
-1992 -1996 2679 0
-1992 -1997 2680 0
-1993 -1994 2678 0
-1993 -1995 2679 0
-1993 -1996 2680 0
-1993 -1997 2681 0
-2002 2682 0
-2003 2683 0
-2004 2684 0
-2005 2685 0
-1998 2682 0
-1999 2683 0
-2000 2684 0
-2001 2685 0
-1998 -2002 2683 0
-1998 -2003 2684 0
-1998 -2004 2685 0
-1998 -2005 2686 0
-1999 -2002 2684 0
-1999 -2003 2685 0
-1999 -2004 2686 0
-1999 -2005 2687 0
-2000 -2002 2685 0
-2000 -2003 2686 0
-2000 -2004 2687 0
-2000 -2005 2688 0
-2001 -2002 2686 0
-2001 -2003 2687 0
-2001 -2004 2688 0
-2001 -2005 2689 0
-2010 2690 0
-2011 2691 0
-2012 2692 0
-2013 2693 0
-2006 2690 0
-2007 2691 0
-2008 2692 0
-2009 2693 0
-2006 -2010 2691 0
-2006 -2011 2692 0
-2006 -2012 2693 0
-2006 -2013 2694 0
-2007 -2010 2692 0
-2007 -2011 2693 0
-2007 -2012 2694 0
-2007 -2013 2695 0
-2008 -2010 2693 0
-2008 -2011 2694 0
-2008 -2012 2695 0
-2008 -2013 2696 0
-2009 -2010 2694 0
-2009 -2011 2695 0
-2009 -2012 2696 0
-2009 -2013 2697 0
-2018 2698 0
-2019 2699 0
-2020 2700 0
-2021 2701 0
-2014 2698 0
-2015 2699 0
-2016 2700 0
-2017 2701 0
-2014 -2018 2699 0
-2014 -2019 2700 0
-2014 -2020 2701 0
-2014 -2021 2702 0
-2015 -2018 2700 0
-2015 -2019 2701 0
-2015 -2020 2702 0
-2015 -2021 2703 0
-2016 -2018 2701 0
-2016 -2019 2702 0
-2016 -2020 2703 0
-2016 -2021 2704 0
-2017 -2018 2702 0
-2017 -2019 2703 0
-2017 -2020 2704 0
-2017 -2021 2705 0
-2026 2706 0
-2027 2707 0
-2028 2708 0
-2029 2709 0
-2022 2706 0
-2023 2707 0
-2024 2708 0
-2025 2709 0
-2022 -2026 2707 0
-2022 -2027 2708 0
-2022 -2028 2709 0
-2022 -2029 2710 0
-2023 -2026 2708 0
-2023 -2027 2709 0
-2023 -2028 2710 0
-2023 -2029 2711 0
-2024 -2026 2709 0
-2024 -2027 2710 0
-2024 -2028 2711 0
-2024 -2029 2712 0
-2025 -2026 2710 0
-2025 -2027 2711 0
-2025 -2028 2712 0
-2025 -2029 2713 0
-2034 2714 0
-2035 2715 0
-2036 2716 0
-2037 2717 0
-2030 2714 0
-2031 2715 0
-2032 2716 0
-2033 2717 0
-2030 -2034 2715 0
-2030 -2035 2716 0
-2030 -2036 2717 0
-2030 -2037 2718 0
-2031 -2034 2716 0
-2031 -2035 2717 0
-2031 -2036 2718 0
-2031 -2037 2719 0
-2032 -2034 2717 0
-2032 -2035 2718 0
-2032 -2036 2719 0
-2032 -2037 2720 0
-2033 -2034 2718 0
-2033 -2035 2719 0
-2033 -2036 2720 0
-2033 -2037 2721 0
-2042 2722 0
-2043 2723 0
-2044 2724 0
-2045 2725 0
-2038 2722 0
-2039 2723 0
-2040 2724 0
-2041 2725 0
-2038 -2042 2723 0
-2038 -2043 2724 0
-2038 -2044 2725 0
-2038 -2045 2726 0
-2039 -2042 2724 0
-2039 -2043 2725 0
-2039 -2044 2726 0
-2039 -2045 2727 0
-2040 -2042 2725 0
-2040 -2043 2726 0
-2040 -2044 2727 0
-2040 -2045 2728 0
-2041 -2042 2726 0
-2041 -2043 2727 0
-2041 -2044 2728 0
-2041 -2045 2729 0
-2050 2730 0
-2051 2731 0
-2052 2732 0
-2053 2733 0
-2046 2730 0
-2047 2731 0
-2048 2732 0
-2049 2733 0
-2046 -2050 2731 0
-2046 -2051 2732 0
-2046 -2052 2733 0
-2046 -2053 2734 0
-2047 -2050 2732 0
-2047 -2051 2733 0
-2047 -2052 2734 0
-2047 -2053 2735 0
-2048 -2050 2733 0
-2048 -2051 2734 0
-2048 -2052 2735 0
-2048 -2053 2736 0
-2049 -2050 2734 0
-2049 -2051 2735 0
-2049 -2052 2736 0
-2049 -2053 2737 0
-2058 2738 0
-2059 2739 0
-2060 2740 0
-2061 2741 0
-2054 2738 0
-2055 2739 0
-2056 2740 0
-2057 2741 0
-2054 -2058 2739 0
-2054 -2059 2740 0
-2054 -2060 2741 0
-2054 -2061 2742 0
-2055 -2058 2740 0
-2055 -2059 2741 0
-2055 -2060 2742 0
-2055 -2061 2743 0
-2056 -2058 2741 0
-2056 -2059 2742 0
-2056 -2060 2743 0
-2056 -2061 2744 0
-2057 -2058 2742 0
-2057 -2059 2743 0
-2057 -2060 2744 0
-2057 -2061 2745 0
-2066 2746 0
-2067 2747 0
-2068 2748 0
-2069 2749 0
-2062 2746 0
-2063 2747 0
-2064 2748 0
-2065 2749 0
-2062 -2066 2747 0
-2062 -2067 2748 0
-2062 -2068 2749 0
-2062 -2069 2750 0
-2063 -2066 2748 0
-2063 -2067 2749 0
-2063 -2068 2750 0
-2063 -2069 2751 0
-2064 -2066 2749 0
-2064 -2067 2750 0
-2064 -2068 2751 0
-2064 -2069 2752 0
-2065 -2066 2750 0
-2065 -2067 2751 0
-2065 -2068 2752 0
-2065 -2069 2753 0
-2074 2754 0
-2075 2755 0
-2076 2756 0
-2077 2757 0
-2070 2754 0
-2071 2755 0
-2072 2756 0
-2073 2757 0
-2070 -2074 2755 0
-2070 -2075 2756 0
-2070 -2076 2757 0
-2070 -2077 2758 0
-2071 -2074 2756 0
-2071 -2075 2757 0
-2071 -2076 2758 0
-2071 -2077 2759 0
-2072 -2074 2757 0
-2072 -2075 2758 0
-2072 -2076 2759 0
-2072 -2077 2760 0
-2073 -2074 2758 0
-2073 -2075 2759 0
-2073 -2076 2760 0
-2073 -2077 2761 0
-2082 2762 0
-2083 2763 0
-2084 2764 0
-2085 2765 0
-2078 2762 0
-2079 2763 0
-2080 2764 0
-2081 2765 0
-2078 -2082 2763 0
-2078 -2083 2764 0
-2078 -2084 2765 0
-2078 -2085 2766 0
-2079 -2082 2764 0
-2079 -2083 2765 0
-2079 -2084 2766 0
-2079 -2085 2767 0
-2080 -2082 2765 0
-2080 -2083 2766 0
-2080 -2084 2767 0
-2080 -2085 2768 0
-2081 -2082 2766 0
-2081 -2083 2767 0
-2081 -2084 2768 0
-2081 -2085 2769 0
-2090 2770 0
-2091 2771 0
-2092 2772 0
-2093 2773 0
-2086 2770 0
-2087 2771 0
-2088 2772 0
-2089 2773 0
-2086 -2090 2771 0
-2086 -2091 2772 0
-2086 -2092 2773 0
-2086 -2093 2774 0
-2087 -2090 2772 0
-2087 -2091 2773 0
-2087 -2092 2774 0
-2087 -2093 2775 0
-2088 -2090 2773 0
-2088 -2091 2774 0
-2088 -2092 2775 0
-2088 -2093 2776 0
-2089 -2090 2774 0
-2089 -2091 2775 0
-2089 -2092 2776 0
-2089 -2093 2777 0
-2098 2778 0
-2099 2779 0
-2100 2780 0
-2101 2781 0
-2094 2778 0
-2095 2779 0
-2096 2780 0
-2097 2781 0
-2094 -2098 2779 0
-2094 -2099 2780 0
-2094 -2100 2781 0
-2094 -2101 2782 0
-2095 -2098 2780 0
-2095 -2099 2781 0
-2095 -2100 2782 0
-2095 -2101 2783 0
-2096 -2098 2781 0
-2096 -2099 2782 0
-2096 -2100 2783 0
-2096 -2101 2784 0
-2097 -2098 2782 0
-2097 -2099 2783 0
-2097 -2100 2784 0
-2097 -2101 2785 0
-2106 2786 0
-2107 2787 0
-2108 2788 0
-2109 2789 0
-2102 2786 0
-2103 2787 0
-2104 2788 0
-2105 2789 0
-2102 -2106 2787 0
-2102 -2107 2788 0
-2102 -2108 2789 0
-2102 -2109 2790 0
-2103 -2106 2788 0
-2103 -2107 2789 0
-2103 -2108 2790 0
-2103 -2109 2791 0
-2104 -2106 2789 0
-2104 -2107 2790 0
-2104 -2108 2791 0
-2104 -2109 2792 0
-2105 -2106 2790 0
-2105 -2107 2791 0
-2105 -2108 2792 0
-2105 -2109 2793 0
-2114 2794 0
-2115 2795 0
-2116 2796 0
-2117 2797 0
-2110 2794 0
-2111 2795 0
-2112 2796 0
-2113 2797 0
-2110 -2114 2795 0
-2110 -2115 2796 0
-2110 -2116 2797 0
-2110 -2117 2798 0
-2111 -2114 2796 0
-2111 -2115 2797 0
-2111 -2116 2798 0
-2111 -2117 2799 0
-2112 -2114 2797 0
-2112 -2115 2798 0
-2112 -2116 2799 0
-2112 -2117 2800 0
-2113 -2114 2798 0
-2113 -2115 2799 0
-2113 -2116 2800 0
-2113 -2117 2801 0
-2122 2802 0
-2123 2803 0
-2124 2804 0
-2125 2805 0
-2118 2802 0
-2119 2803 0
-2120 2804 0
-2121 2805 0
-2118 -2122 2803 0
-2118 -2123 2804 0
-2118 -2124 2805 0
-2118 -2125 2806 0
-2119 -2122 2804 0
-2119 -2123 2805 0
-2119 -2124 2806 0
-2119 -2125 2807 0
-2120 -2122 2805 0
-2120 -2123 2806 0
-2120 -2124 2807 0
-2120 -2125 2808 0
-2121 -2122 2806 0
-2121 -2123 2807 0
-2121 -2124 2808 0
-2121 -2125 2809 0
-2130 2810 0
-2131 2811 0
-2132 2812 0
-2133 2813 0
-2126 2810 0
-2127 2811 0
-2128 2812 0
-2129 2813 0
-2126 -2130 2811 0
-2126 -2131 2812 0
-2126 -2132 2813 0
-2126 -2133 2814 0
-2127 -2130 2812 0
-2127 -2131 2813 0
-2127 -2132 2814 0
-2127 -2133 2815 0
-2128 -2130 2813 0
-2128 -2131 2814 0
-2128 -2132 2815 0
-2128 -2133 2816 0
-2129 -2130 2814 0
-2129 -2131 2815 0
-2129 -2132 2816 0
-2129 -2133 2817 0
-2138 2818 0
-2139 2819 0
-2140 2820 0
-2141 2821 0
-2134 2818 0
-2135 2819 0
-2136 2820 0
-2137 2821 0
-2134 -2138 2819 0
-2134 -2139 2820 0
-2134 -2140 2821 0
-2134 -2141 2822 0
-2135 -2138 2820 0
-2135 -2139 2821 0
-2135 -2140 2822 0
-2135 -2141 2823 0
-2136 -2138 2821 0
-2136 -2139 2822 0
-2136 -2140 2823 0
-2136 -2141 2824 0
-2137 -2138 2822 0
-2137 -2139 2823 0
-2137 -2140 2824 0
-2137 -2141 2825 0
-2146 2826 0
-2147 2827 0
-2148 2828 0
-2149 2829 0
-2142 2826 0
-2143 2827 0
-2144 2828 0
-2145 2829 0
-2142 -2146 2827 0
-2142 -2147 2828 0
-2142 -2148 2829 0
-2142 -2149 2830 0
-2143 -2146 2828 0
-2143 -2147 2829 0
-2143 -2148 2830 0
-2143 -2149 2831 0
-2144 -2146 2829 0
-2144 -2147 2830 0
-2144 -2148 2831 0
-2144 -2149 2832 0
-2145 -2146 2830 0
-2145 -2147 2831 0
-2145 -2148 2832 0
-2145 -2149 2833 0
-2154 2834 0
-2155 2835 0
-2156 2836 0
-2157 2837 0
-2150 2834 0
-2151 2835 0
-2152 2836 0
-2153 2837 0
-2150 -2154 2835 0
-2150 -2155 2836 0
-2150 -2156 2837 0
-2150 -2157 2838 0
-2151 -2154 2836 0
-2151 -2155 2837 0
-2151 -2156 2838 0
-2151 -2157 2839 0
-2152 -2154 2837 0
-2152 -2155 2838 0
-2152 -2156 2839 0
-2152 -2157 2840 0
-2153 -2154 2838 0
-2153 -2155 2839 0
-2153 -2156 2840 0
-2153 -2157 2841 0
-2162 2842 0
-2163 2843 0
-2164 2844 0
-2165 2845 0
-2158 2842 0
-2159 2843 0
-2160 2844 0
-2161 2845 0
-2158 -2162 2843 0
-2158 -2163 2844 0
-2158 -2164 2845 0
-2158 -2165 2846 0
-2159 -2162 2844 0
-2159 -2163 2845 0
-2159 -2164 2846 0
-2159 -2165 2847 0
-2160 -2162 2845 0
-2160 -2163 2846 0
-2160 -2164 2847 0
-2160 -2165 2848 0
-2161 -2162 2846 0
-2161 -2163 2847 0
-2161 -2164 2848 0
-2161 -2165 2849 0
-2170 2850 0
-2171 2851 0
-2172 2852 0
-2173 2853 0
-2166 2850 0
-2167 2851 0
-2168 2852 0
-2169 2853 0
-2166 -2170 2851 0
-2166 -2171 2852 0
-2166 -2172 2853 0
-2166 -2173 2854 0
-2167 -2170 2852 0
-2167 -2171 2853 0
-2167 -2172 2854 0
-2167 -2173 2855 0
-2168 -2170 2853 0
-2168 -2171 2854 0
-2168 -2172 2855 0
-2168 -2173 2856 0
-2169 -2170 2854 0
-2169 -2171 2855 0
-2169 -2172 2856 0
-2169 -2173 2857 0
-2178 2858 0
-2179 2859 0
-2180 2860 0
-2181 2861 0
-2174 2858 0
-2175 2859 0
-2176 2860 0
-2177 2861 0
-2174 -2178 2859 0
-2174 -2179 2860 0
-2174 -2180 2861 0
-2174 -2181 2862 0
-2175 -2178 2860 0
-2175 -2179 2861 0
-2175 -2180 2862 0
-2175 -2181 2863 0
-2176 -2178 2861 0
-2176 -2179 2862 0
-2176 -2180 2863 0
-2176 -2181 2864 0
-2177 -2178 2862 0
-2177 -2179 2863 0
-2177 -2180 2864 0
-2177 -2181 2865 0
-2186 2866 0
-2187 2867 0
-2188 2868 0
-2189 2869 0
-2182 2866 0
-2183 2867 0
-2184 2868 0
-2185 2869 0
-2182 -2186 2867 0
-2182 -2187 2868 0
-2182 -2188 2869 0
-2182 -2189 2870 0
-2183 -2186 2868 0
-2183 -2187 2869 0
-2183 -2188 2870 0
-2183 -2189 2871 0
-2184 -2186 2869 0
-2184 -2187 2870 0
-2184 -2188 2871 0
-2184 -2189 2872 0
-2185 -2186 2870 0
-2185 -2187 2871 0
-2185 -2188 2872 0
-2185 -2189 2873 0
-2194 2874 0
-2195 2875 0
-2196 2876 0
-2197 2877 0
-2190 2874 0
-2191 2875 0
-2192 2876 0
-2193 2877 0
-2190 -2194 2875 0
-2190 -2195 2876 0
-2190 -2196 2877 0
-2190 -2197 2878 0
-2191 -2194 2876 0
-2191 -2195 2877 0
-2191 -2196 2878 0
-2191 -2197 2879 0
-2192 -2194 2877 0
-2192 -2195 2878 0
-2192 -2196 2879 0
-2192 -2197 2880 0
-2193 -2194 2878 0
-2193 -2195 2879 0
-2193 -2196 2880 0
-2193 -2197 2881 0
-2202 2882 0
-2203 2883 0
-2204 2884 0
-2205 2885 0
-2198 2882 0
-2199 2883 0
-2200 2884 0
-2201 2885 0
-2198 -2202 2883 0
-2198 -2203 2884 0
-2198 -2204 2885 0
-2198 -2205 2886 0
-2199 -2202 2884 0
-2199 -2203 2885 0
-2199 -2204 2886 0
-2199 -2205 2887 0
-2200 -2202 2885 0
-2200 -2203 2886 0
-2200 -2204 2887 0
-2200 -2205 2888 0
-2201 -2202 2886 0
-2201 -2203 2887 0
-2201 -2204 2888 0
-2201 -2205 2889 0
-2210 2890 0
-2211 2891 0
-2212 2892 0
-2213 2893 0
-2206 2890 0
-2207 2891 0
-2208 2892 0
-2209 2893 0
-2206 -2210 2891 0
-2206 -2211 2892 0
-2206 -2212 2893 0
-2206 -2213 2894 0
-2207 -2210 2892 0
-2207 -2211 2893 0
-2207 -2212 2894 0
-2207 -2213 2895 0
-2208 -2210 2893 0
-2208 -2211 2894 0
-2208 -2212 2895 0
-2208 -2213 2896 0
-2209 -2210 2894 0
-2209 -2211 2895 0
-2209 -2212 2896 0
-2209 -2213 2897 0
-2218 2898 0
-2219 2899 0
-2220 2900 0
-2221 2901 0
-2214 2898 0
-2215 2899 0
-2216 2900 0
-2217 2901 0
-2214 -2218 2899 0
-2214 -2219 2900 0
-2214 -2220 2901 0
-2214 -2221 2902 0
-2215 -2218 2900 0
-2215 -2219 2901 0
-2215 -2220 2902 0
-2215 -2221 2903 0
-2216 -2218 2901 0
-2216 -2219 2902 0
-2216 -2220 2903 0
-2216 -2221 2904 0
-2217 -2218 2902 0
-2217 -2219 2903 0
-2217 -2220 2904 0
-2217 -2221 2905 0
-2226 2906 0
-2227 2907 0
-2228 2908 0
-2229 2909 0
-2222 2906 0
-2223 2907 0
-2224 2908 0
-2225 2909 0
-2222 -2226 2907 0
-2222 -2227 2908 0
-2222 -2228 2909 0
-2222 -2229 2910 0
-2223 -2226 2908 0
-2223 -2227 2909 0
-2223 -2228 2910 0
-2223 -2229 2911 0
-2224 -2226 2909 0
-2224 -2227 2910 0
-2224 -2228 2911 0
-2224 -2229 2912 0
-2225 -2226 2910 0
-2225 -2227 2911 0
-2225 -2228 2912 0
-2225 -2229 2913 0
-2234 2914 0
-2235 2915 0
-2236 2916 0
-2237 2917 0
-2230 2914 0
-2231 2915 0
-2232 2916 0
-2233 2917 0
-2230 -2234 2915 0
-2230 -2235 2916 0
-2230 -2236 2917 0
-2230 -2237 2918 0
-2231 -2234 2916 0
-2231 -2235 2917 0
-2231 -2236 2918 0
-2231 -2237 2919 0
-2232 -2234 2917 0
-2232 -2235 2918 0
-2232 -2236 2919 0
-2232 -2237 2920 0
-2233 -2234 2918 0
-2233 -2235 2919 0
-2233 -2236 2920 0
-2233 -2237 2921 0
-2242 2922 0
-2243 2923 0
-2244 2924 0
-2245 2925 0
-2238 2922 0
-2239 2923 0
-2240 2924 0
-2241 2925 0
-2238 -2242 2923 0
-2238 -2243 2924 0
-2238 -2244 2925 0
-2238 -2245 2926 0
-2239 -2242 2924 0
-2239 -2243 2925 0
-2239 -2244 2926 0
-2239 -2245 2927 0
-2240 -2242 2925 0
-2240 -2243 2926 0
-2240 -2244 2927 0
-2240 -2245 2928 0
-2241 -2242 2926 0
-2241 -2243 2927 0
-2241 -2244 2928 0
-2241 -2245 2929 0
-2250 2930 0
-2251 2931 0
-2252 2932 0
-2253 2933 0
-2246 2930 0
-2247 2931 0
-2248 2932 0
-2249 2933 0
-2246 -2250 2931 0
-2246 -2251 2932 0
-2246 -2252 2933 0
-2246 -2253 2934 0
-2247 -2250 2932 0
-2247 -2251 2933 0
-2247 -2252 2934 0
-2247 -2253 2935 0
-2248 -2250 2933 0
-2248 -2251 2934 0
-2248 -2252 2935 0
-2248 -2253 2936 0
-2249 -2250 2934 0
-2249 -2251 2935 0
-2249 -2252 2936 0
-2249 -2253 2937 0
-2258 2938 0
-2259 2939 0
-2260 2940 0
-2261 2941 0
-2254 2938 0
-2255 2939 0
-2256 2940 0
-2257 2941 0
-2254 -2258 2939 0
-2254 -2259 2940 0
-2254 -2260 2941 0
-2254 -2261 2942 0
-2255 -2258 2940 0
-2255 -2259 2941 0
-2255 -2260 2942 0
-2255 -2261 2943 0
-2256 -2258 2941 0
-2256 -2259 2942 0
-2256 -2260 2943 0
-2256 -2261 2944 0
-2257 -2258 2942 0
-2257 -2259 2943 0
-2257 -2260 2944 0
-2257 -2261 2945 0
-2266 2946 0
-2267 2947 0
-2268 2948 0
-2269 2949 0
-2262 2946 0
-2263 2947 0
-2264 2948 0
-2265 2949 0
-2262 -2266 2947 0
-2262 -2267 2948 0
-2262 -2268 2949 0
-2262 -2269 2950 0
-2263 -2266 2948 0
-2263 -2267 2949 0
-2263 -2268 2950 0
-2263 -2269 2951 0
-2264 -2266 2949 0
-2264 -2267 2950 0
-2264 -2268 2951 0
-2264 -2269 2952 0
-2265 -2266 2950 0
-2265 -2267 2951 0
-2265 -2268 2952 0
-2265 -2269 2953 0
-2274 2954 0
-2275 2955 0
-2276 2956 0
-2277 2957 0
-2270 2954 0
-2271 2955 0
-2272 2956 0
-2273 2957 0
-2270 -2274 2955 0
-2270 -2275 2956 0
-2270 -2276 2957 0
-2270 -2277 2958 0
-2271 -2274 2956 0
-2271 -2275 2957 0
-2271 -2276 2958 0
-2271 -2277 2959 0
-2272 -2274 2957 0
-2272 -2275 2958 0
-2272 -2276 2959 0
-2272 -2277 2960 0
-2273 -2274 2958 0
-2273 -2275 2959 0
-2273 -2276 2960 0
-2273 -2277 2961 0
-2282 2962 0
-2283 2963 0
-2284 2964 0
-2285 2965 0
-2278 2962 0
-2279 2963 0
-2280 2964 0
-2281 2965 0
-2278 -2282 2963 0
-2278 -2283 2964 0
-2278 -2284 2965 0
-2278 -2285 2966 0
-2279 -2282 2964 0
-2279 -2283 2965 0
-2279 -2284 2966 0
-2279 -2285 2967 0
-2280 -2282 2965 0
-2280 -2283 2966 0
-2280 -2284 2967 0
-2280 -2285 2968 0
-2281 -2282 2966 0
-2281 -2283 2967 0
-2281 -2284 2968 0
-2281 -2285 2969 0
-2290 2970 0
-2291 2971 0
-2292 2972 0
-2293 2973 0
-2286 2970 0
-2287 2971 0
-2288 2972 0
-2289 2973 0
-2286 -2290 2971 0
-2286 -2291 2972 0
-2286 -2292 2973 0
-2286 -2293 2974 0
-2287 -2290 2972 0
-2287 -2291 2973 0
-2287 -2292 2974 0
-2287 -2293 2975 0
-2288 -2290 2973 0
-2288 -2291 2974 0
-2288 -2292 2975 0
-2288 -2293 2976 0
-2289 -2290 2974 0
-2289 -2291 2975 0
-2289 -2292 2976 0
-2289 -2293 2977 0
-2298 2978 0
-2299 2979 0
-2300 2980 0
-2301 2981 0
-2294 2978 0
-2295 2979 0
-2296 2980 0
-2297 2981 0
-2294 -2298 2979 0
-2294 -2299 2980 0
-2294 -2300 2981 0
-2294 -2301 2982 0
-2295 -2298 2980 0
-2295 -2299 2981 0
-2295 -2300 2982 0
-2295 -2301 2983 0
-2296 -2298 2981 0
-2296 -2299 2982 0
-2296 -2300 2983 0
-2296 -2301 2984 0
-2297 -2298 2982 0
-2297 -2299 2983 0
-2297 -2300 2984 0
-2297 -2301 2985 0
-2306 2986 0
-2307 2987 0
-2308 2988 0
-2309 2989 0
-2302 2986 0
-2303 2987 0
-2304 2988 0
-2305 2989 0
-2302 -2306 2987 0
-2302 -2307 2988 0
-2302 -2308 2989 0
-2302 -2309 2990 0
-2303 -2306 2988 0
-2303 -2307 2989 0
-2303 -2308 2990 0
-2303 -2309 2991 0
-2304 -2306 2989 0
-2304 -2307 2990 0
-2304 -2308 2991 0
-2304 -2309 2992 0
-2305 -2306 2990 0
-2305 -2307 2991 0
-2305 -2308 2992 0
-2305 -2309 2993 0
-2314 2994 0
-2315 2995 0
-2316 2996 0
-2317 2997 0
-2310 2994 0
-2311 2995 0
-2312 2996 0
-2313 2997 0
-2310 -2314 2995 0
-2310 -2315 2996 0
-2310 -2316 2997 0
-2310 -2317 2998 0
-2311 -2314 2996 0
-2311 -2315 2997 0
-2311 -2316 2998 0
-2311 -2317 2999 0
-2312 -2314 2997 0
-2312 -2315 2998 0
-2312 -2316 2999 0
-2312 -2317 3000 0
-2313 -2314 2998 0
-2313 -2315 2999 0
-2313 -2316 3000 0
-2313 -2317 3001 0
-2322 3002 0
-2323 3003 0
-2324 3004 0
-2325 3005 0
-2318 3002 0
-2319 3003 0
-2320 3004 0
-2321 3005 0
-2318 -2322 3003 0
-2318 -2323 3004 0
-2318 -2324 3005 0
-2318 -2325 3006 0
-2319 -2322 3004 0
-2319 -2323 3005 0
-2319 -2324 3006 0
-2319 -2325 3007 0
-2320 -2322 3005 0
-2320 -2323 3006 0
-2320 -2324 3007 0
-2320 -2325 3008 0
-2321 -2322 3006 0
-2321 -2323 3007 0
-2321 -2324 3008 0
-2321 -2325 3009 0
-2330 3010 0
-2331 3011 0
-2332 3012 0
-2333 3013 0
-2326 3010 0
-2327 3011 0
-2328 3012 0
-2329 3013 0
-2326 -2330 3011 0
-2326 -2331 3012 0
-2326 -2332 3013 0
-2326 -2333 3014 0
-2327 -2330 3012 0
-2327 -2331 3013 0
-2327 -2332 3014 0
-2327 -2333 3015 0
-2328 -2330 3013 0
-2328 -2331 3014 0
-2328 -2332 3015 0
-2328 -2333 3016 0
-2329 -2330 3014 0
-2329 -2331 3015 0
-2329 -2332 3016 0
-2329 -2333 3017 0
-2338 3018 0
-2339 3019 0
-2340 3020 0
-2341 3021 0
-2334 3018 0
-2335 3019 0
-2336 3020 0
-2337 3021 0
-2334 -2338 3019 0
-2334 -2339 3020 0
-2334 -2340 3021 0
-2334 -2341 3022 0
-2335 -2338 3020 0
-2335 -2339 3021 0
-2335 -2340 3022 0
-2335 -2341 3023 0
-2336 -2338 3021 0
-2336 -2339 3022 0
-2336 -2340 3023 0
-2336 -2341 3024 0
-2337 -2338 3022 0
-2337 -2339 3023 0
-2337 -2340 3024 0
-2337 -2341 3025 0
-2346 3026 0
-2347 3027 0
-2348 3028 0
-2349 3029 0
-2342 3026 0
-2343 3027 0
-2344 3028 0
-2345 3029 0
-2342 -2346 3027 0
-2342 -2347 3028 0
-2342 -2348 3029 0
-2342 -2349 3030 0
-2343 -2346 3028 0
-2343 -2347 3029 0
-2343 -2348 3030 0
-2343 -2349 3031 0
-2344 -2346 3029 0
-2344 -2347 3030 0
-2344 -2348 3031 0
-2344 -2349 3032 0
-2345 -2346 3030 0
-2345 -2347 3031 0
-2345 -2348 3032 0
-2345 -2349 3033 0
-2354 3034 0
-2355 3035 0
-2356 3036 0
-2357 3037 0
-2350 3034 0
-2351 3035 0
-2352 3036 0
-2353 3037 0
-2350 -2354 3035 0
-2350 -2355 3036 0
-2350 -2356 3037 0
-2350 -2357 3038 0
-2351 -2354 3036 0
-2351 -2355 3037 0
-2351 -2356 3038 0
-2351 -2357 3039 0
-2352 -2354 3037 0
-2352 -2355 3038 0
-2352 -2356 3039 0
-2352 -2357 3040 0
-2353 -2354 3038 0
-2353 -2355 3039 0
-2353 -2356 3040 0
-2353 -2357 3041 0
-2362 3042 0
-2363 3043 0
-2364 3044 0
-2365 3045 0
-2358 3042 0
-2359 3043 0
-2360 3044 0
-2361 3045 0
-2358 -2362 3043 0
-2358 -2363 3044 0
-2358 -2364 3045 0
-2358 -2365 3046 0
-2359 -2362 3044 0
-2359 -2363 3045 0
-2359 -2364 3046 0
-2359 -2365 3047 0
-2360 -2362 3045 0
-2360 -2363 3046 0
-2360 -2364 3047 0
-2360 -2365 3048 0
-2361 -2362 3046 0
-2361 -2363 3047 0
-2361 -2364 3048 0
-2361 -2365 3049 0
-2370 3050 0
-2371 3051 0
-2372 3052 0
-2373 3053 0
-2366 3050 0
-2367 3051 0
-2368 3052 0
-2369 3053 0
-2366 -2370 3051 0
-2366 -2371 3052 0
-2366 -2372 3053 0
-2366 -2373 3054 0
-2367 -2370 3052 0
-2367 -2371 3053 0
-2367 -2372 3054 0
-2367 -2373 3055 0
-2368 -2370 3053 0
-2368 -2371 3054 0
-2368 -2372 3055 0
-2368 -2373 3056 0
-2369 -2370 3054 0
-2369 -2371 3055 0
-2369 -2372 3056 0
-2369 -2373 3057 0
-2378 3058 0
-2379 3059 0
-2380 3060 0
-2381 3061 0
-2374 3058 0
-2375 3059 0
-2376 3060 0
-2377 3061 0
-2374 -2378 3059 0
-2374 -2379 3060 0
-2374 -2380 3061 0
-2374 -2381 3062 0
-2375 -2378 3060 0
-2375 -2379 3061 0
-2375 -2380 3062 0
-2375 -2381 3063 0
-2376 -2378 3061 0
-2376 -2379 3062 0
-2376 -2380 3063 0
-2376 -2381 3064 0
-2377 -2378 3062 0
-2377 -2379 3063 0
-2377 -2380 3064 0
-2377 -2381 3065 0
-2386 3066 0
-2387 3067 0
-2388 3068 0
-2389 3069 0
-2382 3066 0
-2383 3067 0
-2384 3068 0
-2385 3069 0
-2382 -2386 3067 0
-2382 -2387 3068 0
-2382 -2388 3069 0
-2382 -2389 3070 0
-2383 -2386 3068 0
-2383 -2387 3069 0
-2383 -2388 3070 0
-2383 -2389 3071 0
-2384 -2386 3069 0
-2384 -2387 3070 0
-2384 -2388 3071 0
-2384 -2389 3072 0
-2385 -2386 3070 0
-2385 -2387 3071 0
-2385 -2388 3072 0
-2385 -2389 3073 0
-2394 3074 0
-2395 3075 0
-2396 3076 0
-2397 3077 0
-2390 3074 0
-2391 3075 0
-2392 3076 0
-2393 3077 0
-2390 -2394 3075 0
-2390 -2395 3076 0
-2390 -2396 3077 0
-2390 -2397 3078 0
-2391 -2394 3076 0
-2391 -2395 3077 0
-2391 -2396 3078 0
-2391 -2397 3079 0
-2392 -2394 3077 0
-2392 -2395 3078 0
-2392 -2396 3079 0
-2392 -2397 3080 0
-2393 -2394 3078 0
-2393 -2395 3079 0
-2393 -2396 3080 0
-2393 -2397 3081 0
-2402 3082 0
-2403 3083 0
-2404 3084 0
-2405 3085 0
-2398 3082 0
-2399 3083 0
-2400 3084 0
-2401 3085 0
-2398 -2402 3083 0
-2398 -2403 3084 0
-2398 -2404 3085 0
-2398 -2405 3086 0
-2399 -2402 3084 0
-2399 -2403 3085 0
-2399 -2404 3086 0
-2399 -2405 3087 0
-2400 -2402 3085 0
-2400 -2403 3086 0
-2400 -2404 3087 0
-2400 -2405 3088 0
-2401 -2402 3086 0
-2401 -2403 3087 0
-2401 -2404 3088 0
-2401 -2405 3089 0
-2410 3090 0
-2411 3091 0
-2412 3092 0
-2413 3093 0
-2406 3090 0
-2407 3091 0
-2408 3092 0
-2409 3093 0
-2406 -2410 3091 0
-2406 -2411 3092 0
-2406 -2412 3093 0
-2406 -2413 3094 0
-2407 -2410 3092 0
-2407 -2411 3093 0
-2407 -2412 3094 0
-2407 -2413 3095 0
-2408 -2410 3093 0
-2408 -2411 3094 0
-2408 -2412 3095 0
-2408 -2413 3096 0
-2409 -2410 3094 0
-2409 -2411 3095 0
-2409 -2412 3096 0
-2409 -2413 3097 0
-2418 3098 0
-2419 3099 0
-2420 3100 0
-2421 3101 0
-2414 3098 0
-2415 3099 0
-2416 3100 0
-2417 3101 0
-2414 -2418 3099 0
-2414 -2419 3100 0
-2414 -2420 3101 0
-2414 -2421 3102 0
-2415 -2418 3100 0
-2415 -2419 3101 0
-2415 -2420 3102 0
-2415 -2421 3103 0
-2416 -2418 3101 0
-2416 -2419 3102 0
-2416 -2420 3103 0
-2416 -2421 3104 0
-2417 -2418 3102 0
-2417 -2419 3103 0
-2417 -2420 3104 0
-2417 -2421 3105 0
-2426 3106 0
-2427 3107 0
-2428 3108 0
-2429 3109 0
-2422 3106 0
-2423 3107 0
-2424 3108 0
-2425 3109 0
-2422 -2426 3107 0
-2422 -2427 3108 0
-2422 -2428 3109 0
-2422 -2429 3110 0
-2423 -2426 3108 0
-2423 -2427 3109 0
-2423 -2428 3110 0
-2423 -2429 3111 0
-2424 -2426 3109 0
-2424 -2427 3110 0
-2424 -2428 3111 0
-2424 -2429 3112 0
-2425 -2426 3110 0
-2425 -2427 3111 0
-2425 -2428 3112 0
-2425 -2429 3113 0
-2434 3114 0
-2435 3115 0
-2436 3116 0
-2437 3117 0
-2430 3114 0
-2431 3115 0
-2432 3116 0
-2433 3117 0
-2430 -2434 3115 0
-2430 -2435 3116 0
-2430 -2436 3117 0
-2430 -2437 3118 0
-2431 -2434 3116 0
-2431 -2435 3117 0
-2431 -2436 3118 0
-2431 -2437 3119 0
-2432 -2434 3117 0
-2432 -2435 3118 0
-2432 -2436 3119 0
-2432 -2437 3120 0
-2433 -2434 3118 0
-2433 -2435 3119 0
-2433 -2436 3120 0
-2433 -2437 3121 0
-2442 3122 0
-2443 3123 0
-2444 3124 0
-2445 3125 0
-2438 3122 0
-2439 3123 0
-2440 3124 0
-2441 3125 0
-2438 -2442 3123 0
-2438 -2443 3124 0
-2438 -2444 3125 0
-2438 -2445 3126 0
-2439 -2442 3124 0
-2439 -2443 3125 0
-2439 -2444 3126 0
-2439 -2445 3127 0
-2440 -2442 3125 0
-2440 -2443 3126 0
-2440 -2444 3127 0
-2440 -2445 3128 0
-2441 -2442 3126 0
-2441 -2443 3127 0
-2441 -2444 3128 0
-2441 -2445 3129 0
-2450 3130 0
-2451 3131 0
-2452 3132 0
-2453 3133 0
-2446 3130 0
-2447 3131 0
-2448 3132 0
-2449 3133 0
-2446 -2450 3131 0
-2446 -2451 3132 0
-2446 -2452 3133 0
-2446 -2453 3134 0
-2447 -2450 3132 0
-2447 -2451 3133 0
-2447 -2452 3134 0
-2447 -2453 3135 0
-2448 -2450 3133 0
-2448 -2451 3134 0
-2448 -2452 3135 0
-2448 -2453 3136 0
-2449 -2450 3134 0
-2449 -2451 3135 0
-2449 -2452 3136 0
-2449 -2453 3137 0
-2458 3138 0
-2459 3139 0
-2460 3140 0
-2461 3141 0
-2454 3138 0
-2455 3139 0
-2456 3140 0
-2457 3141 0
-2454 -2458 3139 0
-2454 -2459 3140 0
-2454 -2460 3141 0
-2454 -2461 3142 0
-2455 -2458 3140 0
-2455 -2459 3141 0
-2455 -2460 3142 0
-2455 -2461 3143 0
-2456 -2458 3141 0
-2456 -2459 3142 0
-2456 -2460 3143 0
-2456 -2461 3144 0
-2457 -2458 3142 0
-2457 -2459 3143 0
-2457 -2460 3144 0
-2457 -2461 3145 0
-2466 3146 0
-2467 3147 0
-2468 3148 0
-2469 3149 0
-2462 3146 0
-2463 3147 0
-2464 3148 0
-2465 3149 0
-2462 -2466 3147 0
-2462 -2467 3148 0
-2462 -2468 3149 0
-2462 -2469 3150 0
-2463 -2466 3148 0
-2463 -2467 3149 0
-2463 -2468 3150 0
-2463 -2469 3151 0
-2464 -2466 3149 0
-2464 -2467 3150 0
-2464 -2468 3151 0
-2464 -2469 3152 0
-2465 -2466 3150 0
-2465 -2467 3151 0
-2465 -2468 3152 0
-2465 -2469 3153 0
-2474 3154 0
-2475 3155 0
-2476 3156 0
-2477 3157 0
-2470 3154 0
-2471 3155 0
-2472 3156 0
-2473 3157 0
-2470 -2474 3155 0
-2470 -2475 3156 0
-2470 -2476 3157 0
-2470 -2477 3158 0
-2471 -2474 3156 0
-2471 -2475 3157 0
-2471 -2476 3158 0
-2471 -2477 3159 0
-2472 -2474 3157 0
-2472 -2475 3158 0
-2472 -2476 3159 0
-2472 -2477 3160 0
-2473 -2474 3158 0
-2473 -2475 3159 0
-2473 -2476 3160 0
-2473 -2477 3161 0
-2482 3162 0
-2483 3163 0
-2484 3164 0
-2485 3165 0
-2478 3162 0
-2479 3163 0
-2480 3164 0
-2481 3165 0
-2478 -2482 3163 0
-2478 -2483 3164 0
-2478 -2484 3165 0
-2478 -2485 3166 0
-2479 -2482 3164 0
-2479 -2483 3165 0
-2479 -2484 3166 0
-2479 -2485 3167 0
-2480 -2482 3165 0
-2480 -2483 3166 0
-2480 -2484 3167 0
-2480 -2485 3168 0
-2481 -2482 3166 0
-2481 -2483 3167 0
-2481 -2484 3168 0
-2481 -2485 3169 0
-2490 3170 0
-2491 3171 0
-2492 3172 0
-2493 3173 0
-2486 3170 0
-2487 3171 0
-2488 3172 0
-2489 3173 0
-2486 -2490 3171 0
-2486 -2491 3172 0
-2486 -2492 3173 0
-2486 -2493 3174 0
-2487 -2490 3172 0
-2487 -2491 3173 0
-2487 -2492 3174 0
-2487 -2493 3175 0
-2488 -2490 3173 0
-2488 -2491 3174 0
-2488 -2492 3175 0
-2488 -2493 3176 0
-2489 -2490 3174 0
-2489 -2491 3175 0
-2489 -2492 3176 0
-2489 -2493 3177 0
-2498 3178 0
-2499 3179 0
-2500 3180 0
-2501 3181 0
-2494 3178 0
-2495 3179 0
-2496 3180 0
-2497 3181 0
-2494 -2498 3179 0
-2494 -2499 3180 0
-2494 -2500 3181 0
-2494 -2501 3182 0
-2495 -2498 3180 0
-2495 -2499 3181 0
-2495 -2500 3182 0
-2495 -2501 3183 0
-2496 -2498 3181 0
-2496 -2499 3182 0
-2496 -2500 3183 0
-2496 -2501 3184 0
-2497 -2498 3182 0
-2497 -2499 3183 0
-2497 -2500 3184 0
-2497 -2501 3185 0
-2506 3186 0
-2507 3187 0
-2508 3188 0
-2509 3189 0
-2502 3186 0
-2503 3187 0
-2504 3188 0
-2505 3189 0
-2502 -2506 3187 0
-2502 -2507 3188 0
-2502 -2508 3189 0
-2502 -2509 3190 0
-2503 -2506 3188 0
-2503 -2507 3189 0
-2503 -2508 3190 0
-2503 -2509 3191 0
-2504 -2506 3189 0
-2504 -2507 3190 0
-2504 -2508 3191 0
-2504 -2509 3192 0
-2505 -2506 3190 0
-2505 -2507 3191 0
-2505 -2508 3192 0
-2505 -2509 3193 0
-2514 3194 0
-2515 3195 0
-2516 3196 0
-2517 3197 0
-2510 3194 0
-2511 3195 0
-2512 3196 0
-2513 3197 0
-2510 -2514 3195 0
-2510 -2515 3196 0
-2510 -2516 3197 0
-2510 -2517 3198 0
-2511 -2514 3196 0
-2511 -2515 3197 0
-2511 -2516 3198 0
-2511 -2517 3199 0
-2512 -2514 3197 0
-2512 -2515 3198 0
-2512 -2516 3199 0
-2512 -2517 3200 0
-2513 -2514 3198 0
-2513 -2515 3199 0
-2513 -2516 3200 0
-2513 -2517 3201 0
-2522 3202 0
-2523 3203 0
-2524 3204 0
-2525 3205 0
-2518 3202 0
-2519 3203 0
-2520 3204 0
-2521 3205 0
-2518 -2522 3203 0
-2518 -2523 3204 0
-2518 -2524 3205 0
-2518 -2525 3206 0
-2519 -2522 3204 0
-2519 -2523 3205 0
-2519 -2524 3206 0
-2519 -2525 3207 0
-2520 -2522 3205 0
-2520 -2523 3206 0
-2520 -2524 3207 0
-2520 -2525 3208 0
-2521 -2522 3206 0
-2521 -2523 3207 0
-2521 -2524 3208 0
-2521 -2525 3209 0
-2530 3210 0
-2531 3211 0
-2532 3212 0
-2533 3213 0
-2526 3210 0
-2527 3211 0
-2528 3212 0
-2529 3213 0
-2526 -2530 3211 0
-2526 -2531 3212 0
-2526 -2532 3213 0
-2526 -2533 3214 0
-2527 -2530 3212 0
-2527 -2531 3213 0
-2527 -2532 3214 0
-2527 -2533 3215 0
-2528 -2530 3213 0
-2528 -2531 3214 0
-2528 -2532 3215 0
-2528 -2533 3216 0
-2529 -2530 3214 0
-2529 -2531 3215 0
-2529 -2532 3216 0
-2529 -2533 3217 0
-2538 3218 0
-2539 3219 0
-2540 3220 0
-2541 3221 0
-2534 3218 0
-2535 3219 0
-2536 3220 0
-2537 3221 0
-2534 -2538 3219 0
-2534 -2539 3220 0
-2534 -2540 3221 0
-2534 -2541 3222 0
-2535 -2538 3220 0
-2535 -2539 3221 0
-2535 -2540 3222 0
-2535 -2541 3223 0
-2536 -2538 3221 0
-2536 -2539 3222 0
-2536 -2540 3223 0
-2536 -2541 3224 0
-2537 -2538 3222 0
-2537 -2539 3223 0
-2537 -2540 3224 0
-2537 -2541 3225 0
-2546 3226 0
-2547 3227 0
-2548 3228 0
-2549 3229 0
-2550 3230 0
-2551 3231 0
-2552 3232 0
-2553 3233 0
-2542 3226 0
-2543 3227 0
-2544 3228 0
-2545 3229 0
-2542 -2546 3227 0
-2542 -2547 3228 0
-2542 -2548 3229 0
-2542 -2549 3230 0
-2542 -2550 3231 0
-2542 -2551 3232 0
-2542 -2552 3233 0
-2542 -2553 3234 0
-2543 -2546 3228 0
-2543 -2547 3229 0
-2543 -2548 3230 0
-2543 -2549 3231 0
-2543 -2550 3232 0
-2543 -2551 3233 0
-2543 -2552 3234 0
-2543 -2553 3235 0
-2544 -2546 3229 0
-2544 -2547 3230 0
-2544 -2548 3231 0
-2544 -2549 3232 0
-2544 -2550 3233 0
-2544 -2551 3234 0
-2544 -2552 3235 0
-2544 -2553 3236 0
-2545 -2546 3230 0
-2545 -2547 3231 0
-2545 -2548 3232 0
-2545 -2549 3233 0
-2545 -2550 3234 0
-2545 -2551 3235 0
-2545 -2552 3236 0
-2545 -2553 3237 0
-2562 3238 0
-2563 3239 0
-2564 3240 0
-2565 3241 0
-2566 3242 0
-2567 3243 0
-2568 3244 0
-2569 3245 0
-2554 3238 0
-2555 3239 0
-2556 3240 0
-2557 3241 0
-2558 3242 0
-2559 3243 0
-2560 3244 0
-2561 3245 0
-2554 -2562 3239 0
-2554 -2563 3240 0
-2554 -2564 3241 0
-2554 -2565 3242 0
-2554 -2566 3243 0
-2554 -2567 3244 0
-2554 -2568 3245 0
-2554 -2569 3246 0
-2555 -2562 3240 0
-2555 -2563 3241 0
-2555 -2564 3242 0
-2555 -2565 3243 0
-2555 -2566 3244 0
-2555 -2567 3245 0
-2555 -2568 3246 0
-2555 -2569 3247 0
-2556 -2562 3241 0
-2556 -2563 3242 0
-2556 -2564 3243 0
-2556 -2565 3244 0
-2556 -2566 3245 0
-2556 -2567 3246 0
-2556 -2568 3247 0
-2556 -2569 3248 0
-2557 -2562 3242 0
-2557 -2563 3243 0
-2557 -2564 3244 0
-2557 -2565 3245 0
-2557 -2566 3246 0
-2557 -2567 3247 0
-2557 -2568 3248 0
-2557 -2569 3249 0
-2558 -2562 3243 0
-2558 -2563 3244 0
-2558 -2564 3245 0
-2558 -2565 3246 0
-2558 -2566 3247 0
-2558 -2567 3248 0
-2558 -2568 3249 0
-2558 -2569 3250 0
-2559 -2562 3244 0
-2559 -2563 3245 0
-2559 -2564 3246 0
-2559 -2565 3247 0
-2559 -2566 3248 0
-2559 -2567 3249 0
-2559 -2568 3250 0
-2559 -2569 3251 0
-2560 -2562 3245 0
-2560 -2563 3246 0
-2560 -2564 3247 0
-2560 -2565 3248 0
-2560 -2566 3249 0
-2560 -2567 3250 0
-2560 -2568 3251 0
-2560 -2569 3252 0
-2561 -2562 3246 0
-2561 -2563 3247 0
-2561 -2564 3248 0
-2561 -2565 3249 0
-2561 -2566 3250 0
-2561 -2567 3251 0
-2561 -2568 3252 0
-2561 -2569 3253 0
-2578 3254 0
-2579 3255 0
-2580 3256 0
-2581 3257 0
-2582 3258 0
-2583 3259 0
-2584 3260 0
-2585 3261 0
-2570 3254 0
-2571 3255 0
-2572 3256 0
-2573 3257 0
-2574 3258 0
-2575 3259 0
-2576 3260 0
-2577 3261 0
-2570 -2578 3255 0
-2570 -2579 3256 0
-2570 -2580 3257 0
-2570 -2581 3258 0
-2570 -2582 3259 0
-2570 -2583 3260 0
-2570 -2584 3261 0
-2570 -2585 3262 0
-2571 -2578 3256 0
-2571 -2579 3257 0
-2571 -2580 3258 0
-2571 -2581 3259 0
-2571 -2582 3260 0
-2571 -2583 3261 0
-2571 -2584 3262 0
-2571 -2585 3263 0
-2572 -2578 3257 0
-2572 -2579 3258 0
-2572 -2580 3259 0
-2572 -2581 3260 0
-2572 -2582 3261 0
-2572 -2583 3262 0
-2572 -2584 3263 0
-2572 -2585 3264 0
-2573 -2578 3258 0
-2573 -2579 3259 0
-2573 -2580 3260 0
-2573 -2581 3261 0
-2573 -2582 3262 0
-2573 -2583 3263 0
-2573 -2584 3264 0
-2573 -2585 3265 0
-2574 -2578 3259 0
-2574 -2579 3260 0
-2574 -2580 3261 0
-2574 -2581 3262 0
-2574 -2582 3263 0
-2574 -2583 3264 0
-2574 -2584 3265 0
-2574 -2585 3266 0
-2575 -2578 3260 0
-2575 -2579 3261 0
-2575 -2580 3262 0
-2575 -2581 3263 0
-2575 -2582 3264 0
-2575 -2583 3265 0
-2575 -2584 3266 0
-2575 -2585 3267 0
-2576 -2578 3261 0
-2576 -2579 3262 0
-2576 -2580 3263 0
-2576 -2581 3264 0
-2576 -2582 3265 0
-2576 -2583 3266 0
-2576 -2584 3267 0
-2576 -2585 3268 0
-2577 -2578 3262 0
-2577 -2579 3263 0
-2577 -2580 3264 0
-2577 -2581 3265 0
-2577 -2582 3266 0
-2577 -2583 3267 0
-2577 -2584 3268 0
-2577 -2585 3269 0
-2594 3270 0
-2595 3271 0
-2596 3272 0
-2597 3273 0
-2598 3274 0
-2599 3275 0
-2600 3276 0
-2601 3277 0
-2586 3270 0
-2587 3271 0
-2588 3272 0
-2589 3273 0
-2590 3274 0
-2591 3275 0
-2592 3276 0
-2593 3277 0
-2586 -2594 3271 0
-2586 -2595 3272 0
-2586 -2596 3273 0
-2586 -2597 3274 0
-2586 -2598 3275 0
-2586 -2599 3276 0
-2586 -2600 3277 0
-2586 -2601 3278 0
-2587 -2594 3272 0
-2587 -2595 3273 0
-2587 -2596 3274 0
-2587 -2597 3275 0
-2587 -2598 3276 0
-2587 -2599 3277 0
-2587 -2600 3278 0
-2587 -2601 3279 0
-2588 -2594 3273 0
-2588 -2595 3274 0
-2588 -2596 3275 0
-2588 -2597 3276 0
-2588 -2598 3277 0
-2588 -2599 3278 0
-2588 -2600 3279 0
-2588 -2601 3280 0
-2589 -2594 3274 0
-2589 -2595 3275 0
-2589 -2596 3276 0
-2589 -2597 3277 0
-2589 -2598 3278 0
-2589 -2599 3279 0
-2589 -2600 3280 0
-2589 -2601 3281 0
-2590 -2594 3275 0
-2590 -2595 3276 0
-2590 -2596 3277 0
-2590 -2597 3278 0
-2590 -2598 3279 0
-2590 -2599 3280 0
-2590 -2600 3281 0
-2590 -2601 3282 0
-2591 -2594 3276 0
-2591 -2595 3277 0
-2591 -2596 3278 0
-2591 -2597 3279 0
-2591 -2598 3280 0
-2591 -2599 3281 0
-2591 -2600 3282 0
-2591 -2601 3283 0
-2592 -2594 3277 0
-2592 -2595 3278 0
-2592 -2596 3279 0
-2592 -2597 3280 0
-2592 -2598 3281 0
-2592 -2599 3282 0
-2592 -2600 3283 0
-2592 -2601 3284 0
-2593 -2594 3278 0
-2593 -2595 3279 0
-2593 -2596 3280 0
-2593 -2597 3281 0
-2593 -2598 3282 0
-2593 -2599 3283 0
-2593 -2600 3284 0
-2593 -2601 3285 0
-2610 3286 0
-2611 3287 0
-2612 3288 0
-2613 3289 0
-2614 3290 0
-2615 3291 0
-2616 3292 0
-2617 3293 0
-2602 3286 0
-2603 3287 0
-2604 3288 0
-2605 3289 0
-2606 3290 0
-2607 3291 0
-2608 3292 0
-2609 3293 0
-2602 -2610 3287 0
-2602 -2611 3288 0
-2602 -2612 3289 0
-2602 -2613 3290 0
-2602 -2614 3291 0
-2602 -2615 3292 0
-2602 -2616 3293 0
-2602 -2617 3294 0
-2603 -2610 3288 0
-2603 -2611 3289 0
-2603 -2612 3290 0
-2603 -2613 3291 0
-2603 -2614 3292 0
-2603 -2615 3293 0
-2603 -2616 3294 0
-2603 -2617 3295 0
-2604 -2610 3289 0
-2604 -2611 3290 0
-2604 -2612 3291 0
-2604 -2613 3292 0
-2604 -2614 3293 0
-2604 -2615 3294 0
-2604 -2616 3295 0
-2604 -2617 3296 0
-2605 -2610 3290 0
-2605 -2611 3291 0
-2605 -2612 3292 0
-2605 -2613 3293 0
-2605 -2614 3294 0
-2605 -2615 3295 0
-2605 -2616 3296 0
-2605 -2617 3297 0
-2606 -2610 3291 0
-2606 -2611 3292 0
-2606 -2612 3293 0
-2606 -2613 3294 0
-2606 -2614 3295 0
-2606 -2615 3296 0
-2606 -2616 3297 0
-2606 -2617 3298 0
-2607 -2610 3292 0
-2607 -2611 3293 0
-2607 -2612 3294 0
-2607 -2613 3295 0
-2607 -2614 3296 0
-2607 -2615 3297 0
-2607 -2616 3298 0
-2607 -2617 3299 0
-2608 -2610 3293 0
-2608 -2611 3294 0
-2608 -2612 3295 0
-2608 -2613 3296 0
-2608 -2614 3297 0
-2608 -2615 3298 0
-2608 -2616 3299 0
-2608 -2617 3300 0
-2609 -2610 3294 0
-2609 -2611 3295 0
-2609 -2612 3296 0
-2609 -2613 3297 0
-2609 -2614 3298 0
-2609 -2615 3299 0
-2609 -2616 3300 0
-2609 -2617 3301 0
-2626 3302 0
-2627 3303 0
-2628 3304 0
-2629 3305 0
-2630 3306 0
-2631 3307 0
-2632 3308 0
-2633 3309 0
-2618 3302 0
-2619 3303 0
-2620 3304 0
-2621 3305 0
-2622 3306 0
-2623 3307 0
-2624 3308 0
-2625 3309 0
-2618 -2626 3303 0
-2618 -2627 3304 0
-2618 -2628 3305 0
-2618 -2629 3306 0
-2618 -2630 3307 0
-2618 -2631 3308 0
-2618 -2632 3309 0
-2618 -2633 3310 0
-2619 -2626 3304 0
-2619 -2627 3305 0
-2619 -2628 3306 0
-2619 -2629 3307 0
-2619 -2630 3308 0
-2619 -2631 3309 0
-2619 -2632 3310 0
-2619 -2633 3311 0
-2620 -2626 3305 0
-2620 -2627 3306 0
-2620 -2628 3307 0
-2620 -2629 3308 0
-2620 -2630 3309 0
-2620 -2631 3310 0
-2620 -2632 3311 0
-2620 -2633 3312 0
-2621 -2626 3306 0
-2621 -2627 3307 0
-2621 -2628 3308 0
-2621 -2629 3309 0
-2621 -2630 3310 0
-2621 -2631 3311 0
-2621 -2632 3312 0
-2621 -2633 3313 0
-2622 -2626 3307 0
-2622 -2627 3308 0
-2622 -2628 3309 0
-2622 -2629 3310 0
-2622 -2630 3311 0
-2622 -2631 3312 0
-2622 -2632 3313 0
-2622 -2633 3314 0
-2623 -2626 3308 0
-2623 -2627 3309 0
-2623 -2628 3310 0
-2623 -2629 3311 0
-2623 -2630 3312 0
-2623 -2631 3313 0
-2623 -2632 3314 0
-2623 -2633 3315 0
-2624 -2626 3309 0
-2624 -2627 3310 0
-2624 -2628 3311 0
-2624 -2629 3312 0
-2624 -2630 3313 0
-2624 -2631 3314 0
-2624 -2632 3315 0
-2624 -2633 3316 0
-2625 -2626 3310 0
-2625 -2627 3311 0
-2625 -2628 3312 0
-2625 -2629 3313 0
-2625 -2630 3314 0
-2625 -2631 3315 0
-2625 -2632 3316 0
-2625 -2633 3317 0
-2642 3318 0
-2643 3319 0
-2644 3320 0
-2645 3321 0
-2646 3322 0
-2647 3323 0
-2648 3324 0
-2649 3325 0
-2634 3318 0
-2635 3319 0
-2636 3320 0
-2637 3321 0
-2638 3322 0
-2639 3323 0
-2640 3324 0
-2641 3325 0
-2634 -2642 3319 0
-2634 -2643 3320 0
-2634 -2644 3321 0
-2634 -2645 3322 0
-2634 -2646 3323 0
-2634 -2647 3324 0
-2634 -2648 3325 0
-2634 -2649 3326 0
-2635 -2642 3320 0
-2635 -2643 3321 0
-2635 -2644 3322 0
-2635 -2645 3323 0
-2635 -2646 3324 0
-2635 -2647 3325 0
-2635 -2648 3326 0
-2635 -2649 3327 0
-2636 -2642 3321 0
-2636 -2643 3322 0
-2636 -2644 3323 0
-2636 -2645 3324 0
-2636 -2646 3325 0
-2636 -2647 3326 0
-2636 -2648 3327 0
-2636 -2649 3328 0
-2637 -2642 3322 0
-2637 -2643 3323 0
-2637 -2644 3324 0
-2637 -2645 3325 0
-2637 -2646 3326 0
-2637 -2647 3327 0
-2637 -2648 3328 0
-2637 -2649 3329 0
-2638 -2642 3323 0
-2638 -2643 3324 0
-2638 -2644 3325 0
-2638 -2645 3326 0
-2638 -2646 3327 0
-2638 -2647 3328 0
-2638 -2648 3329 0
-2638 -2649 3330 0
-2639 -2642 3324 0
-2639 -2643 3325 0
-2639 -2644 3326 0
-2639 -2645 3327 0
-2639 -2646 3328 0
-2639 -2647 3329 0
-2639 -2648 3330 0
-2639 -2649 3331 0
-2640 -2642 3325 0
-2640 -2643 3326 0
-2640 -2644 3327 0
-2640 -2645 3328 0
-2640 -2646 3329 0
-2640 -2647 3330 0
-2640 -2648 3331 0
-2640 -2649 3332 0
-2641 -2642 3326 0
-2641 -2643 3327 0
-2641 -2644 3328 0
-2641 -2645 3329 0
-2641 -2646 3330 0
-2641 -2647 3331 0
-2641 -2648 3332 0
-2641 -2649 3333 0
-2658 3334 0
-2659 3335 0
-2660 3336 0
-2661 3337 0
-2662 3338 0
-2663 3339 0
-2664 3340 0
-2665 3341 0
-2650 3334 0
-2651 3335 0
-2652 3336 0
-2653 3337 0
-2654 3338 0
-2655 3339 0
-2656 3340 0
-2657 3341 0
-2650 -2658 3335 0
-2650 -2659 3336 0
-2650 -2660 3337 0
-2650 -2661 3338 0
-2650 -2662 3339 0
-2650 -2663 3340 0
-2650 -2664 3341 0
-2650 -2665 3342 0
-2651 -2658 3336 0
-2651 -2659 3337 0
-2651 -2660 3338 0
-2651 -2661 3339 0
-2651 -2662 3340 0
-2651 -2663 3341 0
-2651 -2664 3342 0
-2651 -2665 3343 0
-2652 -2658 3337 0
-2652 -2659 3338 0
-2652 -2660 3339 0
-2652 -2661 3340 0
-2652 -2662 3341 0
-2652 -2663 3342 0
-2652 -2664 3343 0
-2652 -2665 3344 0
-2653 -2658 3338 0
-2653 -2659 3339 0
-2653 -2660 3340 0
-2653 -2661 3341 0
-2653 -2662 3342 0
-2653 -2663 3343 0
-2653 -2664 3344 0
-2653 -2665 3345 0
-2654 -2658 3339 0
-2654 -2659 3340 0
-2654 -2660 3341 0
-2654 -2661 3342 0
-2654 -2662 3343 0
-2654 -2663 3344 0
-2654 -2664 3345 0
-2654 -2665 3346 0
-2655 -2658 3340 0
-2655 -2659 3341 0
-2655 -2660 3342 0
-2655 -2661 3343 0
-2655 -2662 3344 0
-2655 -2663 3345 0
-2655 -2664 3346 0
-2655 -2665 3347 0
-2656 -2658 3341 0
-2656 -2659 3342 0
-2656 -2660 3343 0
-2656 -2661 3344 0
-2656 -2662 3345 0
-2656 -2663 3346 0
-2656 -2664 3347 0
-2656 -2665 3348 0
-2657 -2658 3342 0
-2657 -2659 3343 0
-2657 -2660 3344 0
-2657 -2661 3345 0
-2657 -2662 3346 0
-2657 -2663 3347 0
-2657 -2664 3348 0
-2657 -2665 3349 0
-2674 3350 0
-2675 3351 0
-2676 3352 0
-2677 3353 0
-2678 3354 0
-2679 3355 0
-2680 3356 0
-2681 3357 0
-2666 3350 0
-2667 3351 0
-2668 3352 0
-2669 3353 0
-2670 3354 0
-2671 3355 0
-2672 3356 0
-2673 3357 0
-2666 -2674 3351 0
-2666 -2675 3352 0
-2666 -2676 3353 0
-2666 -2677 3354 0
-2666 -2678 3355 0
-2666 -2679 3356 0
-2666 -2680 3357 0
-2666 -2681 3358 0
-2667 -2674 3352 0
-2667 -2675 3353 0
-2667 -2676 3354 0
-2667 -2677 3355 0
-2667 -2678 3356 0
-2667 -2679 3357 0
-2667 -2680 3358 0
-2667 -2681 3359 0
-2668 -2674 3353 0
-2668 -2675 3354 0
-2668 -2676 3355 0
-2668 -2677 3356 0
-2668 -2678 3357 0
-2668 -2679 3358 0
-2668 -2680 3359 0
-2668 -2681 3360 0
-2669 -2674 3354 0
-2669 -2675 3355 0
-2669 -2676 3356 0
-2669 -2677 3357 0
-2669 -2678 3358 0
-2669 -2679 3359 0
-2669 -2680 3360 0
-2669 -2681 3361 0
-2670 -2674 3355 0
-2670 -2675 3356 0
-2670 -2676 3357 0
-2670 -2677 3358 0
-2670 -2678 3359 0
-2670 -2679 3360 0
-2670 -2680 3361 0
-2670 -2681 3362 0
-2671 -2674 3356 0
-2671 -2675 3357 0
-2671 -2676 3358 0
-2671 -2677 3359 0
-2671 -2678 3360 0
-2671 -2679 3361 0
-2671 -2680 3362 0
-2671 -2681 3363 0
-2672 -2674 3357 0
-2672 -2675 3358 0
-2672 -2676 3359 0
-2672 -2677 3360 0
-2672 -2678 3361 0
-2672 -2679 3362 0
-2672 -2680 3363 0
-2672 -2681 3364 0
-2673 -2674 3358 0
-2673 -2675 3359 0
-2673 -2676 3360 0
-2673 -2677 3361 0
-2673 -2678 3362 0
-2673 -2679 3363 0
-2673 -2680 3364 0
-2673 -2681 3365 0
-2690 3366 0
-2691 3367 0
-2692 3368 0
-2693 3369 0
-2694 3370 0
-2695 3371 0
-2696 3372 0
-2697 3373 0
-2682 3366 0
-2683 3367 0
-2684 3368 0
-2685 3369 0
-2686 3370 0
-2687 3371 0
-2688 3372 0
-2689 3373 0
-2682 -2690 3367 0
-2682 -2691 3368 0
-2682 -2692 3369 0
-2682 -2693 3370 0
-2682 -2694 3371 0
-2682 -2695 3372 0
-2682 -2696 3373 0
-2682 -2697 3374 0
-2683 -2690 3368 0
-2683 -2691 3369 0
-2683 -2692 3370 0
-2683 -2693 3371 0
-2683 -2694 3372 0
-2683 -2695 3373 0
-2683 -2696 3374 0
-2683 -2697 3375 0
-2684 -2690 3369 0
-2684 -2691 3370 0
-2684 -2692 3371 0
-2684 -2693 3372 0
-2684 -2694 3373 0
-2684 -2695 3374 0
-2684 -2696 3375 0
-2684 -2697 3376 0
-2685 -2690 3370 0
-2685 -2691 3371 0
-2685 -2692 3372 0
-2685 -2693 3373 0
-2685 -2694 3374 0
-2685 -2695 3375 0
-2685 -2696 3376 0
-2685 -2697 3377 0
-2686 -2690 3371 0
-2686 -2691 3372 0
-2686 -2692 3373 0
-2686 -2693 3374 0
-2686 -2694 3375 0
-2686 -2695 3376 0
-2686 -2696 3377 0
-2686 -2697 3378 0
-2687 -2690 3372 0
-2687 -2691 3373 0
-2687 -2692 3374 0
-2687 -2693 3375 0
-2687 -2694 3376 0
-2687 -2695 3377 0
-2687 -2696 3378 0
-2687 -2697 3379 0
-2688 -2690 3373 0
-2688 -2691 3374 0
-2688 -2692 3375 0
-2688 -2693 3376 0
-2688 -2694 3377 0
-2688 -2695 3378 0
-2688 -2696 3379 0
-2688 -2697 3380 0
-2689 -2690 3374 0
-2689 -2691 3375 0
-2689 -2692 3376 0
-2689 -2693 3377 0
-2689 -2694 3378 0
-2689 -2695 3379 0
-2689 -2696 3380 0
-2689 -2697 3381 0
-2706 3382 0
-2707 3383 0
-2708 3384 0
-2709 3385 0
-2710 3386 0
-2711 3387 0
-2712 3388 0
-2713 3389 0
-2698 3382 0
-2699 3383 0
-2700 3384 0
-2701 3385 0
-2702 3386 0
-2703 3387 0
-2704 3388 0
-2705 3389 0
-2698 -2706 3383 0
-2698 -2707 3384 0
-2698 -2708 3385 0
-2698 -2709 3386 0
-2698 -2710 3387 0
-2698 -2711 3388 0
-2698 -2712 3389 0
-2698 -2713 3390 0
-2699 -2706 3384 0
-2699 -2707 3385 0
-2699 -2708 3386 0
-2699 -2709 3387 0
-2699 -2710 3388 0
-2699 -2711 3389 0
-2699 -2712 3390 0
-2699 -2713 3391 0
-2700 -2706 3385 0
-2700 -2707 3386 0
-2700 -2708 3387 0
-2700 -2709 3388 0
-2700 -2710 3389 0
-2700 -2711 3390 0
-2700 -2712 3391 0
-2700 -2713 3392 0
-2701 -2706 3386 0
-2701 -2707 3387 0
-2701 -2708 3388 0
-2701 -2709 3389 0
-2701 -2710 3390 0
-2701 -2711 3391 0
-2701 -2712 3392 0
-2701 -2713 3393 0
-2702 -2706 3387 0
-2702 -2707 3388 0
-2702 -2708 3389 0
-2702 -2709 3390 0
-2702 -2710 3391 0
-2702 -2711 3392 0
-2702 -2712 3393 0
-2702 -2713 3394 0
-2703 -2706 3388 0
-2703 -2707 3389 0
-2703 -2708 3390 0
-2703 -2709 3391 0
-2703 -2710 3392 0
-2703 -2711 3393 0
-2703 -2712 3394 0
-2703 -2713 3395 0
-2704 -2706 3389 0
-2704 -2707 3390 0
-2704 -2708 3391 0
-2704 -2709 3392 0
-2704 -2710 3393 0
-2704 -2711 3394 0
-2704 -2712 3395 0
-2704 -2713 3396 0
-2705 -2706 3390 0
-2705 -2707 3391 0
-2705 -2708 3392 0
-2705 -2709 3393 0
-2705 -2710 3394 0
-2705 -2711 3395 0
-2705 -2712 3396 0
-2705 -2713 3397 0
-2722 3398 0
-2723 3399 0
-2724 3400 0
-2725 3401 0
-2726 3402 0
-2727 3403 0
-2728 3404 0
-2729 3405 0
-2714 3398 0
-2715 3399 0
-2716 3400 0
-2717 3401 0
-2718 3402 0
-2719 3403 0
-2720 3404 0
-2721 3405 0
-2714 -2722 3399 0
-2714 -2723 3400 0
-2714 -2724 3401 0
-2714 -2725 3402 0
-2714 -2726 3403 0
-2714 -2727 3404 0
-2714 -2728 3405 0
-2714 -2729 3406 0
-2715 -2722 3400 0
-2715 -2723 3401 0
-2715 -2724 3402 0
-2715 -2725 3403 0
-2715 -2726 3404 0
-2715 -2727 3405 0
-2715 -2728 3406 0
-2715 -2729 3407 0
-2716 -2722 3401 0
-2716 -2723 3402 0
-2716 -2724 3403 0
-2716 -2725 3404 0
-2716 -2726 3405 0
-2716 -2727 3406 0
-2716 -2728 3407 0
-2716 -2729 3408 0
-2717 -2722 3402 0
-2717 -2723 3403 0
-2717 -2724 3404 0
-2717 -2725 3405 0
-2717 -2726 3406 0
-2717 -2727 3407 0
-2717 -2728 3408 0
-2717 -2729 3409 0
-2718 -2722 3403 0
-2718 -2723 3404 0
-2718 -2724 3405 0
-2718 -2725 3406 0
-2718 -2726 3407 0
-2718 -2727 3408 0
-2718 -2728 3409 0
-2718 -2729 3410 0
-2719 -2722 3404 0
-2719 -2723 3405 0
-2719 -2724 3406 0
-2719 -2725 3407 0
-2719 -2726 3408 0
-2719 -2727 3409 0
-2719 -2728 3410 0
-2719 -2729 3411 0
-2720 -2722 3405 0
-2720 -2723 3406 0
-2720 -2724 3407 0
-2720 -2725 3408 0
-2720 -2726 3409 0
-2720 -2727 3410 0
-2720 -2728 3411 0
-2720 -2729 3412 0
-2721 -2722 3406 0
-2721 -2723 3407 0
-2721 -2724 3408 0
-2721 -2725 3409 0
-2721 -2726 3410 0
-2721 -2727 3411 0
-2721 -2728 3412 0
-2721 -2729 3413 0
-2738 3414 0
-2739 3415 0
-2740 3416 0
-2741 3417 0
-2742 3418 0
-2743 3419 0
-2744 3420 0
-2745 3421 0
-2730 3414 0
-2731 3415 0
-2732 3416 0
-2733 3417 0
-2734 3418 0
-2735 3419 0
-2736 3420 0
-2737 3421 0
-2730 -2738 3415 0
-2730 -2739 3416 0
-2730 -2740 3417 0
-2730 -2741 3418 0
-2730 -2742 3419 0
-2730 -2743 3420 0
-2730 -2744 3421 0
-2730 -2745 3422 0
-2731 -2738 3416 0
-2731 -2739 3417 0
-2731 -2740 3418 0
-2731 -2741 3419 0
-2731 -2742 3420 0
-2731 -2743 3421 0
-2731 -2744 3422 0
-2731 -2745 3423 0
-2732 -2738 3417 0
-2732 -2739 3418 0
-2732 -2740 3419 0
-2732 -2741 3420 0
-2732 -2742 3421 0
-2732 -2743 3422 0
-2732 -2744 3423 0
-2732 -2745 3424 0
-2733 -2738 3418 0
-2733 -2739 3419 0
-2733 -2740 3420 0
-2733 -2741 3421 0
-2733 -2742 3422 0
-2733 -2743 3423 0
-2733 -2744 3424 0
-2733 -2745 3425 0
-2734 -2738 3419 0
-2734 -2739 3420 0
-2734 -2740 3421 0
-2734 -2741 3422 0
-2734 -2742 3423 0
-2734 -2743 3424 0
-2734 -2744 3425 0
-2734 -2745 3426 0
-2735 -2738 3420 0
-2735 -2739 3421 0
-2735 -2740 3422 0
-2735 -2741 3423 0
-2735 -2742 3424 0
-2735 -2743 3425 0
-2735 -2744 3426 0
-2735 -2745 3427 0
-2736 -2738 3421 0
-2736 -2739 3422 0
-2736 -2740 3423 0
-2736 -2741 3424 0
-2736 -2742 3425 0
-2736 -2743 3426 0
-2736 -2744 3427 0
-2736 -2745 3428 0
-2737 -2738 3422 0
-2737 -2739 3423 0
-2737 -2740 3424 0
-2737 -2741 3425 0
-2737 -2742 3426 0
-2737 -2743 3427 0
-2737 -2744 3428 0
-2737 -2745 3429 0
-2754 3430 0
-2755 3431 0
-2756 3432 0
-2757 3433 0
-2758 3434 0
-2759 3435 0
-2760 3436 0
-2761 3437 0
-2746 3430 0
-2747 3431 0
-2748 3432 0
-2749 3433 0
-2750 3434 0
-2751 3435 0
-2752 3436 0
-2753 3437 0
-2746 -2754 3431 0
-2746 -2755 3432 0
-2746 -2756 3433 0
-2746 -2757 3434 0
-2746 -2758 3435 0
-2746 -2759 3436 0
-2746 -2760 3437 0
-2746 -2761 3438 0
-2747 -2754 3432 0
-2747 -2755 3433 0
-2747 -2756 3434 0
-2747 -2757 3435 0
-2747 -2758 3436 0
-2747 -2759 3437 0
-2747 -2760 3438 0
-2747 -2761 3439 0
-2748 -2754 3433 0
-2748 -2755 3434 0
-2748 -2756 3435 0
-2748 -2757 3436 0
-2748 -2758 3437 0
-2748 -2759 3438 0
-2748 -2760 3439 0
-2748 -2761 3440 0
-2749 -2754 3434 0
-2749 -2755 3435 0
-2749 -2756 3436 0
-2749 -2757 3437 0
-2749 -2758 3438 0
-2749 -2759 3439 0
-2749 -2760 3440 0
-2749 -2761 3441 0
-2750 -2754 3435 0
-2750 -2755 3436 0
-2750 -2756 3437 0
-2750 -2757 3438 0
-2750 -2758 3439 0
-2750 -2759 3440 0
-2750 -2760 3441 0
-2750 -2761 3442 0
-2751 -2754 3436 0
-2751 -2755 3437 0
-2751 -2756 3438 0
-2751 -2757 3439 0
-2751 -2758 3440 0
-2751 -2759 3441 0
-2751 -2760 3442 0
-2751 -2761 3443 0
-2752 -2754 3437 0
-2752 -2755 3438 0
-2752 -2756 3439 0
-2752 -2757 3440 0
-2752 -2758 3441 0
-2752 -2759 3442 0
-2752 -2760 3443 0
-2752 -2761 3444 0
-2753 -2754 3438 0
-2753 -2755 3439 0
-2753 -2756 3440 0
-2753 -2757 3441 0
-2753 -2758 3442 0
-2753 -2759 3443 0
-2753 -2760 3444 0
-2753 -2761 3445 0
-2770 3446 0
-2771 3447 0
-2772 3448 0
-2773 3449 0
-2774 3450 0
-2775 3451 0
-2776 3452 0
-2777 3453 0
-2762 3446 0
-2763 3447 0
-2764 3448 0
-2765 3449 0
-2766 3450 0
-2767 3451 0
-2768 3452 0
-2769 3453 0
-2762 -2770 3447 0
-2762 -2771 3448 0
-2762 -2772 3449 0
-2762 -2773 3450 0
-2762 -2774 3451 0
-2762 -2775 3452 0
-2762 -2776 3453 0
-2762 -2777 3454 0
-2763 -2770 3448 0
-2763 -2771 3449 0
-2763 -2772 3450 0
-2763 -2773 3451 0
-2763 -2774 3452 0
-2763 -2775 3453 0
-2763 -2776 3454 0
-2763 -2777 3455 0
-2764 -2770 3449 0
-2764 -2771 3450 0
-2764 -2772 3451 0
-2764 -2773 3452 0
-2764 -2774 3453 0
-2764 -2775 3454 0
-2764 -2776 3455 0
-2764 -2777 3456 0
-2765 -2770 3450 0
-2765 -2771 3451 0
-2765 -2772 3452 0
-2765 -2773 3453 0
-2765 -2774 3454 0
-2765 -2775 3455 0
-2765 -2776 3456 0
-2765 -2777 3457 0
-2766 -2770 3451 0
-2766 -2771 3452 0
-2766 -2772 3453 0
-2766 -2773 3454 0
-2766 -2774 3455 0
-2766 -2775 3456 0
-2766 -2776 3457 0
-2766 -2777 3458 0
-2767 -2770 3452 0
-2767 -2771 3453 0
-2767 -2772 3454 0
-2767 -2773 3455 0
-2767 -2774 3456 0
-2767 -2775 3457 0
-2767 -2776 3458 0
-2767 -2777 3459 0
-2768 -2770 3453 0
-2768 -2771 3454 0
-2768 -2772 3455 0
-2768 -2773 3456 0
-2768 -2774 3457 0
-2768 -2775 3458 0
-2768 -2776 3459 0
-2768 -2777 3460 0
-2769 -2770 3454 0
-2769 -2771 3455 0
-2769 -2772 3456 0
-2769 -2773 3457 0
-2769 -2774 3458 0
-2769 -2775 3459 0
-2769 -2776 3460 0
-2769 -2777 3461 0
-2786 3462 0
-2787 3463 0
-2788 3464 0
-2789 3465 0
-2790 3466 0
-2791 3467 0
-2792 3468 0
-2793 3469 0
-2778 3462 0
-2779 3463 0
-2780 3464 0
-2781 3465 0
-2782 3466 0
-2783 3467 0
-2784 3468 0
-2785 3469 0
-2778 -2786 3463 0
-2778 -2787 3464 0
-2778 -2788 3465 0
-2778 -2789 3466 0
-2778 -2790 3467 0
-2778 -2791 3468 0
-2778 -2792 3469 0
-2778 -2793 3470 0
-2779 -2786 3464 0
-2779 -2787 3465 0
-2779 -2788 3466 0
-2779 -2789 3467 0
-2779 -2790 3468 0
-2779 -2791 3469 0
-2779 -2792 3470 0
-2779 -2793 3471 0
-2780 -2786 3465 0
-2780 -2787 3466 0
-2780 -2788 3467 0
-2780 -2789 3468 0
-2780 -2790 3469 0
-2780 -2791 3470 0
-2780 -2792 3471 0
-2780 -2793 3472 0
-2781 -2786 3466 0
-2781 -2787 3467 0
-2781 -2788 3468 0
-2781 -2789 3469 0
-2781 -2790 3470 0
-2781 -2791 3471 0
-2781 -2792 3472 0
-2781 -2793 3473 0
-2782 -2786 3467 0
-2782 -2787 3468 0
-2782 -2788 3469 0
-2782 -2789 3470 0
-2782 -2790 3471 0
-2782 -2791 3472 0
-2782 -2792 3473 0
-2782 -2793 3474 0
-2783 -2786 3468 0
-2783 -2787 3469 0
-2783 -2788 3470 0
-2783 -2789 3471 0
-2783 -2790 3472 0
-2783 -2791 3473 0
-2783 -2792 3474 0
-2783 -2793 3475 0
-2784 -2786 3469 0
-2784 -2787 3470 0
-2784 -2788 3471 0
-2784 -2789 3472 0
-2784 -2790 3473 0
-2784 -2791 3474 0
-2784 -2792 3475 0
-2784 -2793 3476 0
-2785 -2786 3470 0
-2785 -2787 3471 0
-2785 -2788 3472 0
-2785 -2789 3473 0
-2785 -2790 3474 0
-2785 -2791 3475 0
-2785 -2792 3476 0
-2785 -2793 3477 0
-2802 3478 0
-2803 3479 0
-2804 3480 0
-2805 3481 0
-2806 3482 0
-2807 3483 0
-2808 3484 0
-2809 3485 0
-2794 3478 0
-2795 3479 0
-2796 3480 0
-2797 3481 0
-2798 3482 0
-2799 3483 0
-2800 3484 0
-2801 3485 0
-2794 -2802 3479 0
-2794 -2803 3480 0
-2794 -2804 3481 0
-2794 -2805 3482 0
-2794 -2806 3483 0
-2794 -2807 3484 0
-2794 -2808 3485 0
-2794 -2809 3486 0
-2795 -2802 3480 0
-2795 -2803 3481 0
-2795 -2804 3482 0
-2795 -2805 3483 0
-2795 -2806 3484 0
-2795 -2807 3485 0
-2795 -2808 3486 0
-2795 -2809 3487 0
-2796 -2802 3481 0
-2796 -2803 3482 0
-2796 -2804 3483 0
-2796 -2805 3484 0
-2796 -2806 3485 0
-2796 -2807 3486 0
-2796 -2808 3487 0
-2796 -2809 3488 0
-2797 -2802 3482 0
-2797 -2803 3483 0
-2797 -2804 3484 0
-2797 -2805 3485 0
-2797 -2806 3486 0
-2797 -2807 3487 0
-2797 -2808 3488 0
-2797 -2809 3489 0
-2798 -2802 3483 0
-2798 -2803 3484 0
-2798 -2804 3485 0
-2798 -2805 3486 0
-2798 -2806 3487 0
-2798 -2807 3488 0
-2798 -2808 3489 0
-2798 -2809 3490 0
-2799 -2802 3484 0
-2799 -2803 3485 0
-2799 -2804 3486 0
-2799 -2805 3487 0
-2799 -2806 3488 0
-2799 -2807 3489 0
-2799 -2808 3490 0
-2799 -2809 3491 0
-2800 -2802 3485 0
-2800 -2803 3486 0
-2800 -2804 3487 0
-2800 -2805 3488 0
-2800 -2806 3489 0
-2800 -2807 3490 0
-2800 -2808 3491 0
-2800 -2809 3492 0
-2801 -2802 3486 0
-2801 -2803 3487 0
-2801 -2804 3488 0
-2801 -2805 3489 0
-2801 -2806 3490 0
-2801 -2807 3491 0
-2801 -2808 3492 0
-2801 -2809 3493 0
-2818 3494 0
-2819 3495 0
-2820 3496 0
-2821 3497 0
-2822 3498 0
-2823 3499 0
-2824 3500 0
-2825 3501 0
-2810 3494 0
-2811 3495 0
-2812 3496 0
-2813 3497 0
-2814 3498 0
-2815 3499 0
-2816 3500 0
-2817 3501 0
-2810 -2818 3495 0
-2810 -2819 3496 0
-2810 -2820 3497 0
-2810 -2821 3498 0
-2810 -2822 3499 0
-2810 -2823 3500 0
-2810 -2824 3501 0
-2810 -2825 3502 0
-2811 -2818 3496 0
-2811 -2819 3497 0
-2811 -2820 3498 0
-2811 -2821 3499 0
-2811 -2822 3500 0
-2811 -2823 3501 0
-2811 -2824 3502 0
-2811 -2825 3503 0
-2812 -2818 3497 0
-2812 -2819 3498 0
-2812 -2820 3499 0
-2812 -2821 3500 0
-2812 -2822 3501 0
-2812 -2823 3502 0
-2812 -2824 3503 0
-2812 -2825 3504 0
-2813 -2818 3498 0
-2813 -2819 3499 0
-2813 -2820 3500 0
-2813 -2821 3501 0
-2813 -2822 3502 0
-2813 -2823 3503 0
-2813 -2824 3504 0
-2813 -2825 3505 0
-2814 -2818 3499 0
-2814 -2819 3500 0
-2814 -2820 3501 0
-2814 -2821 3502 0
-2814 -2822 3503 0
-2814 -2823 3504 0
-2814 -2824 3505 0
-2814 -2825 3506 0
-2815 -2818 3500 0
-2815 -2819 3501 0
-2815 -2820 3502 0
-2815 -2821 3503 0
-2815 -2822 3504 0
-2815 -2823 3505 0
-2815 -2824 3506 0
-2815 -2825 3507 0
-2816 -2818 3501 0
-2816 -2819 3502 0
-2816 -2820 3503 0
-2816 -2821 3504 0
-2816 -2822 3505 0
-2816 -2823 3506 0
-2816 -2824 3507 0
-2816 -2825 3508 0
-2817 -2818 3502 0
-2817 -2819 3503 0
-2817 -2820 3504 0
-2817 -2821 3505 0
-2817 -2822 3506 0
-2817 -2823 3507 0
-2817 -2824 3508 0
-2817 -2825 3509 0
-2834 3510 0
-2835 3511 0
-2836 3512 0
-2837 3513 0
-2838 3514 0
-2839 3515 0
-2840 3516 0
-2841 3517 0
-2826 3510 0
-2827 3511 0
-2828 3512 0
-2829 3513 0
-2830 3514 0
-2831 3515 0
-2832 3516 0
-2833 3517 0
-2826 -2834 3511 0
-2826 -2835 3512 0
-2826 -2836 3513 0
-2826 -2837 3514 0
-2826 -2838 3515 0
-2826 -2839 3516 0
-2826 -2840 3517 0
-2826 -2841 3518 0
-2827 -2834 3512 0
-2827 -2835 3513 0
-2827 -2836 3514 0
-2827 -2837 3515 0
-2827 -2838 3516 0
-2827 -2839 3517 0
-2827 -2840 3518 0
-2827 -2841 3519 0
-2828 -2834 3513 0
-2828 -2835 3514 0
-2828 -2836 3515 0
-2828 -2837 3516 0
-2828 -2838 3517 0
-2828 -2839 3518 0
-2828 -2840 3519 0
-2828 -2841 3520 0
-2829 -2834 3514 0
-2829 -2835 3515 0
-2829 -2836 3516 0
-2829 -2837 3517 0
-2829 -2838 3518 0
-2829 -2839 3519 0
-2829 -2840 3520 0
-2829 -2841 3521 0
-2830 -2834 3515 0
-2830 -2835 3516 0
-2830 -2836 3517 0
-2830 -2837 3518 0
-2830 -2838 3519 0
-2830 -2839 3520 0
-2830 -2840 3521 0
-2830 -2841 3522 0
-2831 -2834 3516 0
-2831 -2835 3517 0
-2831 -2836 3518 0
-2831 -2837 3519 0
-2831 -2838 3520 0
-2831 -2839 3521 0
-2831 -2840 3522 0
-2831 -2841 3523 0
-2832 -2834 3517 0
-2832 -2835 3518 0
-2832 -2836 3519 0
-2832 -2837 3520 0
-2832 -2838 3521 0
-2832 -2839 3522 0
-2832 -2840 3523 0
-2832 -2841 3524 0
-2833 -2834 3518 0
-2833 -2835 3519 0
-2833 -2836 3520 0
-2833 -2837 3521 0
-2833 -2838 3522 0
-2833 -2839 3523 0
-2833 -2840 3524 0
-2833 -2841 3525 0
-2850 3526 0
-2851 3527 0
-2852 3528 0
-2853 3529 0
-2854 3530 0
-2855 3531 0
-2856 3532 0
-2857 3533 0
-2842 3526 0
-2843 3527 0
-2844 3528 0
-2845 3529 0
-2846 3530 0
-2847 3531 0
-2848 3532 0
-2849 3533 0
-2842 -2850 3527 0
-2842 -2851 3528 0
-2842 -2852 3529 0
-2842 -2853 3530 0
-2842 -2854 3531 0
-2842 -2855 3532 0
-2842 -2856 3533 0
-2842 -2857 3534 0
-2843 -2850 3528 0
-2843 -2851 3529 0
-2843 -2852 3530 0
-2843 -2853 3531 0
-2843 -2854 3532 0
-2843 -2855 3533 0
-2843 -2856 3534 0
-2843 -2857 3535 0
-2844 -2850 3529 0
-2844 -2851 3530 0
-2844 -2852 3531 0
-2844 -2853 3532 0
-2844 -2854 3533 0
-2844 -2855 3534 0
-2844 -2856 3535 0
-2844 -2857 3536 0
-2845 -2850 3530 0
-2845 -2851 3531 0
-2845 -2852 3532 0
-2845 -2853 3533 0
-2845 -2854 3534 0
-2845 -2855 3535 0
-2845 -2856 3536 0
-2845 -2857 3537 0
-2846 -2850 3531 0
-2846 -2851 3532 0
-2846 -2852 3533 0
-2846 -2853 3534 0
-2846 -2854 3535 0
-2846 -2855 3536 0
-2846 -2856 3537 0
-2846 -2857 3538 0
-2847 -2850 3532 0
-2847 -2851 3533 0
-2847 -2852 3534 0
-2847 -2853 3535 0
-2847 -2854 3536 0
-2847 -2855 3537 0
-2847 -2856 3538 0
-2847 -2857 3539 0
-2848 -2850 3533 0
-2848 -2851 3534 0
-2848 -2852 3535 0
-2848 -2853 3536 0
-2848 -2854 3537 0
-2848 -2855 3538 0
-2848 -2856 3539 0
-2848 -2857 3540 0
-2849 -2850 3534 0
-2849 -2851 3535 0
-2849 -2852 3536 0
-2849 -2853 3537 0
-2849 -2854 3538 0
-2849 -2855 3539 0
-2849 -2856 3540 0
-2849 -2857 3541 0
-2866 3542 0
-2867 3543 0
-2868 3544 0
-2869 3545 0
-2870 3546 0
-2871 3547 0
-2872 3548 0
-2873 3549 0
-2858 3542 0
-2859 3543 0
-2860 3544 0
-2861 3545 0
-2862 3546 0
-2863 3547 0
-2864 3548 0
-2865 3549 0
-2858 -2866 3543 0
-2858 -2867 3544 0
-2858 -2868 3545 0
-2858 -2869 3546 0
-2858 -2870 3547 0
-2858 -2871 3548 0
-2858 -2872 3549 0
-2858 -2873 3550 0
-2859 -2866 3544 0
-2859 -2867 3545 0
-2859 -2868 3546 0
-2859 -2869 3547 0
-2859 -2870 3548 0
-2859 -2871 3549 0
-2859 -2872 3550 0
-2859 -2873 3551 0
-2860 -2866 3545 0
-2860 -2867 3546 0
-2860 -2868 3547 0
-2860 -2869 3548 0
-2860 -2870 3549 0
-2860 -2871 3550 0
-2860 -2872 3551 0
-2860 -2873 3552 0
-2861 -2866 3546 0
-2861 -2867 3547 0
-2861 -2868 3548 0
-2861 -2869 3549 0
-2861 -2870 3550 0
-2861 -2871 3551 0
-2861 -2872 3552 0
-2861 -2873 3553 0
-2862 -2866 3547 0
-2862 -2867 3548 0
-2862 -2868 3549 0
-2862 -2869 3550 0
-2862 -2870 3551 0
-2862 -2871 3552 0
-2862 -2872 3553 0
-2862 -2873 3554 0
-2863 -2866 3548 0
-2863 -2867 3549 0
-2863 -2868 3550 0
-2863 -2869 3551 0
-2863 -2870 3552 0
-2863 -2871 3553 0
-2863 -2872 3554 0
-2863 -2873 3555 0
-2864 -2866 3549 0
-2864 -2867 3550 0
-2864 -2868 3551 0
-2864 -2869 3552 0
-2864 -2870 3553 0
-2864 -2871 3554 0
-2864 -2872 3555 0
-2864 -2873 3556 0
-2865 -2866 3550 0
-2865 -2867 3551 0
-2865 -2868 3552 0
-2865 -2869 3553 0
-2865 -2870 3554 0
-2865 -2871 3555 0
-2865 -2872 3556 0
-2865 -2873 3557 0
-2882 3558 0
-2883 3559 0
-2884 3560 0
-2885 3561 0
-2886 3562 0
-2887 3563 0
-2888 3564 0
-2889 3565 0
-2874 3558 0
-2875 3559 0
-2876 3560 0
-2877 3561 0
-2878 3562 0
-2879 3563 0
-2880 3564 0
-2881 3565 0
-2874 -2882 3559 0
-2874 -2883 3560 0
-2874 -2884 3561 0
-2874 -2885 3562 0
-2874 -2886 3563 0
-2874 -2887 3564 0
-2874 -2888 3565 0
-2874 -2889 3566 0
-2875 -2882 3560 0
-2875 -2883 3561 0
-2875 -2884 3562 0
-2875 -2885 3563 0
-2875 -2886 3564 0
-2875 -2887 3565 0
-2875 -2888 3566 0
-2875 -2889 3567 0
-2876 -2882 3561 0
-2876 -2883 3562 0
-2876 -2884 3563 0
-2876 -2885 3564 0
-2876 -2886 3565 0
-2876 -2887 3566 0
-2876 -2888 3567 0
-2876 -2889 3568 0
-2877 -2882 3562 0
-2877 -2883 3563 0
-2877 -2884 3564 0
-2877 -2885 3565 0
-2877 -2886 3566 0
-2877 -2887 3567 0
-2877 -2888 3568 0
-2877 -2889 3569 0
-2878 -2882 3563 0
-2878 -2883 3564 0
-2878 -2884 3565 0
-2878 -2885 3566 0
-2878 -2886 3567 0
-2878 -2887 3568 0
-2878 -2888 3569 0
-2878 -2889 3570 0
-2879 -2882 3564 0
-2879 -2883 3565 0
-2879 -2884 3566 0
-2879 -2885 3567 0
-2879 -2886 3568 0
-2879 -2887 3569 0
-2879 -2888 3570 0
-2879 -2889 3571 0
-2880 -2882 3565 0
-2880 -2883 3566 0
-2880 -2884 3567 0
-2880 -2885 3568 0
-2880 -2886 3569 0
-2880 -2887 3570 0
-2880 -2888 3571 0
-2880 -2889 3572 0
-2881 -2882 3566 0
-2881 -2883 3567 0
-2881 -2884 3568 0
-2881 -2885 3569 0
-2881 -2886 3570 0
-2881 -2887 3571 0
-2881 -2888 3572 0
-2881 -2889 3573 0
-2898 3574 0
-2899 3575 0
-2900 3576 0
-2901 3577 0
-2902 3578 0
-2903 3579 0
-2904 3580 0
-2905 3581 0
-2890 3574 0
-2891 3575 0
-2892 3576 0
-2893 3577 0
-2894 3578 0
-2895 3579 0
-2896 3580 0
-2897 3581 0
-2890 -2898 3575 0
-2890 -2899 3576 0
-2890 -2900 3577 0
-2890 -2901 3578 0
-2890 -2902 3579 0
-2890 -2903 3580 0
-2890 -2904 3581 0
-2890 -2905 3582 0
-2891 -2898 3576 0
-2891 -2899 3577 0
-2891 -2900 3578 0
-2891 -2901 3579 0
-2891 -2902 3580 0
-2891 -2903 3581 0
-2891 -2904 3582 0
-2891 -2905 3583 0
-2892 -2898 3577 0
-2892 -2899 3578 0
-2892 -2900 3579 0
-2892 -2901 3580 0
-2892 -2902 3581 0
-2892 -2903 3582 0
-2892 -2904 3583 0
-2892 -2905 3584 0
-2893 -2898 3578 0
-2893 -2899 3579 0
-2893 -2900 3580 0
-2893 -2901 3581 0
-2893 -2902 3582 0
-2893 -2903 3583 0
-2893 -2904 3584 0
-2893 -2905 3585 0
-2894 -2898 3579 0
-2894 -2899 3580 0
-2894 -2900 3581 0
-2894 -2901 3582 0
-2894 -2902 3583 0
-2894 -2903 3584 0
-2894 -2904 3585 0
-2894 -2905 3586 0
-2895 -2898 3580 0
-2895 -2899 3581 0
-2895 -2900 3582 0
-2895 -2901 3583 0
-2895 -2902 3584 0
-2895 -2903 3585 0
-2895 -2904 3586 0
-2895 -2905 3587 0
-2896 -2898 3581 0
-2896 -2899 3582 0
-2896 -2900 3583 0
-2896 -2901 3584 0
-2896 -2902 3585 0
-2896 -2903 3586 0
-2896 -2904 3587 0
-2896 -2905 3588 0
-2897 -2898 3582 0
-2897 -2899 3583 0
-2897 -2900 3584 0
-2897 -2901 3585 0
-2897 -2902 3586 0
-2897 -2903 3587 0
-2897 -2904 3588 0
-2897 -2905 3589 0
-2914 3590 0
-2915 3591 0
-2916 3592 0
-2917 3593 0
-2918 3594 0
-2919 3595 0
-2920 3596 0
-2921 3597 0
-2906 3590 0
-2907 3591 0
-2908 3592 0
-2909 3593 0
-2910 3594 0
-2911 3595 0
-2912 3596 0
-2913 3597 0
-2906 -2914 3591 0
-2906 -2915 3592 0
-2906 -2916 3593 0
-2906 -2917 3594 0
-2906 -2918 3595 0
-2906 -2919 3596 0
-2906 -2920 3597 0
-2906 -2921 3598 0
-2907 -2914 3592 0
-2907 -2915 3593 0
-2907 -2916 3594 0
-2907 -2917 3595 0
-2907 -2918 3596 0
-2907 -2919 3597 0
-2907 -2920 3598 0
-2907 -2921 3599 0
-2908 -2914 3593 0
-2908 -2915 3594 0
-2908 -2916 3595 0
-2908 -2917 3596 0
-2908 -2918 3597 0
-2908 -2919 3598 0
-2908 -2920 3599 0
-2908 -2921 3600 0
-2909 -2914 3594 0
-2909 -2915 3595 0
-2909 -2916 3596 0
-2909 -2917 3597 0
-2909 -2918 3598 0
-2909 -2919 3599 0
-2909 -2920 3600 0
-2909 -2921 3601 0
-2910 -2914 3595 0
-2910 -2915 3596 0
-2910 -2916 3597 0
-2910 -2917 3598 0
-2910 -2918 3599 0
-2910 -2919 3600 0
-2910 -2920 3601 0
-2910 -2921 3602 0
-2911 -2914 3596 0
-2911 -2915 3597 0
-2911 -2916 3598 0
-2911 -2917 3599 0
-2911 -2918 3600 0
-2911 -2919 3601 0
-2911 -2920 3602 0
-2911 -2921 3603 0
-2912 -2914 3597 0
-2912 -2915 3598 0
-2912 -2916 3599 0
-2912 -2917 3600 0
-2912 -2918 3601 0
-2912 -2919 3602 0
-2912 -2920 3603 0
-2912 -2921 3604 0
-2913 -2914 3598 0
-2913 -2915 3599 0
-2913 -2916 3600 0
-2913 -2917 3601 0
-2913 -2918 3602 0
-2913 -2919 3603 0
-2913 -2920 3604 0
-2913 -2921 3605 0
-2930 3606 0
-2931 3607 0
-2932 3608 0
-2933 3609 0
-2934 3610 0
-2935 3611 0
-2936 3612 0
-2937 3613 0
-2922 3606 0
-2923 3607 0
-2924 3608 0
-2925 3609 0
-2926 3610 0
-2927 3611 0
-2928 3612 0
-2929 3613 0
-2922 -2930 3607 0
-2922 -2931 3608 0
-2922 -2932 3609 0
-2922 -2933 3610 0
-2922 -2934 3611 0
-2922 -2935 3612 0
-2922 -2936 3613 0
-2922 -2937 3614 0
-2923 -2930 3608 0
-2923 -2931 3609 0
-2923 -2932 3610 0
-2923 -2933 3611 0
-2923 -2934 3612 0
-2923 -2935 3613 0
-2923 -2936 3614 0
-2923 -2937 3615 0
-2924 -2930 3609 0
-2924 -2931 3610 0
-2924 -2932 3611 0
-2924 -2933 3612 0
-2924 -2934 3613 0
-2924 -2935 3614 0
-2924 -2936 3615 0
-2924 -2937 3616 0
-2925 -2930 3610 0
-2925 -2931 3611 0
-2925 -2932 3612 0
-2925 -2933 3613 0
-2925 -2934 3614 0
-2925 -2935 3615 0
-2925 -2936 3616 0
-2925 -2937 3617 0
-2926 -2930 3611 0
-2926 -2931 3612 0
-2926 -2932 3613 0
-2926 -2933 3614 0
-2926 -2934 3615 0
-2926 -2935 3616 0
-2926 -2936 3617 0
-2926 -2937 3618 0
-2927 -2930 3612 0
-2927 -2931 3613 0
-2927 -2932 3614 0
-2927 -2933 3615 0
-2927 -2934 3616 0
-2927 -2935 3617 0
-2927 -2936 3618 0
-2927 -2937 3619 0
-2928 -2930 3613 0
-2928 -2931 3614 0
-2928 -2932 3615 0
-2928 -2933 3616 0
-2928 -2934 3617 0
-2928 -2935 3618 0
-2928 -2936 3619 0
-2928 -2937 3620 0
-2929 -2930 3614 0
-2929 -2931 3615 0
-2929 -2932 3616 0
-2929 -2933 3617 0
-2929 -2934 3618 0
-2929 -2935 3619 0
-2929 -2936 3620 0
-2929 -2937 3621 0
-2946 3622 0
-2947 3623 0
-2948 3624 0
-2949 3625 0
-2950 3626 0
-2951 3627 0
-2952 3628 0
-2953 3629 0
-2938 3622 0
-2939 3623 0
-2940 3624 0
-2941 3625 0
-2942 3626 0
-2943 3627 0
-2944 3628 0
-2945 3629 0
-2938 -2946 3623 0
-2938 -2947 3624 0
-2938 -2948 3625 0
-2938 -2949 3626 0
-2938 -2950 3627 0
-2938 -2951 3628 0
-2938 -2952 3629 0
-2938 -2953 3630 0
-2939 -2946 3624 0
-2939 -2947 3625 0
-2939 -2948 3626 0
-2939 -2949 3627 0
-2939 -2950 3628 0
-2939 -2951 3629 0
-2939 -2952 3630 0
-2939 -2953 3631 0
-2940 -2946 3625 0
-2940 -2947 3626 0
-2940 -2948 3627 0
-2940 -2949 3628 0
-2940 -2950 3629 0
-2940 -2951 3630 0
-2940 -2952 3631 0
-2940 -2953 3632 0
-2941 -2946 3626 0
-2941 -2947 3627 0
-2941 -2948 3628 0
-2941 -2949 3629 0
-2941 -2950 3630 0
-2941 -2951 3631 0
-2941 -2952 3632 0
-2941 -2953 3633 0
-2942 -2946 3627 0
-2942 -2947 3628 0
-2942 -2948 3629 0
-2942 -2949 3630 0
-2942 -2950 3631 0
-2942 -2951 3632 0
-2942 -2952 3633 0
-2942 -2953 3634 0
-2943 -2946 3628 0
-2943 -2947 3629 0
-2943 -2948 3630 0
-2943 -2949 3631 0
-2943 -2950 3632 0
-2943 -2951 3633 0
-2943 -2952 3634 0
-2943 -2953 3635 0
-2944 -2946 3629 0
-2944 -2947 3630 0
-2944 -2948 3631 0
-2944 -2949 3632 0
-2944 -2950 3633 0
-2944 -2951 3634 0
-2944 -2952 3635 0
-2944 -2953 3636 0
-2945 -2946 3630 0
-2945 -2947 3631 0
-2945 -2948 3632 0
-2945 -2949 3633 0
-2945 -2950 3634 0
-2945 -2951 3635 0
-2945 -2952 3636 0
-2945 -2953 3637 0
-2962 3638 0
-2963 3639 0
-2964 3640 0
-2965 3641 0
-2966 3642 0
-2967 3643 0
-2968 3644 0
-2969 3645 0
-2954 3638 0
-2955 3639 0
-2956 3640 0
-2957 3641 0
-2958 3642 0
-2959 3643 0
-2960 3644 0
-2961 3645 0
-2954 -2962 3639 0
-2954 -2963 3640 0
-2954 -2964 3641 0
-2954 -2965 3642 0
-2954 -2966 3643 0
-2954 -2967 3644 0
-2954 -2968 3645 0
-2954 -2969 3646 0
-2955 -2962 3640 0
-2955 -2963 3641 0
-2955 -2964 3642 0
-2955 -2965 3643 0
-2955 -2966 3644 0
-2955 -2967 3645 0
-2955 -2968 3646 0
-2955 -2969 3647 0
-2956 -2962 3641 0
-2956 -2963 3642 0
-2956 -2964 3643 0
-2956 -2965 3644 0
-2956 -2966 3645 0
-2956 -2967 3646 0
-2956 -2968 3647 0
-2956 -2969 3648 0
-2957 -2962 3642 0
-2957 -2963 3643 0
-2957 -2964 3644 0
-2957 -2965 3645 0
-2957 -2966 3646 0
-2957 -2967 3647 0
-2957 -2968 3648 0
-2957 -2969 3649 0
-2958 -2962 3643 0
-2958 -2963 3644 0
-2958 -2964 3645 0
-2958 -2965 3646 0
-2958 -2966 3647 0
-2958 -2967 3648 0
-2958 -2968 3649 0
-2958 -2969 3650 0
-2959 -2962 3644 0
-2959 -2963 3645 0
-2959 -2964 3646 0
-2959 -2965 3647 0
-2959 -2966 3648 0
-2959 -2967 3649 0
-2959 -2968 3650 0
-2959 -2969 3651 0
-2960 -2962 3645 0
-2960 -2963 3646 0
-2960 -2964 3647 0
-2960 -2965 3648 0
-2960 -2966 3649 0
-2960 -2967 3650 0
-2960 -2968 3651 0
-2960 -2969 3652 0
-2961 -2962 3646 0
-2961 -2963 3647 0
-2961 -2964 3648 0
-2961 -2965 3649 0
-2961 -2966 3650 0
-2961 -2967 3651 0
-2961 -2968 3652 0
-2961 -2969 3653 0
-2978 3654 0
-2979 3655 0
-2980 3656 0
-2981 3657 0
-2982 3658 0
-2983 3659 0
-2984 3660 0
-2985 3661 0
-2970 3654 0
-2971 3655 0
-2972 3656 0
-2973 3657 0
-2974 3658 0
-2975 3659 0
-2976 3660 0
-2977 3661 0
-2970 -2978 3655 0
-2970 -2979 3656 0
-2970 -2980 3657 0
-2970 -2981 3658 0
-2970 -2982 3659 0
-2970 -2983 3660 0
-2970 -2984 3661 0
-2970 -2985 3662 0
-2971 -2978 3656 0
-2971 -2979 3657 0
-2971 -2980 3658 0
-2971 -2981 3659 0
-2971 -2982 3660 0
-2971 -2983 3661 0
-2971 -2984 3662 0
-2971 -2985 3663 0
-2972 -2978 3657 0
-2972 -2979 3658 0
-2972 -2980 3659 0
-2972 -2981 3660 0
-2972 -2982 3661 0
-2972 -2983 3662 0
-2972 -2984 3663 0
-2972 -2985 3664 0
-2973 -2978 3658 0
-2973 -2979 3659 0
-2973 -2980 3660 0
-2973 -2981 3661 0
-2973 -2982 3662 0
-2973 -2983 3663 0
-2973 -2984 3664 0
-2973 -2985 3665 0
-2974 -2978 3659 0
-2974 -2979 3660 0
-2974 -2980 3661 0
-2974 -2981 3662 0
-2974 -2982 3663 0
-2974 -2983 3664 0
-2974 -2984 3665 0
-2974 -2985 3666 0
-2975 -2978 3660 0
-2975 -2979 3661 0
-2975 -2980 3662 0
-2975 -2981 3663 0
-2975 -2982 3664 0
-2975 -2983 3665 0
-2975 -2984 3666 0
-2975 -2985 3667 0
-2976 -2978 3661 0
-2976 -2979 3662 0
-2976 -2980 3663 0
-2976 -2981 3664 0
-2976 -2982 3665 0
-2976 -2983 3666 0
-2976 -2984 3667 0
-2976 -2985 3668 0
-2977 -2978 3662 0
-2977 -2979 3663 0
-2977 -2980 3664 0
-2977 -2981 3665 0
-2977 -2982 3666 0
-2977 -2983 3667 0
-2977 -2984 3668 0
-2977 -2985 3669 0
-2994 3670 0
-2995 3671 0
-2996 3672 0
-2997 3673 0
-2998 3674 0
-2999 3675 0
-3000 3676 0
-3001 3677 0
-2986 3670 0
-2987 3671 0
-2988 3672 0
-2989 3673 0
-2990 3674 0
-2991 3675 0
-2992 3676 0
-2993 3677 0
-2986 -2994 3671 0
-2986 -2995 3672 0
-2986 -2996 3673 0
-2986 -2997 3674 0
-2986 -2998 3675 0
-2986 -2999 3676 0
-2986 -3000 3677 0
-2986 -3001 3678 0
-2987 -2994 3672 0
-2987 -2995 3673 0
-2987 -2996 3674 0
-2987 -2997 3675 0
-2987 -2998 3676 0
-2987 -2999 3677 0
-2987 -3000 3678 0
-2987 -3001 3679 0
-2988 -2994 3673 0
-2988 -2995 3674 0
-2988 -2996 3675 0
-2988 -2997 3676 0
-2988 -2998 3677 0
-2988 -2999 3678 0
-2988 -3000 3679 0
-2988 -3001 3680 0
-2989 -2994 3674 0
-2989 -2995 3675 0
-2989 -2996 3676 0
-2989 -2997 3677 0
-2989 -2998 3678 0
-2989 -2999 3679 0
-2989 -3000 3680 0
-2989 -3001 3681 0
-2990 -2994 3675 0
-2990 -2995 3676 0
-2990 -2996 3677 0
-2990 -2997 3678 0
-2990 -2998 3679 0
-2990 -2999 3680 0
-2990 -3000 3681 0
-2990 -3001 3682 0
-2991 -2994 3676 0
-2991 -2995 3677 0
-2991 -2996 3678 0
-2991 -2997 3679 0
-2991 -2998 3680 0
-2991 -2999 3681 0
-2991 -3000 3682 0
-2991 -3001 3683 0
-2992 -2994 3677 0
-2992 -2995 3678 0
-2992 -2996 3679 0
-2992 -2997 3680 0
-2992 -2998 3681 0
-2992 -2999 3682 0
-2992 -3000 3683 0
-2992 -3001 3684 0
-2993 -2994 3678 0
-2993 -2995 3679 0
-2993 -2996 3680 0
-2993 -2997 3681 0
-2993 -2998 3682 0
-2993 -2999 3683 0
-2993 -3000 3684 0
-2993 -3001 3685 0
-3010 3686 0
-3011 3687 0
-3012 3688 0
-3013 3689 0
-3014 3690 0
-3015 3691 0
-3016 3692 0
-3017 3693 0
-3002 3686 0
-3003 3687 0
-3004 3688 0
-3005 3689 0
-3006 3690 0
-3007 3691 0
-3008 3692 0
-3009 3693 0
-3002 -3010 3687 0
-3002 -3011 3688 0
-3002 -3012 3689 0
-3002 -3013 3690 0
-3002 -3014 3691 0
-3002 -3015 3692 0
-3002 -3016 3693 0
-3002 -3017 3694 0
-3003 -3010 3688 0
-3003 -3011 3689 0
-3003 -3012 3690 0
-3003 -3013 3691 0
-3003 -3014 3692 0
-3003 -3015 3693 0
-3003 -3016 3694 0
-3003 -3017 3695 0
-3004 -3010 3689 0
-3004 -3011 3690 0
-3004 -3012 3691 0
-3004 -3013 3692 0
-3004 -3014 3693 0
-3004 -3015 3694 0
-3004 -3016 3695 0
-3004 -3017 3696 0
-3005 -3010 3690 0
-3005 -3011 3691 0
-3005 -3012 3692 0
-3005 -3013 3693 0
-3005 -3014 3694 0
-3005 -3015 3695 0
-3005 -3016 3696 0
-3005 -3017 3697 0
-3006 -3010 3691 0
-3006 -3011 3692 0
-3006 -3012 3693 0
-3006 -3013 3694 0
-3006 -3014 3695 0
-3006 -3015 3696 0
-3006 -3016 3697 0
-3006 -3017 3698 0
-3007 -3010 3692 0
-3007 -3011 3693 0
-3007 -3012 3694 0
-3007 -3013 3695 0
-3007 -3014 3696 0
-3007 -3015 3697 0
-3007 -3016 3698 0
-3007 -3017 3699 0
-3008 -3010 3693 0
-3008 -3011 3694 0
-3008 -3012 3695 0
-3008 -3013 3696 0
-3008 -3014 3697 0
-3008 -3015 3698 0
-3008 -3016 3699 0
-3008 -3017 3700 0
-3009 -3010 3694 0
-3009 -3011 3695 0
-3009 -3012 3696 0
-3009 -3013 3697 0
-3009 -3014 3698 0
-3009 -3015 3699 0
-3009 -3016 3700 0
-3009 -3017 3701 0
-3026 3702 0
-3027 3703 0
-3028 3704 0
-3029 3705 0
-3030 3706 0
-3031 3707 0
-3032 3708 0
-3033 3709 0
-3018 3702 0
-3019 3703 0
-3020 3704 0
-3021 3705 0
-3022 3706 0
-3023 3707 0
-3024 3708 0
-3025 3709 0
-3018 -3026 3703 0
-3018 -3027 3704 0
-3018 -3028 3705 0
-3018 -3029 3706 0
-3018 -3030 3707 0
-3018 -3031 3708 0
-3018 -3032 3709 0
-3018 -3033 3710 0
-3019 -3026 3704 0
-3019 -3027 3705 0
-3019 -3028 3706 0
-3019 -3029 3707 0
-3019 -3030 3708 0
-3019 -3031 3709 0
-3019 -3032 3710 0
-3019 -3033 3711 0
-3020 -3026 3705 0
-3020 -3027 3706 0
-3020 -3028 3707 0
-3020 -3029 3708 0
-3020 -3030 3709 0
-3020 -3031 3710 0
-3020 -3032 3711 0
-3020 -3033 3712 0
-3021 -3026 3706 0
-3021 -3027 3707 0
-3021 -3028 3708 0
-3021 -3029 3709 0
-3021 -3030 3710 0
-3021 -3031 3711 0
-3021 -3032 3712 0
-3021 -3033 3713 0
-3022 -3026 3707 0
-3022 -3027 3708 0
-3022 -3028 3709 0
-3022 -3029 3710 0
-3022 -3030 3711 0
-3022 -3031 3712 0
-3022 -3032 3713 0
-3022 -3033 3714 0
-3023 -3026 3708 0
-3023 -3027 3709 0
-3023 -3028 3710 0
-3023 -3029 3711 0
-3023 -3030 3712 0
-3023 -3031 3713 0
-3023 -3032 3714 0
-3023 -3033 3715 0
-3024 -3026 3709 0
-3024 -3027 3710 0
-3024 -3028 3711 0
-3024 -3029 3712 0
-3024 -3030 3713 0
-3024 -3031 3714 0
-3024 -3032 3715 0
-3024 -3033 3716 0
-3025 -3026 3710 0
-3025 -3027 3711 0
-3025 -3028 3712 0
-3025 -3029 3713 0
-3025 -3030 3714 0
-3025 -3031 3715 0
-3025 -3032 3716 0
-3025 -3033 3717 0
-3042 3718 0
-3043 3719 0
-3044 3720 0
-3045 3721 0
-3046 3722 0
-3047 3723 0
-3048 3724 0
-3049 3725 0
-3034 3718 0
-3035 3719 0
-3036 3720 0
-3037 3721 0
-3038 3722 0
-3039 3723 0
-3040 3724 0
-3041 3725 0
-3034 -3042 3719 0
-3034 -3043 3720 0
-3034 -3044 3721 0
-3034 -3045 3722 0
-3034 -3046 3723 0
-3034 -3047 3724 0
-3034 -3048 3725 0
-3034 -3049 3726 0
-3035 -3042 3720 0
-3035 -3043 3721 0
-3035 -3044 3722 0
-3035 -3045 3723 0
-3035 -3046 3724 0
-3035 -3047 3725 0
-3035 -3048 3726 0
-3035 -3049 3727 0
-3036 -3042 3721 0
-3036 -3043 3722 0
-3036 -3044 3723 0
-3036 -3045 3724 0
-3036 -3046 3725 0
-3036 -3047 3726 0
-3036 -3048 3727 0
-3036 -3049 3728 0
-3037 -3042 3722 0
-3037 -3043 3723 0
-3037 -3044 3724 0
-3037 -3045 3725 0
-3037 -3046 3726 0
-3037 -3047 3727 0
-3037 -3048 3728 0
-3037 -3049 3729 0
-3038 -3042 3723 0
-3038 -3043 3724 0
-3038 -3044 3725 0
-3038 -3045 3726 0
-3038 -3046 3727 0
-3038 -3047 3728 0
-3038 -3048 3729 0
-3038 -3049 3730 0
-3039 -3042 3724 0
-3039 -3043 3725 0
-3039 -3044 3726 0
-3039 -3045 3727 0
-3039 -3046 3728 0
-3039 -3047 3729 0
-3039 -3048 3730 0
-3039 -3049 3731 0
-3040 -3042 3725 0
-3040 -3043 3726 0
-3040 -3044 3727 0
-3040 -3045 3728 0
-3040 -3046 3729 0
-3040 -3047 3730 0
-3040 -3048 3731 0
-3040 -3049 3732 0
-3041 -3042 3726 0
-3041 -3043 3727 0
-3041 -3044 3728 0
-3041 -3045 3729 0
-3041 -3046 3730 0
-3041 -3047 3731 0
-3041 -3048 3732 0
-3041 -3049 3733 0
-3058 3734 0
-3059 3735 0
-3060 3736 0
-3061 3737 0
-3062 3738 0
-3063 3739 0
-3064 3740 0
-3065 3741 0
-3050 3734 0
-3051 3735 0
-3052 3736 0
-3053 3737 0
-3054 3738 0
-3055 3739 0
-3056 3740 0
-3057 3741 0
-3050 -3058 3735 0
-3050 -3059 3736 0
-3050 -3060 3737 0
-3050 -3061 3738 0
-3050 -3062 3739 0
-3050 -3063 3740 0
-3050 -3064 3741 0
-3050 -3065 3742 0
-3051 -3058 3736 0
-3051 -3059 3737 0
-3051 -3060 3738 0
-3051 -3061 3739 0
-3051 -3062 3740 0
-3051 -3063 3741 0
-3051 -3064 3742 0
-3051 -3065 3743 0
-3052 -3058 3737 0
-3052 -3059 3738 0
-3052 -3060 3739 0
-3052 -3061 3740 0
-3052 -3062 3741 0
-3052 -3063 3742 0
-3052 -3064 3743 0
-3052 -3065 3744 0
-3053 -3058 3738 0
-3053 -3059 3739 0
-3053 -3060 3740 0
-3053 -3061 3741 0
-3053 -3062 3742 0
-3053 -3063 3743 0
-3053 -3064 3744 0
-3053 -3065 3745 0
-3054 -3058 3739 0
-3054 -3059 3740 0
-3054 -3060 3741 0
-3054 -3061 3742 0
-3054 -3062 3743 0
-3054 -3063 3744 0
-3054 -3064 3745 0
-3054 -3065 3746 0
-3055 -3058 3740 0
-3055 -3059 3741 0
-3055 -3060 3742 0
-3055 -3061 3743 0
-3055 -3062 3744 0
-3055 -3063 3745 0
-3055 -3064 3746 0
-3055 -3065 3747 0
-3056 -3058 3741 0
-3056 -3059 3742 0
-3056 -3060 3743 0
-3056 -3061 3744 0
-3056 -3062 3745 0
-3056 -3063 3746 0
-3056 -3064 3747 0
-3056 -3065 3748 0
-3057 -3058 3742 0
-3057 -3059 3743 0
-3057 -3060 3744 0
-3057 -3061 3745 0
-3057 -3062 3746 0
-3057 -3063 3747 0
-3057 -3064 3748 0
-3057 -3065 3749 0
-3074 3750 0
-3075 3751 0
-3076 3752 0
-3077 3753 0
-3078 3754 0
-3079 3755 0
-3080 3756 0
-3081 3757 0
-3066 3750 0
-3067 3751 0
-3068 3752 0
-3069 3753 0
-3070 3754 0
-3071 3755 0
-3072 3756 0
-3073 3757 0
-3066 -3074 3751 0
-3066 -3075 3752 0
-3066 -3076 3753 0
-3066 -3077 3754 0
-3066 -3078 3755 0
-3066 -3079 3756 0
-3066 -3080 3757 0
-3066 -3081 3758 0
-3067 -3074 3752 0
-3067 -3075 3753 0
-3067 -3076 3754 0
-3067 -3077 3755 0
-3067 -3078 3756 0
-3067 -3079 3757 0
-3067 -3080 3758 0
-3067 -3081 3759 0
-3068 -3074 3753 0
-3068 -3075 3754 0
-3068 -3076 3755 0
-3068 -3077 3756 0
-3068 -3078 3757 0
-3068 -3079 3758 0
-3068 -3080 3759 0
-3068 -3081 3760 0
-3069 -3074 3754 0
-3069 -3075 3755 0
-3069 -3076 3756 0
-3069 -3077 3757 0
-3069 -3078 3758 0
-3069 -3079 3759 0
-3069 -3080 3760 0
-3069 -3081 3761 0
-3070 -3074 3755 0
-3070 -3075 3756 0
-3070 -3076 3757 0
-3070 -3077 3758 0
-3070 -3078 3759 0
-3070 -3079 3760 0
-3070 -3080 3761 0
-3070 -3081 3762 0
-3071 -3074 3756 0
-3071 -3075 3757 0
-3071 -3076 3758 0
-3071 -3077 3759 0
-3071 -3078 3760 0
-3071 -3079 3761 0
-3071 -3080 3762 0
-3071 -3081 3763 0
-3072 -3074 3757 0
-3072 -3075 3758 0
-3072 -3076 3759 0
-3072 -3077 3760 0
-3072 -3078 3761 0
-3072 -3079 3762 0
-3072 -3080 3763 0
-3072 -3081 3764 0
-3073 -3074 3758 0
-3073 -3075 3759 0
-3073 -3076 3760 0
-3073 -3077 3761 0
-3073 -3078 3762 0
-3073 -3079 3763 0
-3073 -3080 3764 0
-3073 -3081 3765 0
-3090 3766 0
-3091 3767 0
-3092 3768 0
-3093 3769 0
-3094 3770 0
-3095 3771 0
-3096 3772 0
-3097 3773 0
-3082 3766 0
-3083 3767 0
-3084 3768 0
-3085 3769 0
-3086 3770 0
-3087 3771 0
-3088 3772 0
-3089 3773 0
-3082 -3090 3767 0
-3082 -3091 3768 0
-3082 -3092 3769 0
-3082 -3093 3770 0
-3082 -3094 3771 0
-3082 -3095 3772 0
-3082 -3096 3773 0
-3082 -3097 3774 0
-3083 -3090 3768 0
-3083 -3091 3769 0
-3083 -3092 3770 0
-3083 -3093 3771 0
-3083 -3094 3772 0
-3083 -3095 3773 0
-3083 -3096 3774 0
-3083 -3097 3775 0
-3084 -3090 3769 0
-3084 -3091 3770 0
-3084 -3092 3771 0
-3084 -3093 3772 0
-3084 -3094 3773 0
-3084 -3095 3774 0
-3084 -3096 3775 0
-3084 -3097 3776 0
-3085 -3090 3770 0
-3085 -3091 3771 0
-3085 -3092 3772 0
-3085 -3093 3773 0
-3085 -3094 3774 0
-3085 -3095 3775 0
-3085 -3096 3776 0
-3085 -3097 3777 0
-3086 -3090 3771 0
-3086 -3091 3772 0
-3086 -3092 3773 0
-3086 -3093 3774 0
-3086 -3094 3775 0
-3086 -3095 3776 0
-3086 -3096 3777 0
-3086 -3097 3778 0
-3087 -3090 3772 0
-3087 -3091 3773 0
-3087 -3092 3774 0
-3087 -3093 3775 0
-3087 -3094 3776 0
-3087 -3095 3777 0
-3087 -3096 3778 0
-3087 -3097 3779 0
-3088 -3090 3773 0
-3088 -3091 3774 0
-3088 -3092 3775 0
-3088 -3093 3776 0
-3088 -3094 3777 0
-3088 -3095 3778 0
-3088 -3096 3779 0
-3088 -3097 3780 0
-3089 -3090 3774 0
-3089 -3091 3775 0
-3089 -3092 3776 0
-3089 -3093 3777 0
-3089 -3094 3778 0
-3089 -3095 3779 0
-3089 -3096 3780 0
-3089 -3097 3781 0
-3106 3782 0
-3107 3783 0
-3108 3784 0
-3109 3785 0
-3110 3786 0
-3111 3787 0
-3112 3788 0
-3113 3789 0
-3098 3782 0
-3099 3783 0
-3100 3784 0
-3101 3785 0
-3102 3786 0
-3103 3787 0
-3104 3788 0
-3105 3789 0
-3098 -3106 3783 0
-3098 -3107 3784 0
-3098 -3108 3785 0
-3098 -3109 3786 0
-3098 -3110 3787 0
-3098 -3111 3788 0
-3098 -3112 3789 0
-3098 -3113 3790 0
-3099 -3106 3784 0
-3099 -3107 3785 0
-3099 -3108 3786 0
-3099 -3109 3787 0
-3099 -3110 3788 0
-3099 -3111 3789 0
-3099 -3112 3790 0
-3099 -3113 3791 0
-3100 -3106 3785 0
-3100 -3107 3786 0
-3100 -3108 3787 0
-3100 -3109 3788 0
-3100 -3110 3789 0
-3100 -3111 3790 0
-3100 -3112 3791 0
-3100 -3113 3792 0
-3101 -3106 3786 0
-3101 -3107 3787 0
-3101 -3108 3788 0
-3101 -3109 3789 0
-3101 -3110 3790 0
-3101 -3111 3791 0
-3101 -3112 3792 0
-3101 -3113 3793 0
-3102 -3106 3787 0
-3102 -3107 3788 0
-3102 -3108 3789 0
-3102 -3109 3790 0
-3102 -3110 3791 0
-3102 -3111 3792 0
-3102 -3112 3793 0
-3102 -3113 3794 0
-3103 -3106 3788 0
-3103 -3107 3789 0
-3103 -3108 3790 0
-3103 -3109 3791 0
-3103 -3110 3792 0
-3103 -3111 3793 0
-3103 -3112 3794 0
-3103 -3113 3795 0
-3104 -3106 3789 0
-3104 -3107 3790 0
-3104 -3108 3791 0
-3104 -3109 3792 0
-3104 -3110 3793 0
-3104 -3111 3794 0
-3104 -3112 3795 0
-3104 -3113 3796 0
-3105 -3106 3790 0
-3105 -3107 3791 0
-3105 -3108 3792 0
-3105 -3109 3793 0
-3105 -3110 3794 0
-3105 -3111 3795 0
-3105 -3112 3796 0
-3105 -3113 3797 0
-3122 3798 0
-3123 3799 0
-3124 3800 0
-3125 3801 0
-3126 3802 0
-3127 3803 0
-3128 3804 0
-3129 3805 0
-3114 3798 0
-3115 3799 0
-3116 3800 0
-3117 3801 0
-3118 3802 0
-3119 3803 0
-3120 3804 0
-3121 3805 0
-3114 -3122 3799 0
-3114 -3123 3800 0
-3114 -3124 3801 0
-3114 -3125 3802 0
-3114 -3126 3803 0
-3114 -3127 3804 0
-3114 -3128 3805 0
-3114 -3129 3806 0
-3115 -3122 3800 0
-3115 -3123 3801 0
-3115 -3124 3802 0
-3115 -3125 3803 0
-3115 -3126 3804 0
-3115 -3127 3805 0
-3115 -3128 3806 0
-3115 -3129 3807 0
-3116 -3122 3801 0
-3116 -3123 3802 0
-3116 -3124 3803 0
-3116 -3125 3804 0
-3116 -3126 3805 0
-3116 -3127 3806 0
-3116 -3128 3807 0
-3116 -3129 3808 0
-3117 -3122 3802 0
-3117 -3123 3803 0
-3117 -3124 3804 0
-3117 -3125 3805 0
-3117 -3126 3806 0
-3117 -3127 3807 0
-3117 -3128 3808 0
-3117 -3129 3809 0
-3118 -3122 3803 0
-3118 -3123 3804 0
-3118 -3124 3805 0
-3118 -3125 3806 0
-3118 -3126 3807 0
-3118 -3127 3808 0
-3118 -3128 3809 0
-3118 -3129 3810 0
-3119 -3122 3804 0
-3119 -3123 3805 0
-3119 -3124 3806 0
-3119 -3125 3807 0
-3119 -3126 3808 0
-3119 -3127 3809 0
-3119 -3128 3810 0
-3119 -3129 3811 0
-3120 -3122 3805 0
-3120 -3123 3806 0
-3120 -3124 3807 0
-3120 -3125 3808 0
-3120 -3126 3809 0
-3120 -3127 3810 0
-3120 -3128 3811 0
-3120 -3129 3812 0
-3121 -3122 3806 0
-3121 -3123 3807 0
-3121 -3124 3808 0
-3121 -3125 3809 0
-3121 -3126 3810 0
-3121 -3127 3811 0
-3121 -3128 3812 0
-3121 -3129 3813 0
-3138 3814 0
-3139 3815 0
-3140 3816 0
-3141 3817 0
-3142 3818 0
-3143 3819 0
-3144 3820 0
-3145 3821 0
-3130 3814 0
-3131 3815 0
-3132 3816 0
-3133 3817 0
-3134 3818 0
-3135 3819 0
-3136 3820 0
-3137 3821 0
-3130 -3138 3815 0
-3130 -3139 3816 0
-3130 -3140 3817 0
-3130 -3141 3818 0
-3130 -3142 3819 0
-3130 -3143 3820 0
-3130 -3144 3821 0
-3130 -3145 3822 0
-3131 -3138 3816 0
-3131 -3139 3817 0
-3131 -3140 3818 0
-3131 -3141 3819 0
-3131 -3142 3820 0
-3131 -3143 3821 0
-3131 -3144 3822 0
-3131 -3145 3823 0
-3132 -3138 3817 0
-3132 -3139 3818 0
-3132 -3140 3819 0
-3132 -3141 3820 0
-3132 -3142 3821 0
-3132 -3143 3822 0
-3132 -3144 3823 0
-3132 -3145 3824 0
-3133 -3138 3818 0
-3133 -3139 3819 0
-3133 -3140 3820 0
-3133 -3141 3821 0
-3133 -3142 3822 0
-3133 -3143 3823 0
-3133 -3144 3824 0
-3133 -3145 3825 0
-3134 -3138 3819 0
-3134 -3139 3820 0
-3134 -3140 3821 0
-3134 -3141 3822 0
-3134 -3142 3823 0
-3134 -3143 3824 0
-3134 -3144 3825 0
-3134 -3145 3826 0
-3135 -3138 3820 0
-3135 -3139 3821 0
-3135 -3140 3822 0
-3135 -3141 3823 0
-3135 -3142 3824 0
-3135 -3143 3825 0
-3135 -3144 3826 0
-3135 -3145 3827 0
-3136 -3138 3821 0
-3136 -3139 3822 0
-3136 -3140 3823 0
-3136 -3141 3824 0
-3136 -3142 3825 0
-3136 -3143 3826 0
-3136 -3144 3827 0
-3136 -3145 3828 0
-3137 -3138 3822 0
-3137 -3139 3823 0
-3137 -3140 3824 0
-3137 -3141 3825 0
-3137 -3142 3826 0
-3137 -3143 3827 0
-3137 -3144 3828 0
-3137 -3145 3829 0
-3154 3830 0
-3155 3831 0
-3156 3832 0
-3157 3833 0
-3158 3834 0
-3159 3835 0
-3160 3836 0
-3161 3837 0
-3146 3830 0
-3147 3831 0
-3148 3832 0
-3149 3833 0
-3150 3834 0
-3151 3835 0
-3152 3836 0
-3153 3837 0
-3146 -3154 3831 0
-3146 -3155 3832 0
-3146 -3156 3833 0
-3146 -3157 3834 0
-3146 -3158 3835 0
-3146 -3159 3836 0
-3146 -3160 3837 0
-3146 -3161 3838 0
-3147 -3154 3832 0
-3147 -3155 3833 0
-3147 -3156 3834 0
-3147 -3157 3835 0
-3147 -3158 3836 0
-3147 -3159 3837 0
-3147 -3160 3838 0
-3147 -3161 3839 0
-3148 -3154 3833 0
-3148 -3155 3834 0
-3148 -3156 3835 0
-3148 -3157 3836 0
-3148 -3158 3837 0
-3148 -3159 3838 0
-3148 -3160 3839 0
-3148 -3161 3840 0
-3149 -3154 3834 0
-3149 -3155 3835 0
-3149 -3156 3836 0
-3149 -3157 3837 0
-3149 -3158 3838 0
-3149 -3159 3839 0
-3149 -3160 3840 0
-3149 -3161 3841 0
-3150 -3154 3835 0
-3150 -3155 3836 0
-3150 -3156 3837 0
-3150 -3157 3838 0
-3150 -3158 3839 0
-3150 -3159 3840 0
-3150 -3160 3841 0
-3150 -3161 3842 0
-3151 -3154 3836 0
-3151 -3155 3837 0
-3151 -3156 3838 0
-3151 -3157 3839 0
-3151 -3158 3840 0
-3151 -3159 3841 0
-3151 -3160 3842 0
-3151 -3161 3843 0
-3152 -3154 3837 0
-3152 -3155 3838 0
-3152 -3156 3839 0
-3152 -3157 3840 0
-3152 -3158 3841 0
-3152 -3159 3842 0
-3152 -3160 3843 0
-3152 -3161 3844 0
-3153 -3154 3838 0
-3153 -3155 3839 0
-3153 -3156 3840 0
-3153 -3157 3841 0
-3153 -3158 3842 0
-3153 -3159 3843 0
-3153 -3160 3844 0
-3153 -3161 3845 0
-3170 3846 0
-3171 3847 0
-3172 3848 0
-3173 3849 0
-3174 3850 0
-3175 3851 0
-3176 3852 0
-3177 3853 0
-3162 3846 0
-3163 3847 0
-3164 3848 0
-3165 3849 0
-3166 3850 0
-3167 3851 0
-3168 3852 0
-3169 3853 0
-3162 -3170 3847 0
-3162 -3171 3848 0
-3162 -3172 3849 0
-3162 -3173 3850 0
-3162 -3174 3851 0
-3162 -3175 3852 0
-3162 -3176 3853 0
-3162 -3177 3854 0
-3163 -3170 3848 0
-3163 -3171 3849 0
-3163 -3172 3850 0
-3163 -3173 3851 0
-3163 -3174 3852 0
-3163 -3175 3853 0
-3163 -3176 3854 0
-3163 -3177 3855 0
-3164 -3170 3849 0
-3164 -3171 3850 0
-3164 -3172 3851 0
-3164 -3173 3852 0
-3164 -3174 3853 0
-3164 -3175 3854 0
-3164 -3176 3855 0
-3164 -3177 3856 0
-3165 -3170 3850 0
-3165 -3171 3851 0
-3165 -3172 3852 0
-3165 -3173 3853 0
-3165 -3174 3854 0
-3165 -3175 3855 0
-3165 -3176 3856 0
-3165 -3177 3857 0
-3166 -3170 3851 0
-3166 -3171 3852 0
-3166 -3172 3853 0
-3166 -3173 3854 0
-3166 -3174 3855 0
-3166 -3175 3856 0
-3166 -3176 3857 0
-3166 -3177 3858 0
-3167 -3170 3852 0
-3167 -3171 3853 0
-3167 -3172 3854 0
-3167 -3173 3855 0
-3167 -3174 3856 0
-3167 -3175 3857 0
-3167 -3176 3858 0
-3167 -3177 3859 0
-3168 -3170 3853 0
-3168 -3171 3854 0
-3168 -3172 3855 0
-3168 -3173 3856 0
-3168 -3174 3857 0
-3168 -3175 3858 0
-3168 -3176 3859 0
-3168 -3177 3860 0
-3169 -3170 3854 0
-3169 -3171 3855 0
-3169 -3172 3856 0
-3169 -3173 3857 0
-3169 -3174 3858 0
-3169 -3175 3859 0
-3169 -3176 3860 0
-3169 -3177 3861 0
-3186 3862 0
-3187 3863 0
-3188 3864 0
-3189 3865 0
-3190 3866 0
-3191 3867 0
-3192 3868 0
-3193 3869 0
-3178 3862 0
-3179 3863 0
-3180 3864 0
-3181 3865 0
-3182 3866 0
-3183 3867 0
-3184 3868 0
-3185 3869 0
-3178 -3186 3863 0
-3178 -3187 3864 0
-3178 -3188 3865 0
-3178 -3189 3866 0
-3178 -3190 3867 0
-3178 -3191 3868 0
-3178 -3192 3869 0
-3178 -3193 3870 0
-3179 -3186 3864 0
-3179 -3187 3865 0
-3179 -3188 3866 0
-3179 -3189 3867 0
-3179 -3190 3868 0
-3179 -3191 3869 0
-3179 -3192 3870 0
-3179 -3193 3871 0
-3180 -3186 3865 0
-3180 -3187 3866 0
-3180 -3188 3867 0
-3180 -3189 3868 0
-3180 -3190 3869 0
-3180 -3191 3870 0
-3180 -3192 3871 0
-3180 -3193 3872 0
-3181 -3186 3866 0
-3181 -3187 3867 0
-3181 -3188 3868 0
-3181 -3189 3869 0
-3181 -3190 3870 0
-3181 -3191 3871 0
-3181 -3192 3872 0
-3181 -3193 3873 0
-3182 -3186 3867 0
-3182 -3187 3868 0
-3182 -3188 3869 0
-3182 -3189 3870 0
-3182 -3190 3871 0
-3182 -3191 3872 0
-3182 -3192 3873 0
-3182 -3193 3874 0
-3183 -3186 3868 0
-3183 -3187 3869 0
-3183 -3188 3870 0
-3183 -3189 3871 0
-3183 -3190 3872 0
-3183 -3191 3873 0
-3183 -3192 3874 0
-3183 -3193 3875 0
-3184 -3186 3869 0
-3184 -3187 3870 0
-3184 -3188 3871 0
-3184 -3189 3872 0
-3184 -3190 3873 0
-3184 -3191 3874 0
-3184 -3192 3875 0
-3184 -3193 3876 0
-3185 -3186 3870 0
-3185 -3187 3871 0
-3185 -3188 3872 0
-3185 -3189 3873 0
-3185 -3190 3874 0
-3185 -3191 3875 0
-3185 -3192 3876 0
-3185 -3193 3877 0
-3202 3878 0
-3203 3879 0
-3204 3880 0
-3205 3881 0
-3206 3882 0
-3207 3883 0
-3208 3884 0
-3209 3885 0
-3194 3878 0
-3195 3879 0
-3196 3880 0
-3197 3881 0
-3198 3882 0
-3199 3883 0
-3200 3884 0
-3201 3885 0
-3194 -3202 3879 0
-3194 -3203 3880 0
-3194 -3204 3881 0
-3194 -3205 3882 0
-3194 -3206 3883 0
-3194 -3207 3884 0
-3194 -3208 3885 0
-3194 -3209 3886 0
-3195 -3202 3880 0
-3195 -3203 3881 0
-3195 -3204 3882 0
-3195 -3205 3883 0
-3195 -3206 3884 0
-3195 -3207 3885 0
-3195 -3208 3886 0
-3195 -3209 3887 0
-3196 -3202 3881 0
-3196 -3203 3882 0
-3196 -3204 3883 0
-3196 -3205 3884 0
-3196 -3206 3885 0
-3196 -3207 3886 0
-3196 -3208 3887 0
-3196 -3209 3888 0
-3197 -3202 3882 0
-3197 -3203 3883 0
-3197 -3204 3884 0
-3197 -3205 3885 0
-3197 -3206 3886 0
-3197 -3207 3887 0
-3197 -3208 3888 0
-3197 -3209 3889 0
-3198 -3202 3883 0
-3198 -3203 3884 0
-3198 -3204 3885 0
-3198 -3205 3886 0
-3198 -3206 3887 0
-3198 -3207 3888 0
-3198 -3208 3889 0
-3198 -3209 3890 0
-3199 -3202 3884 0
-3199 -3203 3885 0
-3199 -3204 3886 0
-3199 -3205 3887 0
-3199 -3206 3888 0
-3199 -3207 3889 0
-3199 -3208 3890 0
-3199 -3209 3891 0
-3200 -3202 3885 0
-3200 -3203 3886 0
-3200 -3204 3887 0
-3200 -3205 3888 0
-3200 -3206 3889 0
-3200 -3207 3890 0
-3200 -3208 3891 0
-3200 -3209 3892 0
-3201 -3202 3886 0
-3201 -3203 3887 0
-3201 -3204 3888 0
-3201 -3205 3889 0
-3201 -3206 3890 0
-3201 -3207 3891 0
-3201 -3208 3892 0
-3201 -3209 3893 0
-3218 3894 0
-3219 3895 0
-3220 3896 0
-3221 3897 0
-3222 3898 0
-3223 3899 0
-3224 3900 0
-3225 3901 0
-3210 3894 0
-3211 3895 0
-3212 3896 0
-3213 3897 0
-3214 3898 0
-3215 3899 0
-3216 3900 0
-3217 3901 0
-3210 -3218 3895 0
-3210 -3219 3896 0
-3210 -3220 3897 0
-3210 -3221 3898 0
-3210 -3222 3899 0
-3210 -3223 3900 0
-3210 -3224 3901 0
-3210 -3225 3902 0
-3211 -3218 3896 0
-3211 -3219 3897 0
-3211 -3220 3898 0
-3211 -3221 3899 0
-3211 -3222 3900 0
-3211 -3223 3901 0
-3211 -3224 3902 0
-3211 -3225 3903 0
-3212 -3218 3897 0
-3212 -3219 3898 0
-3212 -3220 3899 0
-3212 -3221 3900 0
-3212 -3222 3901 0
-3212 -3223 3902 0
-3212 -3224 3903 0
-3212 -3225 3904 0
-3213 -3218 3898 0
-3213 -3219 3899 0
-3213 -3220 3900 0
-3213 -3221 3901 0
-3213 -3222 3902 0
-3213 -3223 3903 0
-3213 -3224 3904 0
-3213 -3225 3905 0
-3214 -3218 3899 0
-3214 -3219 3900 0
-3214 -3220 3901 0
-3214 -3221 3902 0
-3214 -3222 3903 0
-3214 -3223 3904 0
-3214 -3224 3905 0
-3214 -3225 3906 0
-3215 -3218 3900 0
-3215 -3219 3901 0
-3215 -3220 3902 0
-3215 -3221 3903 0
-3215 -3222 3904 0
-3215 -3223 3905 0
-3215 -3224 3906 0
-3215 -3225 3907 0
-3216 -3218 3901 0
-3216 -3219 3902 0
-3216 -3220 3903 0
-3216 -3221 3904 0
-3216 -3222 3905 0
-3216 -3223 3906 0
-3216 -3224 3907 0
-3216 -3225 3908 0
-3217 -3218 3902 0
-3217 -3219 3903 0
-3217 -3220 3904 0
-3217 -3221 3905 0
-3217 -3222 3906 0
-3217 -3223 3907 0
-3217 -3224 3908 0
-3217 -3225 3909 0
-3238 3910 0
-3239 3911 0
-3240 3912 0
-3241 3913 0
-3242 3914 0
-3243 3915 0
-3244 3916 0
-3245 3917 0
-3246 3918 0
-3247 3919 0
-3248 3920 0
-3249 3921 0
-3250 3922 0
-3251 3923 0
-3252 3924 0
-3253 3925 0
-3226 3910 0
-3227 3911 0
-3228 3912 0
-3229 3913 0
-3230 3914 0
-3231 3915 0
-3232 3916 0
-3233 3917 0
-3234 3918 0
-3235 3919 0
-3236 3920 0
-3237 3921 0
-3226 -3238 3911 0
-3226 -3239 3912 0
-3226 -3240 3913 0
-3226 -3241 3914 0
-3226 -3242 3915 0
-3226 -3243 3916 0
-3226 -3244 3917 0
-3226 -3245 3918 0
-3226 -3246 3919 0
-3226 -3247 3920 0
-3226 -3248 3921 0
-3226 -3249 3922 0
-3226 -3250 3923 0
-3226 -3251 3924 0
-3226 -3252 3925 0
-3227 -3238 3912 0
-3227 -3239 3913 0
-3227 -3240 3914 0
-3227 -3241 3915 0
-3227 -3242 3916 0
-3227 -3243 3917 0
-3227 -3244 3918 0
-3227 -3245 3919 0
-3227 -3246 3920 0
-3227 -3247 3921 0
-3227 -3248 3922 0
-3227 -3249 3923 0
-3227 -3250 3924 0
-3227 -3251 3925 0
-3228 -3238 3913 0
-3228 -3239 3914 0
-3228 -3240 3915 0
-3228 -3241 3916 0
-3228 -3242 3917 0
-3228 -3243 3918 0
-3228 -3244 3919 0
-3228 -3245 3920 0
-3228 -3246 3921 0
-3228 -3247 3922 0
-3228 -3248 3923 0
-3228 -3249 3924 0
-3228 -3250 3925 0
-3229 -3238 3914 0
-3229 -3239 3915 0
-3229 -3240 3916 0
-3229 -3241 3917 0
-3229 -3242 3918 0
-3229 -3243 3919 0
-3229 -3244 3920 0
-3229 -3245 3921 0
-3229 -3246 3922 0
-3229 -3247 3923 0
-3229 -3248 3924 0
-3229 -3249 3925 0
-3230 -3238 3915 0
-3230 -3239 3916 0
-3230 -3240 3917 0
-3230 -3241 3918 0
-3230 -3242 3919 0
-3230 -3243 3920 0
-3230 -3244 3921 0
-3230 -3245 3922 0
-3230 -3246 3923 0
-3230 -3247 3924 0
-3230 -3248 3925 0
-3231 -3238 3916 0
-3231 -3239 3917 0
-3231 -3240 3918 0
-3231 -3241 3919 0
-3231 -3242 3920 0
-3231 -3243 3921 0
-3231 -3244 3922 0
-3231 -3245 3923 0
-3231 -3246 3924 0
-3231 -3247 3925 0
-3232 -3238 3917 0
-3232 -3239 3918 0
-3232 -3240 3919 0
-3232 -3241 3920 0
-3232 -3242 3921 0
-3232 -3243 3922 0
-3232 -3244 3923 0
-3232 -3245 3924 0
-3232 -3246 3925 0
-3233 -3238 3918 0
-3233 -3239 3919 0
-3233 -3240 3920 0
-3233 -3241 3921 0
-3233 -3242 3922 0
-3233 -3243 3923 0
-3233 -3244 3924 0
-3233 -3245 3925 0
-3234 -3238 3919 0
-3234 -3239 3920 0
-3234 -3240 3921 0
-3234 -3241 3922 0
-3234 -3242 3923 0
-3234 -3243 3924 0
-3234 -3244 3925 0
-3235 -3238 3920 0
-3235 -3239 3921 0
-3235 -3240 3922 0
-3235 -3241 3923 0
-3235 -3242 3924 0
-3235 -3243 3925 0
-3236 -3238 3921 0
-3236 -3239 3922 0
-3236 -3240 3923 0
-3236 -3241 3924 0
-3236 -3242 3925 0
-3237 -3238 3922 0
-3237 -3239 3923 0
-3237 -3240 3924 0
-3237 -3241 3925 0
-3270 3926 0
-3271 3927 0
-3272 3928 0
-3273 3929 0
-3274 3930 0
-3275 3931 0
-3276 3932 0
-3277 3933 0
-3278 3934 0
-3279 3935 0
-3280 3936 0
-3281 3937 0
-3282 3938 0
-3283 3939 0
-3284 3940 0
-3285 3941 0
-3254 3926 0
-3255 3927 0
-3256 3928 0
-3257 3929 0
-3258 3930 0
-3259 3931 0
-3260 3932 0
-3261 3933 0
-3262 3934 0
-3263 3935 0
-3264 3936 0
-3265 3937 0
-3266 3938 0
-3267 3939 0
-3268 3940 0
-3269 3941 0
-3254 -3270 3927 0
-3254 -3271 3928 0
-3254 -3272 3929 0
-3254 -3273 3930 0
-3254 -3274 3931 0
-3254 -3275 3932 0
-3254 -3276 3933 0
-3254 -3277 3934 0
-3254 -3278 3935 0
-3254 -3279 3936 0
-3254 -3280 3937 0
-3254 -3281 3938 0
-3254 -3282 3939 0
-3254 -3283 3940 0
-3254 -3284 3941 0
-3255 -3270 3928 0
-3255 -3271 3929 0
-3255 -3272 3930 0
-3255 -3273 3931 0
-3255 -3274 3932 0
-3255 -3275 3933 0
-3255 -3276 3934 0
-3255 -3277 3935 0
-3255 -3278 3936 0
-3255 -3279 3937 0
-3255 -3280 3938 0
-3255 -3281 3939 0
-3255 -3282 3940 0
-3255 -3283 3941 0
-3256 -3270 3929 0
-3256 -3271 3930 0
-3256 -3272 3931 0
-3256 -3273 3932 0
-3256 -3274 3933 0
-3256 -3275 3934 0
-3256 -3276 3935 0
-3256 -3277 3936 0
-3256 -3278 3937 0
-3256 -3279 3938 0
-3256 -3280 3939 0
-3256 -3281 3940 0
-3256 -3282 3941 0
-3257 -3270 3930 0
-3257 -3271 3931 0
-3257 -3272 3932 0
-3257 -3273 3933 0
-3257 -3274 3934 0
-3257 -3275 3935 0
-3257 -3276 3936 0
-3257 -3277 3937 0
-3257 -3278 3938 0
-3257 -3279 3939 0
-3257 -3280 3940 0
-3257 -3281 3941 0
-3258 -3270 3931 0
-3258 -3271 3932 0
-3258 -3272 3933 0
-3258 -3273 3934 0
-3258 -3274 3935 0
-3258 -3275 3936 0
-3258 -3276 3937 0
-3258 -3277 3938 0
-3258 -3278 3939 0
-3258 -3279 3940 0
-3258 -3280 3941 0
-3259 -3270 3932 0
-3259 -3271 3933 0
-3259 -3272 3934 0
-3259 -3273 3935 0
-3259 -3274 3936 0
-3259 -3275 3937 0
-3259 -3276 3938 0
-3259 -3277 3939 0
-3259 -3278 3940 0
-3259 -3279 3941 0
-3260 -3270 3933 0
-3260 -3271 3934 0
-3260 -3272 3935 0
-3260 -3273 3936 0
-3260 -3274 3937 0
-3260 -3275 3938 0
-3260 -3276 3939 0
-3260 -3277 3940 0
-3260 -3278 3941 0
-3261 -3270 3934 0
-3261 -3271 3935 0
-3261 -3272 3936 0
-3261 -3273 3937 0
-3261 -3274 3938 0
-3261 -3275 3939 0
-3261 -3276 3940 0
-3261 -3277 3941 0
-3262 -3270 3935 0
-3262 -3271 3936 0
-3262 -3272 3937 0
-3262 -3273 3938 0
-3262 -3274 3939 0
-3262 -3275 3940 0
-3262 -3276 3941 0
-3263 -3270 3936 0
-3263 -3271 3937 0
-3263 -3272 3938 0
-3263 -3273 3939 0
-3263 -3274 3940 0
-3263 -3275 3941 0
-3264 -3270 3937 0
-3264 -3271 3938 0
-3264 -3272 3939 0
-3264 -3273 3940 0
-3264 -3274 3941 0
-3265 -3270 3938 0
-3265 -3271 3939 0
-3265 -3272 3940 0
-3265 -3273 3941 0
-3266 -3270 3939 0
-3266 -3271 3940 0
-3266 -3272 3941 0
-3267 -3270 3940 0
-3267 -3271 3941 0
-3268 -3270 3941 0
-3302 3942 0
-3303 3943 0
-3304 3944 0
-3305 3945 0
-3306 3946 0
-3307 3947 0
-3308 3948 0
-3309 3949 0
-3310 3950 0
-3311 3951 0
-3312 3952 0
-3313 3953 0
-3314 3954 0
-3315 3955 0
-3316 3956 0
-3317 3957 0
-3286 3942 0
-3287 3943 0
-3288 3944 0
-3289 3945 0
-3290 3946 0
-3291 3947 0
-3292 3948 0
-3293 3949 0
-3294 3950 0
-3295 3951 0
-3296 3952 0
-3297 3953 0
-3298 3954 0
-3299 3955 0
-3300 3956 0
-3301 3957 0
-3286 -3302 3943 0
-3286 -3303 3944 0
-3286 -3304 3945 0
-3286 -3305 3946 0
-3286 -3306 3947 0
-3286 -3307 3948 0
-3286 -3308 3949 0
-3286 -3309 3950 0
-3286 -3310 3951 0
-3286 -3311 3952 0
-3286 -3312 3953 0
-3286 -3313 3954 0
-3286 -3314 3955 0
-3286 -3315 3956 0
-3286 -3316 3957 0
-3287 -3302 3944 0
-3287 -3303 3945 0
-3287 -3304 3946 0
-3287 -3305 3947 0
-3287 -3306 3948 0
-3287 -3307 3949 0
-3287 -3308 3950 0
-3287 -3309 3951 0
-3287 -3310 3952 0
-3287 -3311 3953 0
-3287 -3312 3954 0
-3287 -3313 3955 0
-3287 -3314 3956 0
-3287 -3315 3957 0
-3288 -3302 3945 0
-3288 -3303 3946 0
-3288 -3304 3947 0
-3288 -3305 3948 0
-3288 -3306 3949 0
-3288 -3307 3950 0
-3288 -3308 3951 0
-3288 -3309 3952 0
-3288 -3310 3953 0
-3288 -3311 3954 0
-3288 -3312 3955 0
-3288 -3313 3956 0
-3288 -3314 3957 0
-3289 -3302 3946 0
-3289 -3303 3947 0
-3289 -3304 3948 0
-3289 -3305 3949 0
-3289 -3306 3950 0
-3289 -3307 3951 0
-3289 -3308 3952 0
-3289 -3309 3953 0
-3289 -3310 3954 0
-3289 -3311 3955 0
-3289 -3312 3956 0
-3289 -3313 3957 0
-3290 -3302 3947 0
-3290 -3303 3948 0
-3290 -3304 3949 0
-3290 -3305 3950 0
-3290 -3306 3951 0
-3290 -3307 3952 0
-3290 -3308 3953 0
-3290 -3309 3954 0
-3290 -3310 3955 0
-3290 -3311 3956 0
-3290 -3312 3957 0
-3291 -3302 3948 0
-3291 -3303 3949 0
-3291 -3304 3950 0
-3291 -3305 3951 0
-3291 -3306 3952 0
-3291 -3307 3953 0
-3291 -3308 3954 0
-3291 -3309 3955 0
-3291 -3310 3956 0
-3291 -3311 3957 0
-3292 -3302 3949 0
-3292 -3303 3950 0
-3292 -3304 3951 0
-3292 -3305 3952 0
-3292 -3306 3953 0
-3292 -3307 3954 0
-3292 -3308 3955 0
-3292 -3309 3956 0
-3292 -3310 3957 0
-3293 -3302 3950 0
-3293 -3303 3951 0
-3293 -3304 3952 0
-3293 -3305 3953 0
-3293 -3306 3954 0
-3293 -3307 3955 0
-3293 -3308 3956 0
-3293 -3309 3957 0
-3294 -3302 3951 0
-3294 -3303 3952 0
-3294 -3304 3953 0
-3294 -3305 3954 0
-3294 -3306 3955 0
-3294 -3307 3956 0
-3294 -3308 3957 0
-3295 -3302 3952 0
-3295 -3303 3953 0
-3295 -3304 3954 0
-3295 -3305 3955 0
-3295 -3306 3956 0
-3295 -3307 3957 0
-3296 -3302 3953 0
-3296 -3303 3954 0
-3296 -3304 3955 0
-3296 -3305 3956 0
-3296 -3306 3957 0
-3297 -3302 3954 0
-3297 -3303 3955 0
-3297 -3304 3956 0
-3297 -3305 3957 0
-3298 -3302 3955 0
-3298 -3303 3956 0
-3298 -3304 3957 0
-3299 -3302 3956 0
-3299 -3303 3957 0
-3300 -3302 3957 0
-3334 3958 0
-3335 3959 0
-3336 3960 0
-3337 3961 0
-3338 3962 0
-3339 3963 0
-3340 3964 0
-3341 3965 0
-3342 3966 0
-3343 3967 0
-3344 3968 0
-3345 3969 0
-3346 3970 0
-3347 3971 0
-3348 3972 0
-3349 3973 0
-3318 3958 0
-3319 3959 0
-3320 3960 0
-3321 3961 0
-3322 3962 0
-3323 3963 0
-3324 3964 0
-3325 3965 0
-3326 3966 0
-3327 3967 0
-3328 3968 0
-3329 3969 0
-3330 3970 0
-3331 3971 0
-3332 3972 0
-3333 3973 0
-3318 -3334 3959 0
-3318 -3335 3960 0
-3318 -3336 3961 0
-3318 -3337 3962 0
-3318 -3338 3963 0
-3318 -3339 3964 0
-3318 -3340 3965 0
-3318 -3341 3966 0
-3318 -3342 3967 0
-3318 -3343 3968 0
-3318 -3344 3969 0
-3318 -3345 3970 0
-3318 -3346 3971 0
-3318 -3347 3972 0
-3318 -3348 3973 0
-3319 -3334 3960 0
-3319 -3335 3961 0
-3319 -3336 3962 0
-3319 -3337 3963 0
-3319 -3338 3964 0
-3319 -3339 3965 0
-3319 -3340 3966 0
-3319 -3341 3967 0
-3319 -3342 3968 0
-3319 -3343 3969 0
-3319 -3344 3970 0
-3319 -3345 3971 0
-3319 -3346 3972 0
-3319 -3347 3973 0
-3320 -3334 3961 0
-3320 -3335 3962 0
-3320 -3336 3963 0
-3320 -3337 3964 0
-3320 -3338 3965 0
-3320 -3339 3966 0
-3320 -3340 3967 0
-3320 -3341 3968 0
-3320 -3342 3969 0
-3320 -3343 3970 0
-3320 -3344 3971 0
-3320 -3345 3972 0
-3320 -3346 3973 0
-3321 -3334 3962 0
-3321 -3335 3963 0
-3321 -3336 3964 0
-3321 -3337 3965 0
-3321 -3338 3966 0
-3321 -3339 3967 0
-3321 -3340 3968 0
-3321 -3341 3969 0
-3321 -3342 3970 0
-3321 -3343 3971 0
-3321 -3344 3972 0
-3321 -3345 3973 0
-3322 -3334 3963 0
-3322 -3335 3964 0
-3322 -3336 3965 0
-3322 -3337 3966 0
-3322 -3338 3967 0
-3322 -3339 3968 0
-3322 -3340 3969 0
-3322 -3341 3970 0
-3322 -3342 3971 0
-3322 -3343 3972 0
-3322 -3344 3973 0
-3323 -3334 3964 0
-3323 -3335 3965 0
-3323 -3336 3966 0
-3323 -3337 3967 0
-3323 -3338 3968 0
-3323 -3339 3969 0
-3323 -3340 3970 0
-3323 -3341 3971 0
-3323 -3342 3972 0
-3323 -3343 3973 0
-3324 -3334 3965 0
-3324 -3335 3966 0
-3324 -3336 3967 0
-3324 -3337 3968 0
-3324 -3338 3969 0
-3324 -3339 3970 0
-3324 -3340 3971 0
-3324 -3341 3972 0
-3324 -3342 3973 0
-3325 -3334 3966 0
-3325 -3335 3967 0
-3325 -3336 3968 0
-3325 -3337 3969 0
-3325 -3338 3970 0
-3325 -3339 3971 0
-3325 -3340 3972 0
-3325 -3341 3973 0
-3326 -3334 3967 0
-3326 -3335 3968 0
-3326 -3336 3969 0
-3326 -3337 3970 0
-3326 -3338 3971 0
-3326 -3339 3972 0
-3326 -3340 3973 0
-3327 -3334 3968 0
-3327 -3335 3969 0
-3327 -3336 3970 0
-3327 -3337 3971 0
-3327 -3338 3972 0
-3327 -3339 3973 0
-3328 -3334 3969 0
-3328 -3335 3970 0
-3328 -3336 3971 0
-3328 -3337 3972 0
-3328 -3338 3973 0
-3329 -3334 3970 0
-3329 -3335 3971 0
-3329 -3336 3972 0
-3329 -3337 3973 0
-3330 -3334 3971 0
-3330 -3335 3972 0
-3330 -3336 3973 0
-3331 -3334 3972 0
-3331 -3335 3973 0
-3332 -3334 3973 0
-3366 3974 0
-3367 3975 0
-3368 3976 0
-3369 3977 0
-3370 3978 0
-3371 3979 0
-3372 3980 0
-3373 3981 0
-3374 3982 0
-3375 3983 0
-3376 3984 0
-3377 3985 0
-3378 3986 0
-3379 3987 0
-3380 3988 0
-3381 3989 0
-3350 3974 0
-3351 3975 0
-3352 3976 0
-3353 3977 0
-3354 3978 0
-3355 3979 0
-3356 3980 0
-3357 3981 0
-3358 3982 0
-3359 3983 0
-3360 3984 0
-3361 3985 0
-3362 3986 0
-3363 3987 0
-3364 3988 0
-3365 3989 0
-3350 -3366 3975 0
-3350 -3367 3976 0
-3350 -3368 3977 0
-3350 -3369 3978 0
-3350 -3370 3979 0
-3350 -3371 3980 0
-3350 -3372 3981 0
-3350 -3373 3982 0
-3350 -3374 3983 0
-3350 -3375 3984 0
-3350 -3376 3985 0
-3350 -3377 3986 0
-3350 -3378 3987 0
-3350 -3379 3988 0
-3350 -3380 3989 0
-3351 -3366 3976 0
-3351 -3367 3977 0
-3351 -3368 3978 0
-3351 -3369 3979 0
-3351 -3370 3980 0
-3351 -3371 3981 0
-3351 -3372 3982 0
-3351 -3373 3983 0
-3351 -3374 3984 0
-3351 -3375 3985 0
-3351 -3376 3986 0
-3351 -3377 3987 0
-3351 -3378 3988 0
-3351 -3379 3989 0
-3352 -3366 3977 0
-3352 -3367 3978 0
-3352 -3368 3979 0
-3352 -3369 3980 0
-3352 -3370 3981 0
-3352 -3371 3982 0
-3352 -3372 3983 0
-3352 -3373 3984 0
-3352 -3374 3985 0
-3352 -3375 3986 0
-3352 -3376 3987 0
-3352 -3377 3988 0
-3352 -3378 3989 0
-3353 -3366 3978 0
-3353 -3367 3979 0
-3353 -3368 3980 0
-3353 -3369 3981 0
-3353 -3370 3982 0
-3353 -3371 3983 0
-3353 -3372 3984 0
-3353 -3373 3985 0
-3353 -3374 3986 0
-3353 -3375 3987 0
-3353 -3376 3988 0
-3353 -3377 3989 0
-3354 -3366 3979 0
-3354 -3367 3980 0
-3354 -3368 3981 0
-3354 -3369 3982 0
-3354 -3370 3983 0
-3354 -3371 3984 0
-3354 -3372 3985 0
-3354 -3373 3986 0
-3354 -3374 3987 0
-3354 -3375 3988 0
-3354 -3376 3989 0
-3355 -3366 3980 0
-3355 -3367 3981 0
-3355 -3368 3982 0
-3355 -3369 3983 0
-3355 -3370 3984 0
-3355 -3371 3985 0
-3355 -3372 3986 0
-3355 -3373 3987 0
-3355 -3374 3988 0
-3355 -3375 3989 0
-3356 -3366 3981 0
-3356 -3367 3982 0
-3356 -3368 3983 0
-3356 -3369 3984 0
-3356 -3370 3985 0
-3356 -3371 3986 0
-3356 -3372 3987 0
-3356 -3373 3988 0
-3356 -3374 3989 0
-3357 -3366 3982 0
-3357 -3367 3983 0
-3357 -3368 3984 0
-3357 -3369 3985 0
-3357 -3370 3986 0
-3357 -3371 3987 0
-3357 -3372 3988 0
-3357 -3373 3989 0
-3358 -3366 3983 0
-3358 -3367 3984 0
-3358 -3368 3985 0
-3358 -3369 3986 0
-3358 -3370 3987 0
-3358 -3371 3988 0
-3358 -3372 3989 0
-3359 -3366 3984 0
-3359 -3367 3985 0
-3359 -3368 3986 0
-3359 -3369 3987 0
-3359 -3370 3988 0
-3359 -3371 3989 0
-3360 -3366 3985 0
-3360 -3367 3986 0
-3360 -3368 3987 0
-3360 -3369 3988 0
-3360 -3370 3989 0
-3361 -3366 3986 0
-3361 -3367 3987 0
-3361 -3368 3988 0
-3361 -3369 3989 0
-3362 -3366 3987 0
-3362 -3367 3988 0
-3362 -3368 3989 0
-3363 -3366 3988 0
-3363 -3367 3989 0
-3364 -3366 3989 0
-3398 3990 0
-3399 3991 0
-3400 3992 0
-3401 3993 0
-3402 3994 0
-3403 3995 0
-3404 3996 0
-3405 3997 0
-3406 3998 0
-3407 3999 0
-3408 4000 0
-3409 4001 0
-3410 4002 0
-3411 4003 0
-3412 4004 0
-3413 4005 0
-3382 3990 0
-3383 3991 0
-3384 3992 0
-3385 3993 0
-3386 3994 0
-3387 3995 0
-3388 3996 0
-3389 3997 0
-3390 3998 0
-3391 3999 0
-3392 4000 0
-3393 4001 0
-3394 4002 0
-3395 4003 0
-3396 4004 0
-3397 4005 0
-3382 -3398 3991 0
-3382 -3399 3992 0
-3382 -3400 3993 0
-3382 -3401 3994 0
-3382 -3402 3995 0
-3382 -3403 3996 0
-3382 -3404 3997 0
-3382 -3405 3998 0
-3382 -3406 3999 0
-3382 -3407 4000 0
-3382 -3408 4001 0
-3382 -3409 4002 0
-3382 -3410 4003 0
-3382 -3411 4004 0
-3382 -3412 4005 0
-3383 -3398 3992 0
-3383 -3399 3993 0
-3383 -3400 3994 0
-3383 -3401 3995 0
-3383 -3402 3996 0
-3383 -3403 3997 0
-3383 -3404 3998 0
-3383 -3405 3999 0
-3383 -3406 4000 0
-3383 -3407 4001 0
-3383 -3408 4002 0
-3383 -3409 4003 0
-3383 -3410 4004 0
-3383 -3411 4005 0
-3384 -3398 3993 0
-3384 -3399 3994 0
-3384 -3400 3995 0
-3384 -3401 3996 0
-3384 -3402 3997 0
-3384 -3403 3998 0
-3384 -3404 3999 0
-3384 -3405 4000 0
-3384 -3406 4001 0
-3384 -3407 4002 0
-3384 -3408 4003 0
-3384 -3409 4004 0
-3384 -3410 4005 0
-3385 -3398 3994 0
-3385 -3399 3995 0
-3385 -3400 3996 0
-3385 -3401 3997 0
-3385 -3402 3998 0
-3385 -3403 3999 0
-3385 -3404 4000 0
-3385 -3405 4001 0
-3385 -3406 4002 0
-3385 -3407 4003 0
-3385 -3408 4004 0
-3385 -3409 4005 0
-3386 -3398 3995 0
-3386 -3399 3996 0
-3386 -3400 3997 0
-3386 -3401 3998 0
-3386 -3402 3999 0
-3386 -3403 4000 0
-3386 -3404 4001 0
-3386 -3405 4002 0
-3386 -3406 4003 0
-3386 -3407 4004 0
-3386 -3408 4005 0
-3387 -3398 3996 0
-3387 -3399 3997 0
-3387 -3400 3998 0
-3387 -3401 3999 0
-3387 -3402 4000 0
-3387 -3403 4001 0
-3387 -3404 4002 0
-3387 -3405 4003 0
-3387 -3406 4004 0
-3387 -3407 4005 0
-3388 -3398 3997 0
-3388 -3399 3998 0
-3388 -3400 3999 0
-3388 -3401 4000 0
-3388 -3402 4001 0
-3388 -3403 4002 0
-3388 -3404 4003 0
-3388 -3405 4004 0
-3388 -3406 4005 0
-3389 -3398 3998 0
-3389 -3399 3999 0
-3389 -3400 4000 0
-3389 -3401 4001 0
-3389 -3402 4002 0
-3389 -3403 4003 0
-3389 -3404 4004 0
-3389 -3405 4005 0
-3390 -3398 3999 0
-3390 -3399 4000 0
-3390 -3400 4001 0
-3390 -3401 4002 0
-3390 -3402 4003 0
-3390 -3403 4004 0
-3390 -3404 4005 0
-3391 -3398 4000 0
-3391 -3399 4001 0
-3391 -3400 4002 0
-3391 -3401 4003 0
-3391 -3402 4004 0
-3391 -3403 4005 0
-3392 -3398 4001 0
-3392 -3399 4002 0
-3392 -3400 4003 0
-3392 -3401 4004 0
-3392 -3402 4005 0
-3393 -3398 4002 0
-3393 -3399 4003 0
-3393 -3400 4004 0
-3393 -3401 4005 0
-3394 -3398 4003 0
-3394 -3399 4004 0
-3394 -3400 4005 0
-3395 -3398 4004 0
-3395 -3399 4005 0
-3396 -3398 4005 0
-3430 4006 0
-3431 4007 0
-3432 4008 0
-3433 4009 0
-3434 4010 0
-3435 4011 0
-3436 4012 0
-3437 4013 0
-3438 4014 0
-3439 4015 0
-3440 4016 0
-3441 4017 0
-3442 4018 0
-3443 4019 0
-3444 4020 0
-3445 4021 0
-3414 4006 0
-3415 4007 0
-3416 4008 0
-3417 4009 0
-3418 4010 0
-3419 4011 0
-3420 4012 0
-3421 4013 0
-3422 4014 0
-3423 4015 0
-3424 4016 0
-3425 4017 0
-3426 4018 0
-3427 4019 0
-3428 4020 0
-3429 4021 0
-3414 -3430 4007 0
-3414 -3431 4008 0
-3414 -3432 4009 0
-3414 -3433 4010 0
-3414 -3434 4011 0
-3414 -3435 4012 0
-3414 -3436 4013 0
-3414 -3437 4014 0
-3414 -3438 4015 0
-3414 -3439 4016 0
-3414 -3440 4017 0
-3414 -3441 4018 0
-3414 -3442 4019 0
-3414 -3443 4020 0
-3414 -3444 4021 0
-3415 -3430 4008 0
-3415 -3431 4009 0
-3415 -3432 4010 0
-3415 -3433 4011 0
-3415 -3434 4012 0
-3415 -3435 4013 0
-3415 -3436 4014 0
-3415 -3437 4015 0
-3415 -3438 4016 0
-3415 -3439 4017 0
-3415 -3440 4018 0
-3415 -3441 4019 0
-3415 -3442 4020 0
-3415 -3443 4021 0
-3416 -3430 4009 0
-3416 -3431 4010 0
-3416 -3432 4011 0
-3416 -3433 4012 0
-3416 -3434 4013 0
-3416 -3435 4014 0
-3416 -3436 4015 0
-3416 -3437 4016 0
-3416 -3438 4017 0
-3416 -3439 4018 0
-3416 -3440 4019 0
-3416 -3441 4020 0
-3416 -3442 4021 0
-3417 -3430 4010 0
-3417 -3431 4011 0
-3417 -3432 4012 0
-3417 -3433 4013 0
-3417 -3434 4014 0
-3417 -3435 4015 0
-3417 -3436 4016 0
-3417 -3437 4017 0
-3417 -3438 4018 0
-3417 -3439 4019 0
-3417 -3440 4020 0
-3417 -3441 4021 0
-3418 -3430 4011 0
-3418 -3431 4012 0
-3418 -3432 4013 0
-3418 -3433 4014 0
-3418 -3434 4015 0
-3418 -3435 4016 0
-3418 -3436 4017 0
-3418 -3437 4018 0
-3418 -3438 4019 0
-3418 -3439 4020 0
-3418 -3440 4021 0
-3419 -3430 4012 0
-3419 -3431 4013 0
-3419 -3432 4014 0
-3419 -3433 4015 0
-3419 -3434 4016 0
-3419 -3435 4017 0
-3419 -3436 4018 0
-3419 -3437 4019 0
-3419 -3438 4020 0
-3419 -3439 4021 0
-3420 -3430 4013 0
-3420 -3431 4014 0
-3420 -3432 4015 0
-3420 -3433 4016 0
-3420 -3434 4017 0
-3420 -3435 4018 0
-3420 -3436 4019 0
-3420 -3437 4020 0
-3420 -3438 4021 0
-3421 -3430 4014 0
-3421 -3431 4015 0
-3421 -3432 4016 0
-3421 -3433 4017 0
-3421 -3434 4018 0
-3421 -3435 4019 0
-3421 -3436 4020 0
-3421 -3437 4021 0
-3422 -3430 4015 0
-3422 -3431 4016 0
-3422 -3432 4017 0
-3422 -3433 4018 0
-3422 -3434 4019 0
-3422 -3435 4020 0
-3422 -3436 4021 0
-3423 -3430 4016 0
-3423 -3431 4017 0
-3423 -3432 4018 0
-3423 -3433 4019 0
-3423 -3434 4020 0
-3423 -3435 4021 0
-3424 -3430 4017 0
-3424 -3431 4018 0
-3424 -3432 4019 0
-3424 -3433 4020 0
-3424 -3434 4021 0
-3425 -3430 4018 0
-3425 -3431 4019 0
-3425 -3432 4020 0
-3425 -3433 4021 0
-3426 -3430 4019 0
-3426 -3431 4020 0
-3426 -3432 4021 0
-3427 -3430 4020 0
-3427 -3431 4021 0
-3428 -3430 4021 0
-3462 4022 0
-3463 4023 0
-3464 4024 0
-3465 4025 0
-3466 4026 0
-3467 4027 0
-3468 4028 0
-3469 4029 0
-3470 4030 0
-3471 4031 0
-3472 4032 0
-3473 4033 0
-3474 4034 0
-3475 4035 0
-3476 4036 0
-3477 4037 0
-3446 4022 0
-3447 4023 0
-3448 4024 0
-3449 4025 0
-3450 4026 0
-3451 4027 0
-3452 4028 0
-3453 4029 0
-3454 4030 0
-3455 4031 0
-3456 4032 0
-3457 4033 0
-3458 4034 0
-3459 4035 0
-3460 4036 0
-3461 4037 0
-3446 -3462 4023 0
-3446 -3463 4024 0
-3446 -3464 4025 0
-3446 -3465 4026 0
-3446 -3466 4027 0
-3446 -3467 4028 0
-3446 -3468 4029 0
-3446 -3469 4030 0
-3446 -3470 4031 0
-3446 -3471 4032 0
-3446 -3472 4033 0
-3446 -3473 4034 0
-3446 -3474 4035 0
-3446 -3475 4036 0
-3446 -3476 4037 0
-3447 -3462 4024 0
-3447 -3463 4025 0
-3447 -3464 4026 0
-3447 -3465 4027 0
-3447 -3466 4028 0
-3447 -3467 4029 0
-3447 -3468 4030 0
-3447 -3469 4031 0
-3447 -3470 4032 0
-3447 -3471 4033 0
-3447 -3472 4034 0
-3447 -3473 4035 0
-3447 -3474 4036 0
-3447 -3475 4037 0
-3448 -3462 4025 0
-3448 -3463 4026 0
-3448 -3464 4027 0
-3448 -3465 4028 0
-3448 -3466 4029 0
-3448 -3467 4030 0
-3448 -3468 4031 0
-3448 -3469 4032 0
-3448 -3470 4033 0
-3448 -3471 4034 0
-3448 -3472 4035 0
-3448 -3473 4036 0
-3448 -3474 4037 0
-3449 -3462 4026 0
-3449 -3463 4027 0
-3449 -3464 4028 0
-3449 -3465 4029 0
-3449 -3466 4030 0
-3449 -3467 4031 0
-3449 -3468 4032 0
-3449 -3469 4033 0
-3449 -3470 4034 0
-3449 -3471 4035 0
-3449 -3472 4036 0
-3449 -3473 4037 0
-3450 -3462 4027 0
-3450 -3463 4028 0
-3450 -3464 4029 0
-3450 -3465 4030 0
-3450 -3466 4031 0
-3450 -3467 4032 0
-3450 -3468 4033 0
-3450 -3469 4034 0
-3450 -3470 4035 0
-3450 -3471 4036 0
-3450 -3472 4037 0
-3451 -3462 4028 0
-3451 -3463 4029 0
-3451 -3464 4030 0
-3451 -3465 4031 0
-3451 -3466 4032 0
-3451 -3467 4033 0
-3451 -3468 4034 0
-3451 -3469 4035 0
-3451 -3470 4036 0
-3451 -3471 4037 0
-3452 -3462 4029 0
-3452 -3463 4030 0
-3452 -3464 4031 0
-3452 -3465 4032 0
-3452 -3466 4033 0
-3452 -3467 4034 0
-3452 -3468 4035 0
-3452 -3469 4036 0
-3452 -3470 4037 0
-3453 -3462 4030 0
-3453 -3463 4031 0
-3453 -3464 4032 0
-3453 -3465 4033 0
-3453 -3466 4034 0
-3453 -3467 4035 0
-3453 -3468 4036 0
-3453 -3469 4037 0
-3454 -3462 4031 0
-3454 -3463 4032 0
-3454 -3464 4033 0
-3454 -3465 4034 0
-3454 -3466 4035 0
-3454 -3467 4036 0
-3454 -3468 4037 0
-3455 -3462 4032 0
-3455 -3463 4033 0
-3455 -3464 4034 0
-3455 -3465 4035 0
-3455 -3466 4036 0
-3455 -3467 4037 0
-3456 -3462 4033 0
-3456 -3463 4034 0
-3456 -3464 4035 0
-3456 -3465 4036 0
-3456 -3466 4037 0
-3457 -3462 4034 0
-3457 -3463 4035 0
-3457 -3464 4036 0
-3457 -3465 4037 0
-3458 -3462 4035 0
-3458 -3463 4036 0
-3458 -3464 4037 0
-3459 -3462 4036 0
-3459 -3463 4037 0
-3460 -3462 4037 0
-3494 4038 0
-3495 4039 0
-3496 4040 0
-3497 4041 0
-3498 4042 0
-3499 4043 0
-3500 4044 0
-3501 4045 0
-3502 4046 0
-3503 4047 0
-3504 4048 0
-3505 4049 0
-3506 4050 0
-3507 4051 0
-3508 4052 0
-3509 4053 0
-3478 4038 0
-3479 4039 0
-3480 4040 0
-3481 4041 0
-3482 4042 0
-3483 4043 0
-3484 4044 0
-3485 4045 0
-3486 4046 0
-3487 4047 0
-3488 4048 0
-3489 4049 0
-3490 4050 0
-3491 4051 0
-3492 4052 0
-3493 4053 0
-3478 -3494 4039 0
-3478 -3495 4040 0
-3478 -3496 4041 0
-3478 -3497 4042 0
-3478 -3498 4043 0
-3478 -3499 4044 0
-3478 -3500 4045 0
-3478 -3501 4046 0
-3478 -3502 4047 0
-3478 -3503 4048 0
-3478 -3504 4049 0
-3478 -3505 4050 0
-3478 -3506 4051 0
-3478 -3507 4052 0
-3478 -3508 4053 0
-3479 -3494 4040 0
-3479 -3495 4041 0
-3479 -3496 4042 0
-3479 -3497 4043 0
-3479 -3498 4044 0
-3479 -3499 4045 0
-3479 -3500 4046 0
-3479 -3501 4047 0
-3479 -3502 4048 0
-3479 -3503 4049 0
-3479 -3504 4050 0
-3479 -3505 4051 0
-3479 -3506 4052 0
-3479 -3507 4053 0
-3480 -3494 4041 0
-3480 -3495 4042 0
-3480 -3496 4043 0
-3480 -3497 4044 0
-3480 -3498 4045 0
-3480 -3499 4046 0
-3480 -3500 4047 0
-3480 -3501 4048 0
-3480 -3502 4049 0
-3480 -3503 4050 0
-3480 -3504 4051 0
-3480 -3505 4052 0
-3480 -3506 4053 0
-3481 -3494 4042 0
-3481 -3495 4043 0
-3481 -3496 4044 0
-3481 -3497 4045 0
-3481 -3498 4046 0
-3481 -3499 4047 0
-3481 -3500 4048 0
-3481 -3501 4049 0
-3481 -3502 4050 0
-3481 -3503 4051 0
-3481 -3504 4052 0
-3481 -3505 4053 0
-3482 -3494 4043 0
-3482 -3495 4044 0
-3482 -3496 4045 0
-3482 -3497 4046 0
-3482 -3498 4047 0
-3482 -3499 4048 0
-3482 -3500 4049 0
-3482 -3501 4050 0
-3482 -3502 4051 0
-3482 -3503 4052 0
-3482 -3504 4053 0
-3483 -3494 4044 0
-3483 -3495 4045 0
-3483 -3496 4046 0
-3483 -3497 4047 0
-3483 -3498 4048 0
-3483 -3499 4049 0
-3483 -3500 4050 0
-3483 -3501 4051 0
-3483 -3502 4052 0
-3483 -3503 4053 0
-3484 -3494 4045 0
-3484 -3495 4046 0
-3484 -3496 4047 0
-3484 -3497 4048 0
-3484 -3498 4049 0
-3484 -3499 4050 0
-3484 -3500 4051 0
-3484 -3501 4052 0
-3484 -3502 4053 0
-3485 -3494 4046 0
-3485 -3495 4047 0
-3485 -3496 4048 0
-3485 -3497 4049 0
-3485 -3498 4050 0
-3485 -3499 4051 0
-3485 -3500 4052 0
-3485 -3501 4053 0
-3486 -3494 4047 0
-3486 -3495 4048 0
-3486 -3496 4049 0
-3486 -3497 4050 0
-3486 -3498 4051 0
-3486 -3499 4052 0
-3486 -3500 4053 0
-3487 -3494 4048 0
-3487 -3495 4049 0
-3487 -3496 4050 0
-3487 -3497 4051 0
-3487 -3498 4052 0
-3487 -3499 4053 0
-3488 -3494 4049 0
-3488 -3495 4050 0
-3488 -3496 4051 0
-3488 -3497 4052 0
-3488 -3498 4053 0
-3489 -3494 4050 0
-3489 -3495 4051 0
-3489 -3496 4052 0
-3489 -3497 4053 0
-3490 -3494 4051 0
-3490 -3495 4052 0
-3490 -3496 4053 0
-3491 -3494 4052 0
-3491 -3495 4053 0
-3492 -3494 4053 0
-3526 4054 0
-3527 4055 0
-3528 4056 0
-3529 4057 0
-3530 4058 0
-3531 4059 0
-3532 4060 0
-3533 4061 0
-3534 4062 0
-3535 4063 0
-3536 4064 0
-3537 4065 0
-3538 4066 0
-3539 4067 0
-3540 4068 0
-3541 4069 0
-3510 4054 0
-3511 4055 0
-3512 4056 0
-3513 4057 0
-3514 4058 0
-3515 4059 0
-3516 4060 0
-3517 4061 0
-3518 4062 0
-3519 4063 0
-3520 4064 0
-3521 4065 0
-3522 4066 0
-3523 4067 0
-3524 4068 0
-3525 4069 0
-3510 -3526 4055 0
-3510 -3527 4056 0
-3510 -3528 4057 0
-3510 -3529 4058 0
-3510 -3530 4059 0
-3510 -3531 4060 0
-3510 -3532 4061 0
-3510 -3533 4062 0
-3510 -3534 4063 0
-3510 -3535 4064 0
-3510 -3536 4065 0
-3510 -3537 4066 0
-3510 -3538 4067 0
-3510 -3539 4068 0
-3510 -3540 4069 0
-3511 -3526 4056 0
-3511 -3527 4057 0
-3511 -3528 4058 0
-3511 -3529 4059 0
-3511 -3530 4060 0
-3511 -3531 4061 0
-3511 -3532 4062 0
-3511 -3533 4063 0
-3511 -3534 4064 0
-3511 -3535 4065 0
-3511 -3536 4066 0
-3511 -3537 4067 0
-3511 -3538 4068 0
-3511 -3539 4069 0
-3512 -3526 4057 0
-3512 -3527 4058 0
-3512 -3528 4059 0
-3512 -3529 4060 0
-3512 -3530 4061 0
-3512 -3531 4062 0
-3512 -3532 4063 0
-3512 -3533 4064 0
-3512 -3534 4065 0
-3512 -3535 4066 0
-3512 -3536 4067 0
-3512 -3537 4068 0
-3512 -3538 4069 0
-3513 -3526 4058 0
-3513 -3527 4059 0
-3513 -3528 4060 0
-3513 -3529 4061 0
-3513 -3530 4062 0
-3513 -3531 4063 0
-3513 -3532 4064 0
-3513 -3533 4065 0
-3513 -3534 4066 0
-3513 -3535 4067 0
-3513 -3536 4068 0
-3513 -3537 4069 0
-3514 -3526 4059 0
-3514 -3527 4060 0
-3514 -3528 4061 0
-3514 -3529 4062 0
-3514 -3530 4063 0
-3514 -3531 4064 0
-3514 -3532 4065 0
-3514 -3533 4066 0
-3514 -3534 4067 0
-3514 -3535 4068 0
-3514 -3536 4069 0
-3515 -3526 4060 0
-3515 -3527 4061 0
-3515 -3528 4062 0
-3515 -3529 4063 0
-3515 -3530 4064 0
-3515 -3531 4065 0
-3515 -3532 4066 0
-3515 -3533 4067 0
-3515 -3534 4068 0
-3515 -3535 4069 0
-3516 -3526 4061 0
-3516 -3527 4062 0
-3516 -3528 4063 0
-3516 -3529 4064 0
-3516 -3530 4065 0
-3516 -3531 4066 0
-3516 -3532 4067 0
-3516 -3533 4068 0
-3516 -3534 4069 0
-3517 -3526 4062 0
-3517 -3527 4063 0
-3517 -3528 4064 0
-3517 -3529 4065 0
-3517 -3530 4066 0
-3517 -3531 4067 0
-3517 -3532 4068 0
-3517 -3533 4069 0
-3518 -3526 4063 0
-3518 -3527 4064 0
-3518 -3528 4065 0
-3518 -3529 4066 0
-3518 -3530 4067 0
-3518 -3531 4068 0
-3518 -3532 4069 0
-3519 -3526 4064 0
-3519 -3527 4065 0
-3519 -3528 4066 0
-3519 -3529 4067 0
-3519 -3530 4068 0
-3519 -3531 4069 0
-3520 -3526 4065 0
-3520 -3527 4066 0
-3520 -3528 4067 0
-3520 -3529 4068 0
-3520 -3530 4069 0
-3521 -3526 4066 0
-3521 -3527 4067 0
-3521 -3528 4068 0
-3521 -3529 4069 0
-3522 -3526 4067 0
-3522 -3527 4068 0
-3522 -3528 4069 0
-3523 -3526 4068 0
-3523 -3527 4069 0
-3524 -3526 4069 0
-3558 4070 0
-3559 4071 0
-3560 4072 0
-3561 4073 0
-3562 4074 0
-3563 4075 0
-3564 4076 0
-3565 4077 0
-3566 4078 0
-3567 4079 0
-3568 4080 0
-3569 4081 0
-3570 4082 0
-3571 4083 0
-3572 4084 0
-3573 4085 0
-3542 4070 0
-3543 4071 0
-3544 4072 0
-3545 4073 0
-3546 4074 0
-3547 4075 0
-3548 4076 0
-3549 4077 0
-3550 4078 0
-3551 4079 0
-3552 4080 0
-3553 4081 0
-3554 4082 0
-3555 4083 0
-3556 4084 0
-3557 4085 0
-3542 -3558 4071 0
-3542 -3559 4072 0
-3542 -3560 4073 0
-3542 -3561 4074 0
-3542 -3562 4075 0
-3542 -3563 4076 0
-3542 -3564 4077 0
-3542 -3565 4078 0
-3542 -3566 4079 0
-3542 -3567 4080 0
-3542 -3568 4081 0
-3542 -3569 4082 0
-3542 -3570 4083 0
-3542 -3571 4084 0
-3542 -3572 4085 0
-3543 -3558 4072 0
-3543 -3559 4073 0
-3543 -3560 4074 0
-3543 -3561 4075 0
-3543 -3562 4076 0
-3543 -3563 4077 0
-3543 -3564 4078 0
-3543 -3565 4079 0
-3543 -3566 4080 0
-3543 -3567 4081 0
-3543 -3568 4082 0
-3543 -3569 4083 0
-3543 -3570 4084 0
-3543 -3571 4085 0
-3544 -3558 4073 0
-3544 -3559 4074 0
-3544 -3560 4075 0
-3544 -3561 4076 0
-3544 -3562 4077 0
-3544 -3563 4078 0
-3544 -3564 4079 0
-3544 -3565 4080 0
-3544 -3566 4081 0
-3544 -3567 4082 0
-3544 -3568 4083 0
-3544 -3569 4084 0
-3544 -3570 4085 0
-3545 -3558 4074 0
-3545 -3559 4075 0
-3545 -3560 4076 0
-3545 -3561 4077 0
-3545 -3562 4078 0
-3545 -3563 4079 0
-3545 -3564 4080 0
-3545 -3565 4081 0
-3545 -3566 4082 0
-3545 -3567 4083 0
-3545 -3568 4084 0
-3545 -3569 4085 0
-3546 -3558 4075 0
-3546 -3559 4076 0
-3546 -3560 4077 0
-3546 -3561 4078 0
-3546 -3562 4079 0
-3546 -3563 4080 0
-3546 -3564 4081 0
-3546 -3565 4082 0
-3546 -3566 4083 0
-3546 -3567 4084 0
-3546 -3568 4085 0
-3547 -3558 4076 0
-3547 -3559 4077 0
-3547 -3560 4078 0
-3547 -3561 4079 0
-3547 -3562 4080 0
-3547 -3563 4081 0
-3547 -3564 4082 0
-3547 -3565 4083 0
-3547 -3566 4084 0
-3547 -3567 4085 0
-3548 -3558 4077 0
-3548 -3559 4078 0
-3548 -3560 4079 0
-3548 -3561 4080 0
-3548 -3562 4081 0
-3548 -3563 4082 0
-3548 -3564 4083 0
-3548 -3565 4084 0
-3548 -3566 4085 0
-3549 -3558 4078 0
-3549 -3559 4079 0
-3549 -3560 4080 0
-3549 -3561 4081 0
-3549 -3562 4082 0
-3549 -3563 4083 0
-3549 -3564 4084 0
-3549 -3565 4085 0
-3550 -3558 4079 0
-3550 -3559 4080 0
-3550 -3560 4081 0
-3550 -3561 4082 0
-3550 -3562 4083 0
-3550 -3563 4084 0
-3550 -3564 4085 0
-3551 -3558 4080 0
-3551 -3559 4081 0
-3551 -3560 4082 0
-3551 -3561 4083 0
-3551 -3562 4084 0
-3551 -3563 4085 0
-3552 -3558 4081 0
-3552 -3559 4082 0
-3552 -3560 4083 0
-3552 -3561 4084 0
-3552 -3562 4085 0
-3553 -3558 4082 0
-3553 -3559 4083 0
-3553 -3560 4084 0
-3553 -3561 4085 0
-3554 -3558 4083 0
-3554 -3559 4084 0
-3554 -3560 4085 0
-3555 -3558 4084 0
-3555 -3559 4085 0
-3556 -3558 4085 0
-3590 4086 0
-3591 4087 0
-3592 4088 0
-3593 4089 0
-3594 4090 0
-3595 4091 0
-3596 4092 0
-3597 4093 0
-3598 4094 0
-3599 4095 0
-3600 4096 0
-3601 4097 0
-3602 4098 0
-3603 4099 0
-3604 4100 0
-3605 4101 0
-3574 4086 0
-3575 4087 0
-3576 4088 0
-3577 4089 0
-3578 4090 0
-3579 4091 0
-3580 4092 0
-3581 4093 0
-3582 4094 0
-3583 4095 0
-3584 4096 0
-3585 4097 0
-3586 4098 0
-3587 4099 0
-3588 4100 0
-3589 4101 0
-3574 -3590 4087 0
-3574 -3591 4088 0
-3574 -3592 4089 0
-3574 -3593 4090 0
-3574 -3594 4091 0
-3574 -3595 4092 0
-3574 -3596 4093 0
-3574 -3597 4094 0
-3574 -3598 4095 0
-3574 -3599 4096 0
-3574 -3600 4097 0
-3574 -3601 4098 0
-3574 -3602 4099 0
-3574 -3603 4100 0
-3574 -3604 4101 0
-3575 -3590 4088 0
-3575 -3591 4089 0
-3575 -3592 4090 0
-3575 -3593 4091 0
-3575 -3594 4092 0
-3575 -3595 4093 0
-3575 -3596 4094 0
-3575 -3597 4095 0
-3575 -3598 4096 0
-3575 -3599 4097 0
-3575 -3600 4098 0
-3575 -3601 4099 0
-3575 -3602 4100 0
-3575 -3603 4101 0
-3576 -3590 4089 0
-3576 -3591 4090 0
-3576 -3592 4091 0
-3576 -3593 4092 0
-3576 -3594 4093 0
-3576 -3595 4094 0
-3576 -3596 4095 0
-3576 -3597 4096 0
-3576 -3598 4097 0
-3576 -3599 4098 0
-3576 -3600 4099 0
-3576 -3601 4100 0
-3576 -3602 4101 0
-3577 -3590 4090 0
-3577 -3591 4091 0
-3577 -3592 4092 0
-3577 -3593 4093 0
-3577 -3594 4094 0
-3577 -3595 4095 0
-3577 -3596 4096 0
-3577 -3597 4097 0
-3577 -3598 4098 0
-3577 -3599 4099 0
-3577 -3600 4100 0
-3577 -3601 4101 0
-3578 -3590 4091 0
-3578 -3591 4092 0
-3578 -3592 4093 0
-3578 -3593 4094 0
-3578 -3594 4095 0
-3578 -3595 4096 0
-3578 -3596 4097 0
-3578 -3597 4098 0
-3578 -3598 4099 0
-3578 -3599 4100 0
-3578 -3600 4101 0
-3579 -3590 4092 0
-3579 -3591 4093 0
-3579 -3592 4094 0
-3579 -3593 4095 0
-3579 -3594 4096 0
-3579 -3595 4097 0
-3579 -3596 4098 0
-3579 -3597 4099 0
-3579 -3598 4100 0
-3579 -3599 4101 0
-3580 -3590 4093 0
-3580 -3591 4094 0
-3580 -3592 4095 0
-3580 -3593 4096 0
-3580 -3594 4097 0
-3580 -3595 4098 0
-3580 -3596 4099 0
-3580 -3597 4100 0
-3580 -3598 4101 0
-3581 -3590 4094 0
-3581 -3591 4095 0
-3581 -3592 4096 0
-3581 -3593 4097 0
-3581 -3594 4098 0
-3581 -3595 4099 0
-3581 -3596 4100 0
-3581 -3597 4101 0
-3582 -3590 4095 0
-3582 -3591 4096 0
-3582 -3592 4097 0
-3582 -3593 4098 0
-3582 -3594 4099 0
-3582 -3595 4100 0
-3582 -3596 4101 0
-3583 -3590 4096 0
-3583 -3591 4097 0
-3583 -3592 4098 0
-3583 -3593 4099 0
-3583 -3594 4100 0
-3583 -3595 4101 0
-3584 -3590 4097 0
-3584 -3591 4098 0
-3584 -3592 4099 0
-3584 -3593 4100 0
-3584 -3594 4101 0
-3585 -3590 4098 0
-3585 -3591 4099 0
-3585 -3592 4100 0
-3585 -3593 4101 0
-3586 -3590 4099 0
-3586 -3591 4100 0
-3586 -3592 4101 0
-3587 -3590 4100 0
-3587 -3591 4101 0
-3588 -3590 4101 0
-3622 4102 0
-3623 4103 0
-3624 4104 0
-3625 4105 0
-3626 4106 0
-3627 4107 0
-3628 4108 0
-3629 4109 0
-3630 4110 0
-3631 4111 0
-3632 4112 0
-3633 4113 0
-3634 4114 0
-3635 4115 0
-3636 4116 0
-3637 4117 0
-3606 4102 0
-3607 4103 0
-3608 4104 0
-3609 4105 0
-3610 4106 0
-3611 4107 0
-3612 4108 0
-3613 4109 0
-3614 4110 0
-3615 4111 0
-3616 4112 0
-3617 4113 0
-3618 4114 0
-3619 4115 0
-3620 4116 0
-3621 4117 0
-3606 -3622 4103 0
-3606 -3623 4104 0
-3606 -3624 4105 0
-3606 -3625 4106 0
-3606 -3626 4107 0
-3606 -3627 4108 0
-3606 -3628 4109 0
-3606 -3629 4110 0
-3606 -3630 4111 0
-3606 -3631 4112 0
-3606 -3632 4113 0
-3606 -3633 4114 0
-3606 -3634 4115 0
-3606 -3635 4116 0
-3606 -3636 4117 0
-3607 -3622 4104 0
-3607 -3623 4105 0
-3607 -3624 4106 0
-3607 -3625 4107 0
-3607 -3626 4108 0
-3607 -3627 4109 0
-3607 -3628 4110 0
-3607 -3629 4111 0
-3607 -3630 4112 0
-3607 -3631 4113 0
-3607 -3632 4114 0
-3607 -3633 4115 0
-3607 -3634 4116 0
-3607 -3635 4117 0
-3608 -3622 4105 0
-3608 -3623 4106 0
-3608 -3624 4107 0
-3608 -3625 4108 0
-3608 -3626 4109 0
-3608 -3627 4110 0
-3608 -3628 4111 0
-3608 -3629 4112 0
-3608 -3630 4113 0
-3608 -3631 4114 0
-3608 -3632 4115 0
-3608 -3633 4116 0
-3608 -3634 4117 0
-3609 -3622 4106 0
-3609 -3623 4107 0
-3609 -3624 4108 0
-3609 -3625 4109 0
-3609 -3626 4110 0
-3609 -3627 4111 0
-3609 -3628 4112 0
-3609 -3629 4113 0
-3609 -3630 4114 0
-3609 -3631 4115 0
-3609 -3632 4116 0
-3609 -3633 4117 0
-3610 -3622 4107 0
-3610 -3623 4108 0
-3610 -3624 4109 0
-3610 -3625 4110 0
-3610 -3626 4111 0
-3610 -3627 4112 0
-3610 -3628 4113 0
-3610 -3629 4114 0
-3610 -3630 4115 0
-3610 -3631 4116 0
-3610 -3632 4117 0
-3611 -3622 4108 0
-3611 -3623 4109 0
-3611 -3624 4110 0
-3611 -3625 4111 0
-3611 -3626 4112 0
-3611 -3627 4113 0
-3611 -3628 4114 0
-3611 -3629 4115 0
-3611 -3630 4116 0
-3611 -3631 4117 0
-3612 -3622 4109 0
-3612 -3623 4110 0
-3612 -3624 4111 0
-3612 -3625 4112 0
-3612 -3626 4113 0
-3612 -3627 4114 0
-3612 -3628 4115 0
-3612 -3629 4116 0
-3612 -3630 4117 0
-3613 -3622 4110 0
-3613 -3623 4111 0
-3613 -3624 4112 0
-3613 -3625 4113 0
-3613 -3626 4114 0
-3613 -3627 4115 0
-3613 -3628 4116 0
-3613 -3629 4117 0
-3614 -3622 4111 0
-3614 -3623 4112 0
-3614 -3624 4113 0
-3614 -3625 4114 0
-3614 -3626 4115 0
-3614 -3627 4116 0
-3614 -3628 4117 0
-3615 -3622 4112 0
-3615 -3623 4113 0
-3615 -3624 4114 0
-3615 -3625 4115 0
-3615 -3626 4116 0
-3615 -3627 4117 0
-3616 -3622 4113 0
-3616 -3623 4114 0
-3616 -3624 4115 0
-3616 -3625 4116 0
-3616 -3626 4117 0
-3617 -3622 4114 0
-3617 -3623 4115 0
-3617 -3624 4116 0
-3617 -3625 4117 0
-3618 -3622 4115 0
-3618 -3623 4116 0
-3618 -3624 4117 0
-3619 -3622 4116 0
-3619 -3623 4117 0
-3620 -3622 4117 0
-3654 4118 0
-3655 4119 0
-3656 4120 0
-3657 4121 0
-3658 4122 0
-3659 4123 0
-3660 4124 0
-3661 4125 0
-3662 4126 0
-3663 4127 0
-3664 4128 0
-3665 4129 0
-3666 4130 0
-3667 4131 0
-3668 4132 0
-3669 4133 0
-3638 4118 0
-3639 4119 0
-3640 4120 0
-3641 4121 0
-3642 4122 0
-3643 4123 0
-3644 4124 0
-3645 4125 0
-3646 4126 0
-3647 4127 0
-3648 4128 0
-3649 4129 0
-3650 4130 0
-3651 4131 0
-3652 4132 0
-3653 4133 0
-3638 -3654 4119 0
-3638 -3655 4120 0
-3638 -3656 4121 0
-3638 -3657 4122 0
-3638 -3658 4123 0
-3638 -3659 4124 0
-3638 -3660 4125 0
-3638 -3661 4126 0
-3638 -3662 4127 0
-3638 -3663 4128 0
-3638 -3664 4129 0
-3638 -3665 4130 0
-3638 -3666 4131 0
-3638 -3667 4132 0
-3638 -3668 4133 0
-3639 -3654 4120 0
-3639 -3655 4121 0
-3639 -3656 4122 0
-3639 -3657 4123 0
-3639 -3658 4124 0
-3639 -3659 4125 0
-3639 -3660 4126 0
-3639 -3661 4127 0
-3639 -3662 4128 0
-3639 -3663 4129 0
-3639 -3664 4130 0
-3639 -3665 4131 0
-3639 -3666 4132 0
-3639 -3667 4133 0
-3640 -3654 4121 0
-3640 -3655 4122 0
-3640 -3656 4123 0
-3640 -3657 4124 0
-3640 -3658 4125 0
-3640 -3659 4126 0
-3640 -3660 4127 0
-3640 -3661 4128 0
-3640 -3662 4129 0
-3640 -3663 4130 0
-3640 -3664 4131 0
-3640 -3665 4132 0
-3640 -3666 4133 0
-3641 -3654 4122 0
-3641 -3655 4123 0
-3641 -3656 4124 0
-3641 -3657 4125 0
-3641 -3658 4126 0
-3641 -3659 4127 0
-3641 -3660 4128 0
-3641 -3661 4129 0
-3641 -3662 4130 0
-3641 -3663 4131 0
-3641 -3664 4132 0
-3641 -3665 4133 0
-3642 -3654 4123 0
-3642 -3655 4124 0
-3642 -3656 4125 0
-3642 -3657 4126 0
-3642 -3658 4127 0
-3642 -3659 4128 0
-3642 -3660 4129 0
-3642 -3661 4130 0
-3642 -3662 4131 0
-3642 -3663 4132 0
-3642 -3664 4133 0
-3643 -3654 4124 0
-3643 -3655 4125 0
-3643 -3656 4126 0
-3643 -3657 4127 0
-3643 -3658 4128 0
-3643 -3659 4129 0
-3643 -3660 4130 0
-3643 -3661 4131 0
-3643 -3662 4132 0
-3643 -3663 4133 0
-3644 -3654 4125 0
-3644 -3655 4126 0
-3644 -3656 4127 0
-3644 -3657 4128 0
-3644 -3658 4129 0
-3644 -3659 4130 0
-3644 -3660 4131 0
-3644 -3661 4132 0
-3644 -3662 4133 0
-3645 -3654 4126 0
-3645 -3655 4127 0
-3645 -3656 4128 0
-3645 -3657 4129 0
-3645 -3658 4130 0
-3645 -3659 4131 0
-3645 -3660 4132 0
-3645 -3661 4133 0
-3646 -3654 4127 0
-3646 -3655 4128 0
-3646 -3656 4129 0
-3646 -3657 4130 0
-3646 -3658 4131 0
-3646 -3659 4132 0
-3646 -3660 4133 0
-3647 -3654 4128 0
-3647 -3655 4129 0
-3647 -3656 4130 0
-3647 -3657 4131 0
-3647 -3658 4132 0
-3647 -3659 4133 0
-3648 -3654 4129 0
-3648 -3655 4130 0
-3648 -3656 4131 0
-3648 -3657 4132 0
-3648 -3658 4133 0
-3649 -3654 4130 0
-3649 -3655 4131 0
-3649 -3656 4132 0
-3649 -3657 4133 0
-3650 -3654 4131 0
-3650 -3655 4132 0
-3650 -3656 4133 0
-3651 -3654 4132 0
-3651 -3655 4133 0
-3652 -3654 4133 0
-3686 4134 0
-3687 4135 0
-3688 4136 0
-3689 4137 0
-3690 4138 0
-3691 4139 0
-3692 4140 0
-3693 4141 0
-3694 4142 0
-3695 4143 0
-3696 4144 0
-3697 4145 0
-3698 4146 0
-3699 4147 0
-3700 4148 0
-3701 4149 0
-3670 4134 0
-3671 4135 0
-3672 4136 0
-3673 4137 0
-3674 4138 0
-3675 4139 0
-3676 4140 0
-3677 4141 0
-3678 4142 0
-3679 4143 0
-3680 4144 0
-3681 4145 0
-3682 4146 0
-3683 4147 0
-3684 4148 0
-3685 4149 0
-3670 -3686 4135 0
-3670 -3687 4136 0
-3670 -3688 4137 0
-3670 -3689 4138 0
-3670 -3690 4139 0
-3670 -3691 4140 0
-3670 -3692 4141 0
-3670 -3693 4142 0
-3670 -3694 4143 0
-3670 -3695 4144 0
-3670 -3696 4145 0
-3670 -3697 4146 0
-3670 -3698 4147 0
-3670 -3699 4148 0
-3670 -3700 4149 0
-3671 -3686 4136 0
-3671 -3687 4137 0
-3671 -3688 4138 0
-3671 -3689 4139 0
-3671 -3690 4140 0
-3671 -3691 4141 0
-3671 -3692 4142 0
-3671 -3693 4143 0
-3671 -3694 4144 0
-3671 -3695 4145 0
-3671 -3696 4146 0
-3671 -3697 4147 0
-3671 -3698 4148 0
-3671 -3699 4149 0
-3672 -3686 4137 0
-3672 -3687 4138 0
-3672 -3688 4139 0
-3672 -3689 4140 0
-3672 -3690 4141 0
-3672 -3691 4142 0
-3672 -3692 4143 0
-3672 -3693 4144 0
-3672 -3694 4145 0
-3672 -3695 4146 0
-3672 -3696 4147 0
-3672 -3697 4148 0
-3672 -3698 4149 0
-3673 -3686 4138 0
-3673 -3687 4139 0
-3673 -3688 4140 0
-3673 -3689 4141 0
-3673 -3690 4142 0
-3673 -3691 4143 0
-3673 -3692 4144 0
-3673 -3693 4145 0
-3673 -3694 4146 0
-3673 -3695 4147 0
-3673 -3696 4148 0
-3673 -3697 4149 0
-3674 -3686 4139 0
-3674 -3687 4140 0
-3674 -3688 4141 0
-3674 -3689 4142 0
-3674 -3690 4143 0
-3674 -3691 4144 0
-3674 -3692 4145 0
-3674 -3693 4146 0
-3674 -3694 4147 0
-3674 -3695 4148 0
-3674 -3696 4149 0
-3675 -3686 4140 0
-3675 -3687 4141 0
-3675 -3688 4142 0
-3675 -3689 4143 0
-3675 -3690 4144 0
-3675 -3691 4145 0
-3675 -3692 4146 0
-3675 -3693 4147 0
-3675 -3694 4148 0
-3675 -3695 4149 0
-3676 -3686 4141 0
-3676 -3687 4142 0
-3676 -3688 4143 0
-3676 -3689 4144 0
-3676 -3690 4145 0
-3676 -3691 4146 0
-3676 -3692 4147 0
-3676 -3693 4148 0
-3676 -3694 4149 0
-3677 -3686 4142 0
-3677 -3687 4143 0
-3677 -3688 4144 0
-3677 -3689 4145 0
-3677 -3690 4146 0
-3677 -3691 4147 0
-3677 -3692 4148 0
-3677 -3693 4149 0
-3678 -3686 4143 0
-3678 -3687 4144 0
-3678 -3688 4145 0
-3678 -3689 4146 0
-3678 -3690 4147 0
-3678 -3691 4148 0
-3678 -3692 4149 0
-3679 -3686 4144 0
-3679 -3687 4145 0
-3679 -3688 4146 0
-3679 -3689 4147 0
-3679 -3690 4148 0
-3679 -3691 4149 0
-3680 -3686 4145 0
-3680 -3687 4146 0
-3680 -3688 4147 0
-3680 -3689 4148 0
-3680 -3690 4149 0
-3681 -3686 4146 0
-3681 -3687 4147 0
-3681 -3688 4148 0
-3681 -3689 4149 0
-3682 -3686 4147 0
-3682 -3687 4148 0
-3682 -3688 4149 0
-3683 -3686 4148 0
-3683 -3687 4149 0
-3684 -3686 4149 0
-3718 4150 0
-3719 4151 0
-3720 4152 0
-3721 4153 0
-3722 4154 0
-3723 4155 0
-3724 4156 0
-3725 4157 0
-3726 4158 0
-3727 4159 0
-3728 4160 0
-3729 4161 0
-3730 4162 0
-3731 4163 0
-3732 4164 0
-3733 4165 0
-3702 4150 0
-3703 4151 0
-3704 4152 0
-3705 4153 0
-3706 4154 0
-3707 4155 0
-3708 4156 0
-3709 4157 0
-3710 4158 0
-3711 4159 0
-3712 4160 0
-3713 4161 0
-3714 4162 0
-3715 4163 0
-3716 4164 0
-3717 4165 0
-3702 -3718 4151 0
-3702 -3719 4152 0
-3702 -3720 4153 0
-3702 -3721 4154 0
-3702 -3722 4155 0
-3702 -3723 4156 0
-3702 -3724 4157 0
-3702 -3725 4158 0
-3702 -3726 4159 0
-3702 -3727 4160 0
-3702 -3728 4161 0
-3702 -3729 4162 0
-3702 -3730 4163 0
-3702 -3731 4164 0
-3702 -3732 4165 0
-3703 -3718 4152 0
-3703 -3719 4153 0
-3703 -3720 4154 0
-3703 -3721 4155 0
-3703 -3722 4156 0
-3703 -3723 4157 0
-3703 -3724 4158 0
-3703 -3725 4159 0
-3703 -3726 4160 0
-3703 -3727 4161 0
-3703 -3728 4162 0
-3703 -3729 4163 0
-3703 -3730 4164 0
-3703 -3731 4165 0
-3704 -3718 4153 0
-3704 -3719 4154 0
-3704 -3720 4155 0
-3704 -3721 4156 0
-3704 -3722 4157 0
-3704 -3723 4158 0
-3704 -3724 4159 0
-3704 -3725 4160 0
-3704 -3726 4161 0
-3704 -3727 4162 0
-3704 -3728 4163 0
-3704 -3729 4164 0
-3704 -3730 4165 0
-3705 -3718 4154 0
-3705 -3719 4155 0
-3705 -3720 4156 0
-3705 -3721 4157 0
-3705 -3722 4158 0
-3705 -3723 4159 0
-3705 -3724 4160 0
-3705 -3725 4161 0
-3705 -3726 4162 0
-3705 -3727 4163 0
-3705 -3728 4164 0
-3705 -3729 4165 0
-3706 -3718 4155 0
-3706 -3719 4156 0
-3706 -3720 4157 0
-3706 -3721 4158 0
-3706 -3722 4159 0
-3706 -3723 4160 0
-3706 -3724 4161 0
-3706 -3725 4162 0
-3706 -3726 4163 0
-3706 -3727 4164 0
-3706 -3728 4165 0
-3707 -3718 4156 0
-3707 -3719 4157 0
-3707 -3720 4158 0
-3707 -3721 4159 0
-3707 -3722 4160 0
-3707 -3723 4161 0
-3707 -3724 4162 0
-3707 -3725 4163 0
-3707 -3726 4164 0
-3707 -3727 4165 0
-3708 -3718 4157 0
-3708 -3719 4158 0
-3708 -3720 4159 0
-3708 -3721 4160 0
-3708 -3722 4161 0
-3708 -3723 4162 0
-3708 -3724 4163 0
-3708 -3725 4164 0
-3708 -3726 4165 0
-3709 -3718 4158 0
-3709 -3719 4159 0
-3709 -3720 4160 0
-3709 -3721 4161 0
-3709 -3722 4162 0
-3709 -3723 4163 0
-3709 -3724 4164 0
-3709 -3725 4165 0
-3710 -3718 4159 0
-3710 -3719 4160 0
-3710 -3720 4161 0
-3710 -3721 4162 0
-3710 -3722 4163 0
-3710 -3723 4164 0
-3710 -3724 4165 0
-3711 -3718 4160 0
-3711 -3719 4161 0
-3711 -3720 4162 0
-3711 -3721 4163 0
-3711 -3722 4164 0
-3711 -3723 4165 0
-3712 -3718 4161 0
-3712 -3719 4162 0
-3712 -3720 4163 0
-3712 -3721 4164 0
-3712 -3722 4165 0
-3713 -3718 4162 0
-3713 -3719 4163 0
-3713 -3720 4164 0
-3713 -3721 4165 0
-3714 -3718 4163 0
-3714 -3719 4164 0
-3714 -3720 4165 0
-3715 -3718 4164 0
-3715 -3719 4165 0
-3716 -3718 4165 0
-3750 4166 0
-3751 4167 0
-3752 4168 0
-3753 4169 0
-3754 4170 0
-3755 4171 0
-3756 4172 0
-3757 4173 0
-3758 4174 0
-3759 4175 0
-3760 4176 0
-3761 4177 0
-3762 4178 0
-3763 4179 0
-3764 4180 0
-3765 4181 0
-3734 4166 0
-3735 4167 0
-3736 4168 0
-3737 4169 0
-3738 4170 0
-3739 4171 0
-3740 4172 0
-3741 4173 0
-3742 4174 0
-3743 4175 0
-3744 4176 0
-3745 4177 0
-3746 4178 0
-3747 4179 0
-3748 4180 0
-3749 4181 0
-3734 -3750 4167 0
-3734 -3751 4168 0
-3734 -3752 4169 0
-3734 -3753 4170 0
-3734 -3754 4171 0
-3734 -3755 4172 0
-3734 -3756 4173 0
-3734 -3757 4174 0
-3734 -3758 4175 0
-3734 -3759 4176 0
-3734 -3760 4177 0
-3734 -3761 4178 0
-3734 -3762 4179 0
-3734 -3763 4180 0
-3734 -3764 4181 0
-3735 -3750 4168 0
-3735 -3751 4169 0
-3735 -3752 4170 0
-3735 -3753 4171 0
-3735 -3754 4172 0
-3735 -3755 4173 0
-3735 -3756 4174 0
-3735 -3757 4175 0
-3735 -3758 4176 0
-3735 -3759 4177 0
-3735 -3760 4178 0
-3735 -3761 4179 0
-3735 -3762 4180 0
-3735 -3763 4181 0
-3736 -3750 4169 0
-3736 -3751 4170 0
-3736 -3752 4171 0
-3736 -3753 4172 0
-3736 -3754 4173 0
-3736 -3755 4174 0
-3736 -3756 4175 0
-3736 -3757 4176 0
-3736 -3758 4177 0
-3736 -3759 4178 0
-3736 -3760 4179 0
-3736 -3761 4180 0
-3736 -3762 4181 0
-3737 -3750 4170 0
-3737 -3751 4171 0
-3737 -3752 4172 0
-3737 -3753 4173 0
-3737 -3754 4174 0
-3737 -3755 4175 0
-3737 -3756 4176 0
-3737 -3757 4177 0
-3737 -3758 4178 0
-3737 -3759 4179 0
-3737 -3760 4180 0
-3737 -3761 4181 0
-3738 -3750 4171 0
-3738 -3751 4172 0
-3738 -3752 4173 0
-3738 -3753 4174 0
-3738 -3754 4175 0
-3738 -3755 4176 0
-3738 -3756 4177 0
-3738 -3757 4178 0
-3738 -3758 4179 0
-3738 -3759 4180 0
-3738 -3760 4181 0
-3739 -3750 4172 0
-3739 -3751 4173 0
-3739 -3752 4174 0
-3739 -3753 4175 0
-3739 -3754 4176 0
-3739 -3755 4177 0
-3739 -3756 4178 0
-3739 -3757 4179 0
-3739 -3758 4180 0
-3739 -3759 4181 0
-3740 -3750 4173 0
-3740 -3751 4174 0
-3740 -3752 4175 0
-3740 -3753 4176 0
-3740 -3754 4177 0
-3740 -3755 4178 0
-3740 -3756 4179 0
-3740 -3757 4180 0
-3740 -3758 4181 0
-3741 -3750 4174 0
-3741 -3751 4175 0
-3741 -3752 4176 0
-3741 -3753 4177 0
-3741 -3754 4178 0
-3741 -3755 4179 0
-3741 -3756 4180 0
-3741 -3757 4181 0
-3742 -3750 4175 0
-3742 -3751 4176 0
-3742 -3752 4177 0
-3742 -3753 4178 0
-3742 -3754 4179 0
-3742 -3755 4180 0
-3742 -3756 4181 0
-3743 -3750 4176 0
-3743 -3751 4177 0
-3743 -3752 4178 0
-3743 -3753 4179 0
-3743 -3754 4180 0
-3743 -3755 4181 0
-3744 -3750 4177 0
-3744 -3751 4178 0
-3744 -3752 4179 0
-3744 -3753 4180 0
-3744 -3754 4181 0
-3745 -3750 4178 0
-3745 -3751 4179 0
-3745 -3752 4180 0
-3745 -3753 4181 0
-3746 -3750 4179 0
-3746 -3751 4180 0
-3746 -3752 4181 0
-3747 -3750 4180 0
-3747 -3751 4181 0
-3748 -3750 4181 0
-3782 4182 0
-3783 4183 0
-3784 4184 0
-3785 4185 0
-3786 4186 0
-3787 4187 0
-3788 4188 0
-3789 4189 0
-3790 4190 0
-3791 4191 0
-3792 4192 0
-3793 4193 0
-3794 4194 0
-3795 4195 0
-3796 4196 0
-3797 4197 0
-3766 4182 0
-3767 4183 0
-3768 4184 0
-3769 4185 0
-3770 4186 0
-3771 4187 0
-3772 4188 0
-3773 4189 0
-3774 4190 0
-3775 4191 0
-3776 4192 0
-3777 4193 0
-3778 4194 0
-3779 4195 0
-3780 4196 0
-3781 4197 0
-3766 -3782 4183 0
-3766 -3783 4184 0
-3766 -3784 4185 0
-3766 -3785 4186 0
-3766 -3786 4187 0
-3766 -3787 4188 0
-3766 -3788 4189 0
-3766 -3789 4190 0
-3766 -3790 4191 0
-3766 -3791 4192 0
-3766 -3792 4193 0
-3766 -3793 4194 0
-3766 -3794 4195 0
-3766 -3795 4196 0
-3766 -3796 4197 0
-3767 -3782 4184 0
-3767 -3783 4185 0
-3767 -3784 4186 0
-3767 -3785 4187 0
-3767 -3786 4188 0
-3767 -3787 4189 0
-3767 -3788 4190 0
-3767 -3789 4191 0
-3767 -3790 4192 0
-3767 -3791 4193 0
-3767 -3792 4194 0
-3767 -3793 4195 0
-3767 -3794 4196 0
-3767 -3795 4197 0
-3768 -3782 4185 0
-3768 -3783 4186 0
-3768 -3784 4187 0
-3768 -3785 4188 0
-3768 -3786 4189 0
-3768 -3787 4190 0
-3768 -3788 4191 0
-3768 -3789 4192 0
-3768 -3790 4193 0
-3768 -3791 4194 0
-3768 -3792 4195 0
-3768 -3793 4196 0
-3768 -3794 4197 0
-3769 -3782 4186 0
-3769 -3783 4187 0
-3769 -3784 4188 0
-3769 -3785 4189 0
-3769 -3786 4190 0
-3769 -3787 4191 0
-3769 -3788 4192 0
-3769 -3789 4193 0
-3769 -3790 4194 0
-3769 -3791 4195 0
-3769 -3792 4196 0
-3769 -3793 4197 0
-3770 -3782 4187 0
-3770 -3783 4188 0
-3770 -3784 4189 0
-3770 -3785 4190 0
-3770 -3786 4191 0
-3770 -3787 4192 0
-3770 -3788 4193 0
-3770 -3789 4194 0
-3770 -3790 4195 0
-3770 -3791 4196 0
-3770 -3792 4197 0
-3771 -3782 4188 0
-3771 -3783 4189 0
-3771 -3784 4190 0
-3771 -3785 4191 0
-3771 -3786 4192 0
-3771 -3787 4193 0
-3771 -3788 4194 0
-3771 -3789 4195 0
-3771 -3790 4196 0
-3771 -3791 4197 0
-3772 -3782 4189 0
-3772 -3783 4190 0
-3772 -3784 4191 0
-3772 -3785 4192 0
-3772 -3786 4193 0
-3772 -3787 4194 0
-3772 -3788 4195 0
-3772 -3789 4196 0
-3772 -3790 4197 0
-3773 -3782 4190 0
-3773 -3783 4191 0
-3773 -3784 4192 0
-3773 -3785 4193 0
-3773 -3786 4194 0
-3773 -3787 4195 0
-3773 -3788 4196 0
-3773 -3789 4197 0
-3774 -3782 4191 0
-3774 -3783 4192 0
-3774 -3784 4193 0
-3774 -3785 4194 0
-3774 -3786 4195 0
-3774 -3787 4196 0
-3774 -3788 4197 0
-3775 -3782 4192 0
-3775 -3783 4193 0
-3775 -3784 4194 0
-3775 -3785 4195 0
-3775 -3786 4196 0
-3775 -3787 4197 0
-3776 -3782 4193 0
-3776 -3783 4194 0
-3776 -3784 4195 0
-3776 -3785 4196 0
-3776 -3786 4197 0
-3777 -3782 4194 0
-3777 -3783 4195 0
-3777 -3784 4196 0
-3777 -3785 4197 0
-3778 -3782 4195 0
-3778 -3783 4196 0
-3778 -3784 4197 0
-3779 -3782 4196 0
-3779 -3783 4197 0
-3780 -3782 4197 0
-3814 4198 0
-3815 4199 0
-3816 4200 0
-3817 4201 0
-3818 4202 0
-3819 4203 0
-3820 4204 0
-3821 4205 0
-3822 4206 0
-3823 4207 0
-3824 4208 0
-3825 4209 0
-3826 4210 0
-3827 4211 0
-3828 4212 0
-3829 4213 0
-3798 4198 0
-3799 4199 0
-3800 4200 0
-3801 4201 0
-3802 4202 0
-3803 4203 0
-3804 4204 0
-3805 4205 0
-3806 4206 0
-3807 4207 0
-3808 4208 0
-3809 4209 0
-3810 4210 0
-3811 4211 0
-3812 4212 0
-3813 4213 0
-3798 -3814 4199 0
-3798 -3815 4200 0
-3798 -3816 4201 0
-3798 -3817 4202 0
-3798 -3818 4203 0
-3798 -3819 4204 0
-3798 -3820 4205 0
-3798 -3821 4206 0
-3798 -3822 4207 0
-3798 -3823 4208 0
-3798 -3824 4209 0
-3798 -3825 4210 0
-3798 -3826 4211 0
-3798 -3827 4212 0
-3798 -3828 4213 0
-3799 -3814 4200 0
-3799 -3815 4201 0
-3799 -3816 4202 0
-3799 -3817 4203 0
-3799 -3818 4204 0
-3799 -3819 4205 0
-3799 -3820 4206 0
-3799 -3821 4207 0
-3799 -3822 4208 0
-3799 -3823 4209 0
-3799 -3824 4210 0
-3799 -3825 4211 0
-3799 -3826 4212 0
-3799 -3827 4213 0
-3800 -3814 4201 0
-3800 -3815 4202 0
-3800 -3816 4203 0
-3800 -3817 4204 0
-3800 -3818 4205 0
-3800 -3819 4206 0
-3800 -3820 4207 0
-3800 -3821 4208 0
-3800 -3822 4209 0
-3800 -3823 4210 0
-3800 -3824 4211 0
-3800 -3825 4212 0
-3800 -3826 4213 0
-3801 -3814 4202 0
-3801 -3815 4203 0
-3801 -3816 4204 0
-3801 -3817 4205 0
-3801 -3818 4206 0
-3801 -3819 4207 0
-3801 -3820 4208 0
-3801 -3821 4209 0
-3801 -3822 4210 0
-3801 -3823 4211 0
-3801 -3824 4212 0
-3801 -3825 4213 0
-3802 -3814 4203 0
-3802 -3815 4204 0
-3802 -3816 4205 0
-3802 -3817 4206 0
-3802 -3818 4207 0
-3802 -3819 4208 0
-3802 -3820 4209 0
-3802 -3821 4210 0
-3802 -3822 4211 0
-3802 -3823 4212 0
-3802 -3824 4213 0
-3803 -3814 4204 0
-3803 -3815 4205 0
-3803 -3816 4206 0
-3803 -3817 4207 0
-3803 -3818 4208 0
-3803 -3819 4209 0
-3803 -3820 4210 0
-3803 -3821 4211 0
-3803 -3822 4212 0
-3803 -3823 4213 0
-3804 -3814 4205 0
-3804 -3815 4206 0
-3804 -3816 4207 0
-3804 -3817 4208 0
-3804 -3818 4209 0
-3804 -3819 4210 0
-3804 -3820 4211 0
-3804 -3821 4212 0
-3804 -3822 4213 0
-3805 -3814 4206 0
-3805 -3815 4207 0
-3805 -3816 4208 0
-3805 -3817 4209 0
-3805 -3818 4210 0
-3805 -3819 4211 0
-3805 -3820 4212 0
-3805 -3821 4213 0
-3806 -3814 4207 0
-3806 -3815 4208 0
-3806 -3816 4209 0
-3806 -3817 4210 0
-3806 -3818 4211 0
-3806 -3819 4212 0
-3806 -3820 4213 0
-3807 -3814 4208 0
-3807 -3815 4209 0
-3807 -3816 4210 0
-3807 -3817 4211 0
-3807 -3818 4212 0
-3807 -3819 4213 0
-3808 -3814 4209 0
-3808 -3815 4210 0
-3808 -3816 4211 0
-3808 -3817 4212 0
-3808 -3818 4213 0
-3809 -3814 4210 0
-3809 -3815 4211 0
-3809 -3816 4212 0
-3809 -3817 4213 0
-3810 -3814 4211 0
-3810 -3815 4212 0
-3810 -3816 4213 0
-3811 -3814 4212 0
-3811 -3815 4213 0
-3812 -3814 4213 0
-3846 4214 0
-3847 4215 0
-3848 4216 0
-3849 4217 0
-3850 4218 0
-3851 4219 0
-3852 4220 0
-3853 4221 0
-3854 4222 0
-3855 4223 0
-3856 4224 0
-3857 4225 0
-3858 4226 0
-3859 4227 0
-3860 4228 0
-3861 4229 0
-3830 4214 0
-3831 4215 0
-3832 4216 0
-3833 4217 0
-3834 4218 0
-3835 4219 0
-3836 4220 0
-3837 4221 0
-3838 4222 0
-3839 4223 0
-3840 4224 0
-3841 4225 0
-3842 4226 0
-3843 4227 0
-3844 4228 0
-3845 4229 0
-3830 -3846 4215 0
-3830 -3847 4216 0
-3830 -3848 4217 0
-3830 -3849 4218 0
-3830 -3850 4219 0
-3830 -3851 4220 0
-3830 -3852 4221 0
-3830 -3853 4222 0
-3830 -3854 4223 0
-3830 -3855 4224 0
-3830 -3856 4225 0
-3830 -3857 4226 0
-3830 -3858 4227 0
-3830 -3859 4228 0
-3830 -3860 4229 0
-3831 -3846 4216 0
-3831 -3847 4217 0
-3831 -3848 4218 0
-3831 -3849 4219 0
-3831 -3850 4220 0
-3831 -3851 4221 0
-3831 -3852 4222 0
-3831 -3853 4223 0
-3831 -3854 4224 0
-3831 -3855 4225 0
-3831 -3856 4226 0
-3831 -3857 4227 0
-3831 -3858 4228 0
-3831 -3859 4229 0
-3832 -3846 4217 0
-3832 -3847 4218 0
-3832 -3848 4219 0
-3832 -3849 4220 0
-3832 -3850 4221 0
-3832 -3851 4222 0
-3832 -3852 4223 0
-3832 -3853 4224 0
-3832 -3854 4225 0
-3832 -3855 4226 0
-3832 -3856 4227 0
-3832 -3857 4228 0
-3832 -3858 4229 0
-3833 -3846 4218 0
-3833 -3847 4219 0
-3833 -3848 4220 0
-3833 -3849 4221 0
-3833 -3850 4222 0
-3833 -3851 4223 0
-3833 -3852 4224 0
-3833 -3853 4225 0
-3833 -3854 4226 0
-3833 -3855 4227 0
-3833 -3856 4228 0
-3833 -3857 4229 0
-3834 -3846 4219 0
-3834 -3847 4220 0
-3834 -3848 4221 0
-3834 -3849 4222 0
-3834 -3850 4223 0
-3834 -3851 4224 0
-3834 -3852 4225 0
-3834 -3853 4226 0
-3834 -3854 4227 0
-3834 -3855 4228 0
-3834 -3856 4229 0
-3835 -3846 4220 0
-3835 -3847 4221 0
-3835 -3848 4222 0
-3835 -3849 4223 0
-3835 -3850 4224 0
-3835 -3851 4225 0
-3835 -3852 4226 0
-3835 -3853 4227 0
-3835 -3854 4228 0
-3835 -3855 4229 0
-3836 -3846 4221 0
-3836 -3847 4222 0
-3836 -3848 4223 0
-3836 -3849 4224 0
-3836 -3850 4225 0
-3836 -3851 4226 0
-3836 -3852 4227 0
-3836 -3853 4228 0
-3836 -3854 4229 0
-3837 -3846 4222 0
-3837 -3847 4223 0
-3837 -3848 4224 0
-3837 -3849 4225 0
-3837 -3850 4226 0
-3837 -3851 4227 0
-3837 -3852 4228 0
-3837 -3853 4229 0
-3838 -3846 4223 0
-3838 -3847 4224 0
-3838 -3848 4225 0
-3838 -3849 4226 0
-3838 -3850 4227 0
-3838 -3851 4228 0
-3838 -3852 4229 0
-3839 -3846 4224 0
-3839 -3847 4225 0
-3839 -3848 4226 0
-3839 -3849 4227 0
-3839 -3850 4228 0
-3839 -3851 4229 0
-3840 -3846 4225 0
-3840 -3847 4226 0
-3840 -3848 4227 0
-3840 -3849 4228 0
-3840 -3850 4229 0
-3841 -3846 4226 0
-3841 -3847 4227 0
-3841 -3848 4228 0
-3841 -3849 4229 0
-3842 -3846 4227 0
-3842 -3847 4228 0
-3842 -3848 4229 0
-3843 -3846 4228 0
-3843 -3847 4229 0
-3844 -3846 4229 0
-3878 4230 0
-3879 4231 0
-3880 4232 0
-3881 4233 0
-3882 4234 0
-3883 4235 0
-3884 4236 0
-3885 4237 0
-3886 4238 0
-3887 4239 0
-3888 4240 0
-3889 4241 0
-3890 4242 0
-3891 4243 0
-3892 4244 0
-3893 4245 0
-3862 4230 0
-3863 4231 0
-3864 4232 0
-3865 4233 0
-3866 4234 0
-3867 4235 0
-3868 4236 0
-3869 4237 0
-3870 4238 0
-3871 4239 0
-3872 4240 0
-3873 4241 0
-3874 4242 0
-3875 4243 0
-3876 4244 0
-3877 4245 0
-3862 -3878 4231 0
-3862 -3879 4232 0
-3862 -3880 4233 0
-3862 -3881 4234 0
-3862 -3882 4235 0
-3862 -3883 4236 0
-3862 -3884 4237 0
-3862 -3885 4238 0
-3862 -3886 4239 0
-3862 -3887 4240 0
-3862 -3888 4241 0
-3862 -3889 4242 0
-3862 -3890 4243 0
-3862 -3891 4244 0
-3862 -3892 4245 0
-3863 -3878 4232 0
-3863 -3879 4233 0
-3863 -3880 4234 0
-3863 -3881 4235 0
-3863 -3882 4236 0
-3863 -3883 4237 0
-3863 -3884 4238 0
-3863 -3885 4239 0
-3863 -3886 4240 0
-3863 -3887 4241 0
-3863 -3888 4242 0
-3863 -3889 4243 0
-3863 -3890 4244 0
-3863 -3891 4245 0
-3864 -3878 4233 0
-3864 -3879 4234 0
-3864 -3880 4235 0
-3864 -3881 4236 0
-3864 -3882 4237 0
-3864 -3883 4238 0
-3864 -3884 4239 0
-3864 -3885 4240 0
-3864 -3886 4241 0
-3864 -3887 4242 0
-3864 -3888 4243 0
-3864 -3889 4244 0
-3864 -3890 4245 0
-3865 -3878 4234 0
-3865 -3879 4235 0
-3865 -3880 4236 0
-3865 -3881 4237 0
-3865 -3882 4238 0
-3865 -3883 4239 0
-3865 -3884 4240 0
-3865 -3885 4241 0
-3865 -3886 4242 0
-3865 -3887 4243 0
-3865 -3888 4244 0
-3865 -3889 4245 0
-3866 -3878 4235 0
-3866 -3879 4236 0
-3866 -3880 4237 0
-3866 -3881 4238 0
-3866 -3882 4239 0
-3866 -3883 4240 0
-3866 -3884 4241 0
-3866 -3885 4242 0
-3866 -3886 4243 0
-3866 -3887 4244 0
-3866 -3888 4245 0
-3867 -3878 4236 0
-3867 -3879 4237 0
-3867 -3880 4238 0
-3867 -3881 4239 0
-3867 -3882 4240 0
-3867 -3883 4241 0
-3867 -3884 4242 0
-3867 -3885 4243 0
-3867 -3886 4244 0
-3867 -3887 4245 0
-3868 -3878 4237 0
-3868 -3879 4238 0
-3868 -3880 4239 0
-3868 -3881 4240 0
-3868 -3882 4241 0
-3868 -3883 4242 0
-3868 -3884 4243 0
-3868 -3885 4244 0
-3868 -3886 4245 0
-3869 -3878 4238 0
-3869 -3879 4239 0
-3869 -3880 4240 0
-3869 -3881 4241 0
-3869 -3882 4242 0
-3869 -3883 4243 0
-3869 -3884 4244 0
-3869 -3885 4245 0
-3870 -3878 4239 0
-3870 -3879 4240 0
-3870 -3880 4241 0
-3870 -3881 4242 0
-3870 -3882 4243 0
-3870 -3883 4244 0
-3870 -3884 4245 0
-3871 -3878 4240 0
-3871 -3879 4241 0
-3871 -3880 4242 0
-3871 -3881 4243 0
-3871 -3882 4244 0
-3871 -3883 4245 0
-3872 -3878 4241 0
-3872 -3879 4242 0
-3872 -3880 4243 0
-3872 -3881 4244 0
-3872 -3882 4245 0
-3873 -3878 4242 0
-3873 -3879 4243 0
-3873 -3880 4244 0
-3873 -3881 4245 0
-3874 -3878 4243 0
-3874 -3879 4244 0
-3874 -3880 4245 0
-3875 -3878 4244 0
-3875 -3879 4245 0
-3876 -3878 4245 0
-3910 4246 0
-3911 4247 0
-3912 4248 0
-3913 4249 0
-3914 4250 0
-3915 4251 0
-3916 4252 0
-3917 4253 0
-3918 4254 0
-3919 4255 0
-3920 4256 0
-3921 4257 0
-3922 4258 0
-3923 4259 0
-3924 4260 0
-3925 4261 0
-3894 4246 0
-3895 4247 0
-3896 4248 0
-3897 4249 0
-3898 4250 0
-3899 4251 0
-3900 4252 0
-3901 4253 0
-3902 4254 0
-3903 4255 0
-3904 4256 0
-3905 4257 0
-3906 4258 0
-3907 4259 0
-3908 4260 0
-3909 4261 0
-3894 -3910 4247 0
-3894 -3911 4248 0
-3894 -3912 4249 0
-3894 -3913 4250 0
-3894 -3914 4251 0
-3894 -3915 4252 0
-3894 -3916 4253 0
-3894 -3917 4254 0
-3894 -3918 4255 0
-3894 -3919 4256 0
-3894 -3920 4257 0
-3894 -3921 4258 0
-3894 -3922 4259 0
-3894 -3923 4260 0
-3894 -3924 4261 0
-3895 -3910 4248 0
-3895 -3911 4249 0
-3895 -3912 4250 0
-3895 -3913 4251 0
-3895 -3914 4252 0
-3895 -3915 4253 0
-3895 -3916 4254 0
-3895 -3917 4255 0
-3895 -3918 4256 0
-3895 -3919 4257 0
-3895 -3920 4258 0
-3895 -3921 4259 0
-3895 -3922 4260 0
-3895 -3923 4261 0
-3896 -3910 4249 0
-3896 -3911 4250 0
-3896 -3912 4251 0
-3896 -3913 4252 0
-3896 -3914 4253 0
-3896 -3915 4254 0
-3896 -3916 4255 0
-3896 -3917 4256 0
-3896 -3918 4257 0
-3896 -3919 4258 0
-3896 -3920 4259 0
-3896 -3921 4260 0
-3896 -3922 4261 0
-3897 -3910 4250 0
-3897 -3911 4251 0
-3897 -3912 4252 0
-3897 -3913 4253 0
-3897 -3914 4254 0
-3897 -3915 4255 0
-3897 -3916 4256 0
-3897 -3917 4257 0
-3897 -3918 4258 0
-3897 -3919 4259 0
-3897 -3920 4260 0
-3897 -3921 4261 0
-3898 -3910 4251 0
-3898 -3911 4252 0
-3898 -3912 4253 0
-3898 -3913 4254 0
-3898 -3914 4255 0
-3898 -3915 4256 0
-3898 -3916 4257 0
-3898 -3917 4258 0
-3898 -3918 4259 0
-3898 -3919 4260 0
-3898 -3920 4261 0
-3899 -3910 4252 0
-3899 -3911 4253 0
-3899 -3912 4254 0
-3899 -3913 4255 0
-3899 -3914 4256 0
-3899 -3915 4257 0
-3899 -3916 4258 0
-3899 -3917 4259 0
-3899 -3918 4260 0
-3899 -3919 4261 0
-3900 -3910 4253 0
-3900 -3911 4254 0
-3900 -3912 4255 0
-3900 -3913 4256 0
-3900 -3914 4257 0
-3900 -3915 4258 0
-3900 -3916 4259 0
-3900 -3917 4260 0
-3900 -3918 4261 0
-3901 -3910 4254 0
-3901 -3911 4255 0
-3901 -3912 4256 0
-3901 -3913 4257 0
-3901 -3914 4258 0
-3901 -3915 4259 0
-3901 -3916 4260 0
-3901 -3917 4261 0
-3902 -3910 4255 0
-3902 -3911 4256 0
-3902 -3912 4257 0
-3902 -3913 4258 0
-3902 -3914 4259 0
-3902 -3915 4260 0
-3902 -3916 4261 0
-3903 -3910 4256 0
-3903 -3911 4257 0
-3903 -3912 4258 0
-3903 -3913 4259 0
-3903 -3914 4260 0
-3903 -3915 4261 0
-3904 -3910 4257 0
-3904 -3911 4258 0
-3904 -3912 4259 0
-3904 -3913 4260 0
-3904 -3914 4261 0
-3905 -3910 4258 0
-3905 -3911 4259 0
-3905 -3912 4260 0
-3905 -3913 4261 0
-3906 -3910 4259 0
-3906 -3911 4260 0
-3906 -3912 4261 0
-3907 -3910 4260 0
-3907 -3911 4261 0
-3908 -3910 4261 0
-3942 4262 0
-3943 4263 0
-3944 4264 0
-3945 4265 0
-3946 4266 0
-3947 4267 0
-3948 4268 0
-3949 4269 0
-3950 4270 0
-3951 4271 0
-3952 4272 0
-3953 4273 0
-3954 4274 0
-3955 4275 0
-3956 4276 0
-3957 4277 0
-3926 4262 0
-3927 4263 0
-3928 4264 0
-3929 4265 0
-3930 4266 0
-3931 4267 0
-3932 4268 0
-3933 4269 0
-3934 4270 0
-3935 4271 0
-3936 4272 0
-3937 4273 0
-3938 4274 0
-3939 4275 0
-3940 4276 0
-3941 4277 0
-3926 -3942 4263 0
-3926 -3943 4264 0
-3926 -3944 4265 0
-3926 -3945 4266 0
-3926 -3946 4267 0
-3926 -3947 4268 0
-3926 -3948 4269 0
-3926 -3949 4270 0
-3926 -3950 4271 0
-3926 -3951 4272 0
-3926 -3952 4273 0
-3926 -3953 4274 0
-3926 -3954 4275 0
-3926 -3955 4276 0
-3926 -3956 4277 0
-3927 -3942 4264 0
-3927 -3943 4265 0
-3927 -3944 4266 0
-3927 -3945 4267 0
-3927 -3946 4268 0
-3927 -3947 4269 0
-3927 -3948 4270 0
-3927 -3949 4271 0
-3927 -3950 4272 0
-3927 -3951 4273 0
-3927 -3952 4274 0
-3927 -3953 4275 0
-3927 -3954 4276 0
-3927 -3955 4277 0
-3928 -3942 4265 0
-3928 -3943 4266 0
-3928 -3944 4267 0
-3928 -3945 4268 0
-3928 -3946 4269 0
-3928 -3947 4270 0
-3928 -3948 4271 0
-3928 -3949 4272 0
-3928 -3950 4273 0
-3928 -3951 4274 0
-3928 -3952 4275 0
-3928 -3953 4276 0
-3928 -3954 4277 0
-3929 -3942 4266 0
-3929 -3943 4267 0
-3929 -3944 4268 0
-3929 -3945 4269 0
-3929 -3946 4270 0
-3929 -3947 4271 0
-3929 -3948 4272 0
-3929 -3949 4273 0
-3929 -3950 4274 0
-3929 -3951 4275 0
-3929 -3952 4276 0
-3929 -3953 4277 0
-3930 -3942 4267 0
-3930 -3943 4268 0
-3930 -3944 4269 0
-3930 -3945 4270 0
-3930 -3946 4271 0
-3930 -3947 4272 0
-3930 -3948 4273 0
-3930 -3949 4274 0
-3930 -3950 4275 0
-3930 -3951 4276 0
-3930 -3952 4277 0
-3931 -3942 4268 0
-3931 -3943 4269 0
-3931 -3944 4270 0
-3931 -3945 4271 0
-3931 -3946 4272 0
-3931 -3947 4273 0
-3931 -3948 4274 0
-3931 -3949 4275 0
-3931 -3950 4276 0
-3931 -3951 4277 0
-3932 -3942 4269 0
-3932 -3943 4270 0
-3932 -3944 4271 0
-3932 -3945 4272 0
-3932 -3946 4273 0
-3932 -3947 4274 0
-3932 -3948 4275 0
-3932 -3949 4276 0
-3932 -3950 4277 0
-3933 -3942 4270 0
-3933 -3943 4271 0
-3933 -3944 4272 0
-3933 -3945 4273 0
-3933 -3946 4274 0
-3933 -3947 4275 0
-3933 -3948 4276 0
-3933 -3949 4277 0
-3934 -3942 4271 0
-3934 -3943 4272 0
-3934 -3944 4273 0
-3934 -3945 4274 0
-3934 -3946 4275 0
-3934 -3947 4276 0
-3934 -3948 4277 0
-3935 -3942 4272 0
-3935 -3943 4273 0
-3935 -3944 4274 0
-3935 -3945 4275 0
-3935 -3946 4276 0
-3935 -3947 4277 0
-3936 -3942 4273 0
-3936 -3943 4274 0
-3936 -3944 4275 0
-3936 -3945 4276 0
-3936 -3946 4277 0
-3937 -3942 4274 0
-3937 -3943 4275 0
-3937 -3944 4276 0
-3937 -3945 4277 0
-3938 -3942 4275 0
-3938 -3943 4276 0
-3938 -3944 4277 0
-3939 -3942 4276 0
-3939 -3943 4277 0
-3940 -3942 4277 0
-3974 4278 0
-3975 4279 0
-3976 4280 0
-3977 4281 0
-3978 4282 0
-3979 4283 0
-3980 4284 0
-3981 4285 0
-3982 4286 0
-3983 4287 0
-3984 4288 0
-3985 4289 0
-3986 4290 0
-3987 4291 0
-3988 4292 0
-3989 4293 0
-3958 4278 0
-3959 4279 0
-3960 4280 0
-3961 4281 0
-3962 4282 0
-3963 4283 0
-3964 4284 0
-3965 4285 0
-3966 4286 0
-3967 4287 0
-3968 4288 0
-3969 4289 0
-3970 4290 0
-3971 4291 0
-3972 4292 0
-3973 4293 0
-3958 -3974 4279 0
-3958 -3975 4280 0
-3958 -3976 4281 0
-3958 -3977 4282 0
-3958 -3978 4283 0
-3958 -3979 4284 0
-3958 -3980 4285 0
-3958 -3981 4286 0
-3958 -3982 4287 0
-3958 -3983 4288 0
-3958 -3984 4289 0
-3958 -3985 4290 0
-3958 -3986 4291 0
-3958 -3987 4292 0
-3958 -3988 4293 0
-3959 -3974 4280 0
-3959 -3975 4281 0
-3959 -3976 4282 0
-3959 -3977 4283 0
-3959 -3978 4284 0
-3959 -3979 4285 0
-3959 -3980 4286 0
-3959 -3981 4287 0
-3959 -3982 4288 0
-3959 -3983 4289 0
-3959 -3984 4290 0
-3959 -3985 4291 0
-3959 -3986 4292 0
-3959 -3987 4293 0
-3960 -3974 4281 0
-3960 -3975 4282 0
-3960 -3976 4283 0
-3960 -3977 4284 0
-3960 -3978 4285 0
-3960 -3979 4286 0
-3960 -3980 4287 0
-3960 -3981 4288 0
-3960 -3982 4289 0
-3960 -3983 4290 0
-3960 -3984 4291 0
-3960 -3985 4292 0
-3960 -3986 4293 0
-3961 -3974 4282 0
-3961 -3975 4283 0
-3961 -3976 4284 0
-3961 -3977 4285 0
-3961 -3978 4286 0
-3961 -3979 4287 0
-3961 -3980 4288 0
-3961 -3981 4289 0
-3961 -3982 4290 0
-3961 -3983 4291 0
-3961 -3984 4292 0
-3961 -3985 4293 0
-3962 -3974 4283 0
-3962 -3975 4284 0
-3962 -3976 4285 0
-3962 -3977 4286 0
-3962 -3978 4287 0
-3962 -3979 4288 0
-3962 -3980 4289 0
-3962 -3981 4290 0
-3962 -3982 4291 0
-3962 -3983 4292 0
-3962 -3984 4293 0
-3963 -3974 4284 0
-3963 -3975 4285 0
-3963 -3976 4286 0
-3963 -3977 4287 0
-3963 -3978 4288 0
-3963 -3979 4289 0
-3963 -3980 4290 0
-3963 -3981 4291 0
-3963 -3982 4292 0
-3963 -3983 4293 0
-3964 -3974 4285 0
-3964 -3975 4286 0
-3964 -3976 4287 0
-3964 -3977 4288 0
-3964 -3978 4289 0
-3964 -3979 4290 0
-3964 -3980 4291 0
-3964 -3981 4292 0
-3964 -3982 4293 0
-3965 -3974 4286 0
-3965 -3975 4287 0
-3965 -3976 4288 0
-3965 -3977 4289 0
-3965 -3978 4290 0
-3965 -3979 4291 0
-3965 -3980 4292 0
-3965 -3981 4293 0
-3966 -3974 4287 0
-3966 -3975 4288 0
-3966 -3976 4289 0
-3966 -3977 4290 0
-3966 -3978 4291 0
-3966 -3979 4292 0
-3966 -3980 4293 0
-3967 -3974 4288 0
-3967 -3975 4289 0
-3967 -3976 4290 0
-3967 -3977 4291 0
-3967 -3978 4292 0
-3967 -3979 4293 0
-3968 -3974 4289 0
-3968 -3975 4290 0
-3968 -3976 4291 0
-3968 -3977 4292 0
-3968 -3978 4293 0
-3969 -3974 4290 0
-3969 -3975 4291 0
-3969 -3976 4292 0
-3969 -3977 4293 0
-3970 -3974 4291 0
-3970 -3975 4292 0
-3970 -3976 4293 0
-3971 -3974 4292 0
-3971 -3975 4293 0
-3972 -3974 4293 0
-4006 4294 0
-4007 4295 0
-4008 4296 0
-4009 4297 0
-4010 4298 0
-4011 4299 0
-4012 4300 0
-4013 4301 0
-4014 4302 0
-4015 4303 0
-4016 4304 0
-4017 4305 0
-4018 4306 0
-4019 4307 0
-4020 4308 0
-4021 4309 0
-3990 4294 0
-3991 4295 0
-3992 4296 0
-3993 4297 0
-3994 4298 0
-3995 4299 0
-3996 4300 0
-3997 4301 0
-3998 4302 0
-3999 4303 0
-4000 4304 0
-4001 4305 0
-4002 4306 0
-4003 4307 0
-4004 4308 0
-4005 4309 0
-3990 -4006 4295 0
-3990 -4007 4296 0
-3990 -4008 4297 0
-3990 -4009 4298 0
-3990 -4010 4299 0
-3990 -4011 4300 0
-3990 -4012 4301 0
-3990 -4013 4302 0
-3990 -4014 4303 0
-3990 -4015 4304 0
-3990 -4016 4305 0
-3990 -4017 4306 0
-3990 -4018 4307 0
-3990 -4019 4308 0
-3990 -4020 4309 0
-3991 -4006 4296 0
-3991 -4007 4297 0
-3991 -4008 4298 0
-3991 -4009 4299 0
-3991 -4010 4300 0
-3991 -4011 4301 0
-3991 -4012 4302 0
-3991 -4013 4303 0
-3991 -4014 4304 0
-3991 -4015 4305 0
-3991 -4016 4306 0
-3991 -4017 4307 0
-3991 -4018 4308 0
-3991 -4019 4309 0
-3992 -4006 4297 0
-3992 -4007 4298 0
-3992 -4008 4299 0
-3992 -4009 4300 0
-3992 -4010 4301 0
-3992 -4011 4302 0
-3992 -4012 4303 0
-3992 -4013 4304 0
-3992 -4014 4305 0
-3992 -4015 4306 0
-3992 -4016 4307 0
-3992 -4017 4308 0
-3992 -4018 4309 0
-3993 -4006 4298 0
-3993 -4007 4299 0
-3993 -4008 4300 0
-3993 -4009 4301 0
-3993 -4010 4302 0
-3993 -4011 4303 0
-3993 -4012 4304 0
-3993 -4013 4305 0
-3993 -4014 4306 0
-3993 -4015 4307 0
-3993 -4016 4308 0
-3993 -4017 4309 0
-3994 -4006 4299 0
-3994 -4007 4300 0
-3994 -4008 4301 0
-3994 -4009 4302 0
-3994 -4010 4303 0
-3994 -4011 4304 0
-3994 -4012 4305 0
-3994 -4013 4306 0
-3994 -4014 4307 0
-3994 -4015 4308 0
-3994 -4016 4309 0
-3995 -4006 4300 0
-3995 -4007 4301 0
-3995 -4008 4302 0
-3995 -4009 4303 0
-3995 -4010 4304 0
-3995 -4011 4305 0
-3995 -4012 4306 0
-3995 -4013 4307 0
-3995 -4014 4308 0
-3995 -4015 4309 0
-3996 -4006 4301 0
-3996 -4007 4302 0
-3996 -4008 4303 0
-3996 -4009 4304 0
-3996 -4010 4305 0
-3996 -4011 4306 0
-3996 -4012 4307 0
-3996 -4013 4308 0
-3996 -4014 4309 0
-3997 -4006 4302 0
-3997 -4007 4303 0
-3997 -4008 4304 0
-3997 -4009 4305 0
-3997 -4010 4306 0
-3997 -4011 4307 0
-3997 -4012 4308 0
-3997 -4013 4309 0
-3998 -4006 4303 0
-3998 -4007 4304 0
-3998 -4008 4305 0
-3998 -4009 4306 0
-3998 -4010 4307 0
-3998 -4011 4308 0
-3998 -4012 4309 0
-3999 -4006 4304 0
-3999 -4007 4305 0
-3999 -4008 4306 0
-3999 -4009 4307 0
-3999 -4010 4308 0
-3999 -4011 4309 0
-4000 -4006 4305 0
-4000 -4007 4306 0
-4000 -4008 4307 0
-4000 -4009 4308 0
-4000 -4010 4309 0
-4001 -4006 4306 0
-4001 -4007 4307 0
-4001 -4008 4308 0
-4001 -4009 4309 0
-4002 -4006 4307 0
-4002 -4007 4308 0
-4002 -4008 4309 0
-4003 -4006 4308 0
-4003 -4007 4309 0
-4004 -4006 4309 0
-4038 4310 0
-4039 4311 0
-4040 4312 0
-4041 4313 0
-4042 4314 0
-4043 4315 0
-4044 4316 0
-4045 4317 0
-4046 4318 0
-4047 4319 0
-4048 4320 0
-4049 4321 0
-4050 4322 0
-4051 4323 0
-4052 4324 0
-4053 4325 0
-4022 4310 0
-4023 4311 0
-4024 4312 0
-4025 4313 0
-4026 4314 0
-4027 4315 0
-4028 4316 0
-4029 4317 0
-4030 4318 0
-4031 4319 0
-4032 4320 0
-4033 4321 0
-4034 4322 0
-4035 4323 0
-4036 4324 0
-4037 4325 0
-4022 -4038 4311 0
-4022 -4039 4312 0
-4022 -4040 4313 0
-4022 -4041 4314 0
-4022 -4042 4315 0
-4022 -4043 4316 0
-4022 -4044 4317 0
-4022 -4045 4318 0
-4022 -4046 4319 0
-4022 -4047 4320 0
-4022 -4048 4321 0
-4022 -4049 4322 0
-4022 -4050 4323 0
-4022 -4051 4324 0
-4022 -4052 4325 0
-4023 -4038 4312 0
-4023 -4039 4313 0
-4023 -4040 4314 0
-4023 -4041 4315 0
-4023 -4042 4316 0
-4023 -4043 4317 0
-4023 -4044 4318 0
-4023 -4045 4319 0
-4023 -4046 4320 0
-4023 -4047 4321 0
-4023 -4048 4322 0
-4023 -4049 4323 0
-4023 -4050 4324 0
-4023 -4051 4325 0
-4024 -4038 4313 0
-4024 -4039 4314 0
-4024 -4040 4315 0
-4024 -4041 4316 0
-4024 -4042 4317 0
-4024 -4043 4318 0
-4024 -4044 4319 0
-4024 -4045 4320 0
-4024 -4046 4321 0
-4024 -4047 4322 0
-4024 -4048 4323 0
-4024 -4049 4324 0
-4024 -4050 4325 0
-4025 -4038 4314 0
-4025 -4039 4315 0
-4025 -4040 4316 0
-4025 -4041 4317 0
-4025 -4042 4318 0
-4025 -4043 4319 0
-4025 -4044 4320 0
-4025 -4045 4321 0
-4025 -4046 4322 0
-4025 -4047 4323 0
-4025 -4048 4324 0
-4025 -4049 4325 0
-4026 -4038 4315 0
-4026 -4039 4316 0
-4026 -4040 4317 0
-4026 -4041 4318 0
-4026 -4042 4319 0
-4026 -4043 4320 0
-4026 -4044 4321 0
-4026 -4045 4322 0
-4026 -4046 4323 0
-4026 -4047 4324 0
-4026 -4048 4325 0
-4027 -4038 4316 0
-4027 -4039 4317 0
-4027 -4040 4318 0
-4027 -4041 4319 0
-4027 -4042 4320 0
-4027 -4043 4321 0
-4027 -4044 4322 0
-4027 -4045 4323 0
-4027 -4046 4324 0
-4027 -4047 4325 0
-4028 -4038 4317 0
-4028 -4039 4318 0
-4028 -4040 4319 0
-4028 -4041 4320 0
-4028 -4042 4321 0
-4028 -4043 4322 0
-4028 -4044 4323 0
-4028 -4045 4324 0
-4028 -4046 4325 0
-4029 -4038 4318 0
-4029 -4039 4319 0
-4029 -4040 4320 0
-4029 -4041 4321 0
-4029 -4042 4322 0
-4029 -4043 4323 0
-4029 -4044 4324 0
-4029 -4045 4325 0
-4030 -4038 4319 0
-4030 -4039 4320 0
-4030 -4040 4321 0
-4030 -4041 4322 0
-4030 -4042 4323 0
-4030 -4043 4324 0
-4030 -4044 4325 0
-4031 -4038 4320 0
-4031 -4039 4321 0
-4031 -4040 4322 0
-4031 -4041 4323 0
-4031 -4042 4324 0
-4031 -4043 4325 0
-4032 -4038 4321 0
-4032 -4039 4322 0
-4032 -4040 4323 0
-4032 -4041 4324 0
-4032 -4042 4325 0
-4033 -4038 4322 0
-4033 -4039 4323 0
-4033 -4040 4324 0
-4033 -4041 4325 0
-4034 -4038 4323 0
-4034 -4039 4324 0
-4034 -4040 4325 0
-4035 -4038 4324 0
-4035 -4039 4325 0
-4036 -4038 4325 0
-4070 4326 0
-4071 4327 0
-4072 4328 0
-4073 4329 0
-4074 4330 0
-4075 4331 0
-4076 4332 0
-4077 4333 0
-4078 4334 0
-4079 4335 0
-4080 4336 0
-4081 4337 0
-4082 4338 0
-4083 4339 0
-4084 4340 0
-4085 4341 0
-4054 4326 0
-4055 4327 0
-4056 4328 0
-4057 4329 0
-4058 4330 0
-4059 4331 0
-4060 4332 0
-4061 4333 0
-4062 4334 0
-4063 4335 0
-4064 4336 0
-4065 4337 0
-4066 4338 0
-4067 4339 0
-4068 4340 0
-4069 4341 0
-4054 -4070 4327 0
-4054 -4071 4328 0
-4054 -4072 4329 0
-4054 -4073 4330 0
-4054 -4074 4331 0
-4054 -4075 4332 0
-4054 -4076 4333 0
-4054 -4077 4334 0
-4054 -4078 4335 0
-4054 -4079 4336 0
-4054 -4080 4337 0
-4054 -4081 4338 0
-4054 -4082 4339 0
-4054 -4083 4340 0
-4054 -4084 4341 0
-4055 -4070 4328 0
-4055 -4071 4329 0
-4055 -4072 4330 0
-4055 -4073 4331 0
-4055 -4074 4332 0
-4055 -4075 4333 0
-4055 -4076 4334 0
-4055 -4077 4335 0
-4055 -4078 4336 0
-4055 -4079 4337 0
-4055 -4080 4338 0
-4055 -4081 4339 0
-4055 -4082 4340 0
-4055 -4083 4341 0
-4056 -4070 4329 0
-4056 -4071 4330 0
-4056 -4072 4331 0
-4056 -4073 4332 0
-4056 -4074 4333 0
-4056 -4075 4334 0
-4056 -4076 4335 0
-4056 -4077 4336 0
-4056 -4078 4337 0
-4056 -4079 4338 0
-4056 -4080 4339 0
-4056 -4081 4340 0
-4056 -4082 4341 0
-4057 -4070 4330 0
-4057 -4071 4331 0
-4057 -4072 4332 0
-4057 -4073 4333 0
-4057 -4074 4334 0
-4057 -4075 4335 0
-4057 -4076 4336 0
-4057 -4077 4337 0
-4057 -4078 4338 0
-4057 -4079 4339 0
-4057 -4080 4340 0
-4057 -4081 4341 0
-4058 -4070 4331 0
-4058 -4071 4332 0
-4058 -4072 4333 0
-4058 -4073 4334 0
-4058 -4074 4335 0
-4058 -4075 4336 0
-4058 -4076 4337 0
-4058 -4077 4338 0
-4058 -4078 4339 0
-4058 -4079 4340 0
-4058 -4080 4341 0
-4059 -4070 4332 0
-4059 -4071 4333 0
-4059 -4072 4334 0
-4059 -4073 4335 0
-4059 -4074 4336 0
-4059 -4075 4337 0
-4059 -4076 4338 0
-4059 -4077 4339 0
-4059 -4078 4340 0
-4059 -4079 4341 0
-4060 -4070 4333 0
-4060 -4071 4334 0
-4060 -4072 4335 0
-4060 -4073 4336 0
-4060 -4074 4337 0
-4060 -4075 4338 0
-4060 -4076 4339 0
-4060 -4077 4340 0
-4060 -4078 4341 0
-4061 -4070 4334 0
-4061 -4071 4335 0
-4061 -4072 4336 0
-4061 -4073 4337 0
-4061 -4074 4338 0
-4061 -4075 4339 0
-4061 -4076 4340 0
-4061 -4077 4341 0
-4062 -4070 4335 0
-4062 -4071 4336 0
-4062 -4072 4337 0
-4062 -4073 4338 0
-4062 -4074 4339 0
-4062 -4075 4340 0
-4062 -4076 4341 0
-4063 -4070 4336 0
-4063 -4071 4337 0
-4063 -4072 4338 0
-4063 -4073 4339 0
-4063 -4074 4340 0
-4063 -4075 4341 0
-4064 -4070 4337 0
-4064 -4071 4338 0
-4064 -4072 4339 0
-4064 -4073 4340 0
-4064 -4074 4341 0
-4065 -4070 4338 0
-4065 -4071 4339 0
-4065 -4072 4340 0
-4065 -4073 4341 0
-4066 -4070 4339 0
-4066 -4071 4340 0
-4066 -4072 4341 0
-4067 -4070 4340 0
-4067 -4071 4341 0
-4068 -4070 4341 0
-4102 4342 0
-4103 4343 0
-4104 4344 0
-4105 4345 0
-4106 4346 0
-4107 4347 0
-4108 4348 0
-4109 4349 0
-4110 4350 0
-4111 4351 0
-4112 4352 0
-4113 4353 0
-4114 4354 0
-4115 4355 0
-4116 4356 0
-4117 4357 0
-4086 4342 0
-4087 4343 0
-4088 4344 0
-4089 4345 0
-4090 4346 0
-4091 4347 0
-4092 4348 0
-4093 4349 0
-4094 4350 0
-4095 4351 0
-4096 4352 0
-4097 4353 0
-4098 4354 0
-4099 4355 0
-4100 4356 0
-4101 4357 0
-4086 -4102 4343 0
-4086 -4103 4344 0
-4086 -4104 4345 0
-4086 -4105 4346 0
-4086 -4106 4347 0
-4086 -4107 4348 0
-4086 -4108 4349 0
-4086 -4109 4350 0
-4086 -4110 4351 0
-4086 -4111 4352 0
-4086 -4112 4353 0
-4086 -4113 4354 0
-4086 -4114 4355 0
-4086 -4115 4356 0
-4086 -4116 4357 0
-4087 -4102 4344 0
-4087 -4103 4345 0
-4087 -4104 4346 0
-4087 -4105 4347 0
-4087 -4106 4348 0
-4087 -4107 4349 0
-4087 -4108 4350 0
-4087 -4109 4351 0
-4087 -4110 4352 0
-4087 -4111 4353 0
-4087 -4112 4354 0
-4087 -4113 4355 0
-4087 -4114 4356 0
-4087 -4115 4357 0
-4088 -4102 4345 0
-4088 -4103 4346 0
-4088 -4104 4347 0
-4088 -4105 4348 0
-4088 -4106 4349 0
-4088 -4107 4350 0
-4088 -4108 4351 0
-4088 -4109 4352 0
-4088 -4110 4353 0
-4088 -4111 4354 0
-4088 -4112 4355 0
-4088 -4113 4356 0
-4088 -4114 4357 0
-4089 -4102 4346 0
-4089 -4103 4347 0
-4089 -4104 4348 0
-4089 -4105 4349 0
-4089 -4106 4350 0
-4089 -4107 4351 0
-4089 -4108 4352 0
-4089 -4109 4353 0
-4089 -4110 4354 0
-4089 -4111 4355 0
-4089 -4112 4356 0
-4089 -4113 4357 0
-4090 -4102 4347 0
-4090 -4103 4348 0
-4090 -4104 4349 0
-4090 -4105 4350 0
-4090 -4106 4351 0
-4090 -4107 4352 0
-4090 -4108 4353 0
-4090 -4109 4354 0
-4090 -4110 4355 0
-4090 -4111 4356 0
-4090 -4112 4357 0
-4091 -4102 4348 0
-4091 -4103 4349 0
-4091 -4104 4350 0
-4091 -4105 4351 0
-4091 -4106 4352 0
-4091 -4107 4353 0
-4091 -4108 4354 0
-4091 -4109 4355 0
-4091 -4110 4356 0
-4091 -4111 4357 0
-4092 -4102 4349 0
-4092 -4103 4350 0
-4092 -4104 4351 0
-4092 -4105 4352 0
-4092 -4106 4353 0
-4092 -4107 4354 0
-4092 -4108 4355 0
-4092 -4109 4356 0
-4092 -4110 4357 0
-4093 -4102 4350 0
-4093 -4103 4351 0
-4093 -4104 4352 0
-4093 -4105 4353 0
-4093 -4106 4354 0
-4093 -4107 4355 0
-4093 -4108 4356 0
-4093 -4109 4357 0
-4094 -4102 4351 0
-4094 -4103 4352 0
-4094 -4104 4353 0
-4094 -4105 4354 0
-4094 -4106 4355 0
-4094 -4107 4356 0
-4094 -4108 4357 0
-4095 -4102 4352 0
-4095 -4103 4353 0
-4095 -4104 4354 0
-4095 -4105 4355 0
-4095 -4106 4356 0
-4095 -4107 4357 0
-4096 -4102 4353 0
-4096 -4103 4354 0
-4096 -4104 4355 0
-4096 -4105 4356 0
-4096 -4106 4357 0
-4097 -4102 4354 0
-4097 -4103 4355 0
-4097 -4104 4356 0
-4097 -4105 4357 0
-4098 -4102 4355 0
-4098 -4103 4356 0
-4098 -4104 4357 0
-4099 -4102 4356 0
-4099 -4103 4357 0
-4100 -4102 4357 0
-4134 4358 0
-4135 4359 0
-4136 4360 0
-4137 4361 0
-4138 4362 0
-4139 4363 0
-4140 4364 0
-4141 4365 0
-4142 4366 0
-4143 4367 0
-4144 4368 0
-4145 4369 0
-4146 4370 0
-4147 4371 0
-4148 4372 0
-4149 4373 0
-4118 4358 0
-4119 4359 0
-4120 4360 0
-4121 4361 0
-4122 4362 0
-4123 4363 0
-4124 4364 0
-4125 4365 0
-4126 4366 0
-4127 4367 0
-4128 4368 0
-4129 4369 0
-4130 4370 0
-4131 4371 0
-4132 4372 0
-4133 4373 0
-4118 -4134 4359 0
-4118 -4135 4360 0
-4118 -4136 4361 0
-4118 -4137 4362 0
-4118 -4138 4363 0
-4118 -4139 4364 0
-4118 -4140 4365 0
-4118 -4141 4366 0
-4118 -4142 4367 0
-4118 -4143 4368 0
-4118 -4144 4369 0
-4118 -4145 4370 0
-4118 -4146 4371 0
-4118 -4147 4372 0
-4118 -4148 4373 0
-4119 -4134 4360 0
-4119 -4135 4361 0
-4119 -4136 4362 0
-4119 -4137 4363 0
-4119 -4138 4364 0
-4119 -4139 4365 0
-4119 -4140 4366 0
-4119 -4141 4367 0
-4119 -4142 4368 0
-4119 -4143 4369 0
-4119 -4144 4370 0
-4119 -4145 4371 0
-4119 -4146 4372 0
-4119 -4147 4373 0
-4120 -4134 4361 0
-4120 -4135 4362 0
-4120 -4136 4363 0
-4120 -4137 4364 0
-4120 -4138 4365 0
-4120 -4139 4366 0
-4120 -4140 4367 0
-4120 -4141 4368 0
-4120 -4142 4369 0
-4120 -4143 4370 0
-4120 -4144 4371 0
-4120 -4145 4372 0
-4120 -4146 4373 0
-4121 -4134 4362 0
-4121 -4135 4363 0
-4121 -4136 4364 0
-4121 -4137 4365 0
-4121 -4138 4366 0
-4121 -4139 4367 0
-4121 -4140 4368 0
-4121 -4141 4369 0
-4121 -4142 4370 0
-4121 -4143 4371 0
-4121 -4144 4372 0
-4121 -4145 4373 0
-4122 -4134 4363 0
-4122 -4135 4364 0
-4122 -4136 4365 0
-4122 -4137 4366 0
-4122 -4138 4367 0
-4122 -4139 4368 0
-4122 -4140 4369 0
-4122 -4141 4370 0
-4122 -4142 4371 0
-4122 -4143 4372 0
-4122 -4144 4373 0
-4123 -4134 4364 0
-4123 -4135 4365 0
-4123 -4136 4366 0
-4123 -4137 4367 0
-4123 -4138 4368 0
-4123 -4139 4369 0
-4123 -4140 4370 0
-4123 -4141 4371 0
-4123 -4142 4372 0
-4123 -4143 4373 0
-4124 -4134 4365 0
-4124 -4135 4366 0
-4124 -4136 4367 0
-4124 -4137 4368 0
-4124 -4138 4369 0
-4124 -4139 4370 0
-4124 -4140 4371 0
-4124 -4141 4372 0
-4124 -4142 4373 0
-4125 -4134 4366 0
-4125 -4135 4367 0
-4125 -4136 4368 0
-4125 -4137 4369 0
-4125 -4138 4370 0
-4125 -4139 4371 0
-4125 -4140 4372 0
-4125 -4141 4373 0
-4126 -4134 4367 0
-4126 -4135 4368 0
-4126 -4136 4369 0
-4126 -4137 4370 0
-4126 -4138 4371 0
-4126 -4139 4372 0
-4126 -4140 4373 0
-4127 -4134 4368 0
-4127 -4135 4369 0
-4127 -4136 4370 0
-4127 -4137 4371 0
-4127 -4138 4372 0
-4127 -4139 4373 0
-4128 -4134 4369 0
-4128 -4135 4370 0
-4128 -4136 4371 0
-4128 -4137 4372 0
-4128 -4138 4373 0
-4129 -4134 4370 0
-4129 -4135 4371 0
-4129 -4136 4372 0
-4129 -4137 4373 0
-4130 -4134 4371 0
-4130 -4135 4372 0
-4130 -4136 4373 0
-4131 -4134 4372 0
-4131 -4135 4373 0
-4132 -4134 4373 0
-4166 4374 0
-4167 4375 0
-4168 4376 0
-4169 4377 0
-4170 4378 0
-4171 4379 0
-4172 4380 0
-4173 4381 0
-4174 4382 0
-4175 4383 0
-4176 4384 0
-4177 4385 0
-4178 4386 0
-4179 4387 0
-4180 4388 0
-4181 4389 0
-4150 4374 0
-4151 4375 0
-4152 4376 0
-4153 4377 0
-4154 4378 0
-4155 4379 0
-4156 4380 0
-4157 4381 0
-4158 4382 0
-4159 4383 0
-4160 4384 0
-4161 4385 0
-4162 4386 0
-4163 4387 0
-4164 4388 0
-4165 4389 0
-4150 -4166 4375 0
-4150 -4167 4376 0
-4150 -4168 4377 0
-4150 -4169 4378 0
-4150 -4170 4379 0
-4150 -4171 4380 0
-4150 -4172 4381 0
-4150 -4173 4382 0
-4150 -4174 4383 0
-4150 -4175 4384 0
-4150 -4176 4385 0
-4150 -4177 4386 0
-4150 -4178 4387 0
-4150 -4179 4388 0
-4150 -4180 4389 0
-4151 -4166 4376 0
-4151 -4167 4377 0
-4151 -4168 4378 0
-4151 -4169 4379 0
-4151 -4170 4380 0
-4151 -4171 4381 0
-4151 -4172 4382 0
-4151 -4173 4383 0
-4151 -4174 4384 0
-4151 -4175 4385 0
-4151 -4176 4386 0
-4151 -4177 4387 0
-4151 -4178 4388 0
-4151 -4179 4389 0
-4152 -4166 4377 0
-4152 -4167 4378 0
-4152 -4168 4379 0
-4152 -4169 4380 0
-4152 -4170 4381 0
-4152 -4171 4382 0
-4152 -4172 4383 0
-4152 -4173 4384 0
-4152 -4174 4385 0
-4152 -4175 4386 0
-4152 -4176 4387 0
-4152 -4177 4388 0
-4152 -4178 4389 0
-4153 -4166 4378 0
-4153 -4167 4379 0
-4153 -4168 4380 0
-4153 -4169 4381 0
-4153 -4170 4382 0
-4153 -4171 4383 0
-4153 -4172 4384 0
-4153 -4173 4385 0
-4153 -4174 4386 0
-4153 -4175 4387 0
-4153 -4176 4388 0
-4153 -4177 4389 0
-4154 -4166 4379 0
-4154 -4167 4380 0
-4154 -4168 4381 0
-4154 -4169 4382 0
-4154 -4170 4383 0
-4154 -4171 4384 0
-4154 -4172 4385 0
-4154 -4173 4386 0
-4154 -4174 4387 0
-4154 -4175 4388 0
-4154 -4176 4389 0
-4155 -4166 4380 0
-4155 -4167 4381 0
-4155 -4168 4382 0
-4155 -4169 4383 0
-4155 -4170 4384 0
-4155 -4171 4385 0
-4155 -4172 4386 0
-4155 -4173 4387 0
-4155 -4174 4388 0
-4155 -4175 4389 0
-4156 -4166 4381 0
-4156 -4167 4382 0
-4156 -4168 4383 0
-4156 -4169 4384 0
-4156 -4170 4385 0
-4156 -4171 4386 0
-4156 -4172 4387 0
-4156 -4173 4388 0
-4156 -4174 4389 0
-4157 -4166 4382 0
-4157 -4167 4383 0
-4157 -4168 4384 0
-4157 -4169 4385 0
-4157 -4170 4386 0
-4157 -4171 4387 0
-4157 -4172 4388 0
-4157 -4173 4389 0
-4158 -4166 4383 0
-4158 -4167 4384 0
-4158 -4168 4385 0
-4158 -4169 4386 0
-4158 -4170 4387 0
-4158 -4171 4388 0
-4158 -4172 4389 0
-4159 -4166 4384 0
-4159 -4167 4385 0
-4159 -4168 4386 0
-4159 -4169 4387 0
-4159 -4170 4388 0
-4159 -4171 4389 0
-4160 -4166 4385 0
-4160 -4167 4386 0
-4160 -4168 4387 0
-4160 -4169 4388 0
-4160 -4170 4389 0
-4161 -4166 4386 0
-4161 -4167 4387 0
-4161 -4168 4388 0
-4161 -4169 4389 0
-4162 -4166 4387 0
-4162 -4167 4388 0
-4162 -4168 4389 0
-4163 -4166 4388 0
-4163 -4167 4389 0
-4164 -4166 4389 0
-4198 4390 0
-4199 4391 0
-4200 4392 0
-4201 4393 0
-4202 4394 0
-4203 4395 0
-4204 4396 0
-4205 4397 0
-4206 4398 0
-4207 4399 0
-4208 4400 0
-4209 4401 0
-4210 4402 0
-4211 4403 0
-4212 4404 0
-4213 4405 0
-4182 4390 0
-4183 4391 0
-4184 4392 0
-4185 4393 0
-4186 4394 0
-4187 4395 0
-4188 4396 0
-4189 4397 0
-4190 4398 0
-4191 4399 0
-4192 4400 0
-4193 4401 0
-4194 4402 0
-4195 4403 0
-4196 4404 0
-4197 4405 0
-4182 -4198 4391 0
-4182 -4199 4392 0
-4182 -4200 4393 0
-4182 -4201 4394 0
-4182 -4202 4395 0
-4182 -4203 4396 0
-4182 -4204 4397 0
-4182 -4205 4398 0
-4182 -4206 4399 0
-4182 -4207 4400 0
-4182 -4208 4401 0
-4182 -4209 4402 0
-4182 -4210 4403 0
-4182 -4211 4404 0
-4182 -4212 4405 0
-4183 -4198 4392 0
-4183 -4199 4393 0
-4183 -4200 4394 0
-4183 -4201 4395 0
-4183 -4202 4396 0
-4183 -4203 4397 0
-4183 -4204 4398 0
-4183 -4205 4399 0
-4183 -4206 4400 0
-4183 -4207 4401 0
-4183 -4208 4402 0
-4183 -4209 4403 0
-4183 -4210 4404 0
-4183 -4211 4405 0
-4184 -4198 4393 0
-4184 -4199 4394 0
-4184 -4200 4395 0
-4184 -4201 4396 0
-4184 -4202 4397 0
-4184 -4203 4398 0
-4184 -4204 4399 0
-4184 -4205 4400 0
-4184 -4206 4401 0
-4184 -4207 4402 0
-4184 -4208 4403 0
-4184 -4209 4404 0
-4184 -4210 4405 0
-4185 -4198 4394 0
-4185 -4199 4395 0
-4185 -4200 4396 0
-4185 -4201 4397 0
-4185 -4202 4398 0
-4185 -4203 4399 0
-4185 -4204 4400 0
-4185 -4205 4401 0
-4185 -4206 4402 0
-4185 -4207 4403 0
-4185 -4208 4404 0
-4185 -4209 4405 0
-4186 -4198 4395 0
-4186 -4199 4396 0
-4186 -4200 4397 0
-4186 -4201 4398 0
-4186 -4202 4399 0
-4186 -4203 4400 0
-4186 -4204 4401 0
-4186 -4205 4402 0
-4186 -4206 4403 0
-4186 -4207 4404 0
-4186 -4208 4405 0
-4187 -4198 4396 0
-4187 -4199 4397 0
-4187 -4200 4398 0
-4187 -4201 4399 0
-4187 -4202 4400 0
-4187 -4203 4401 0
-4187 -4204 4402 0
-4187 -4205 4403 0
-4187 -4206 4404 0
-4187 -4207 4405 0
-4188 -4198 4397 0
-4188 -4199 4398 0
-4188 -4200 4399 0
-4188 -4201 4400 0
-4188 -4202 4401 0
-4188 -4203 4402 0
-4188 -4204 4403 0
-4188 -4205 4404 0
-4188 -4206 4405 0
-4189 -4198 4398 0
-4189 -4199 4399 0
-4189 -4200 4400 0
-4189 -4201 4401 0
-4189 -4202 4402 0
-4189 -4203 4403 0
-4189 -4204 4404 0
-4189 -4205 4405 0
-4190 -4198 4399 0
-4190 -4199 4400 0
-4190 -4200 4401 0
-4190 -4201 4402 0
-4190 -4202 4403 0
-4190 -4203 4404 0
-4190 -4204 4405 0
-4191 -4198 4400 0
-4191 -4199 4401 0
-4191 -4200 4402 0
-4191 -4201 4403 0
-4191 -4202 4404 0
-4191 -4203 4405 0
-4192 -4198 4401 0
-4192 -4199 4402 0
-4192 -4200 4403 0
-4192 -4201 4404 0
-4192 -4202 4405 0
-4193 -4198 4402 0
-4193 -4199 4403 0
-4193 -4200 4404 0
-4193 -4201 4405 0
-4194 -4198 4403 0
-4194 -4199 4404 0
-4194 -4200 4405 0
-4195 -4198 4404 0
-4195 -4199 4405 0
-4196 -4198 4405 0
-4230 4406 0
-4231 4407 0
-4232 4408 0
-4233 4409 0
-4234 4410 0
-4235 4411 0
-4236 4412 0
-4237 4413 0
-4238 4414 0
-4239 4415 0
-4240 4416 0
-4241 4417 0
-4242 4418 0
-4243 4419 0
-4244 4420 0
-4245 4421 0
-4214 4406 0
-4215 4407 0
-4216 4408 0
-4217 4409 0
-4218 4410 0
-4219 4411 0
-4220 4412 0
-4221 4413 0
-4222 4414 0
-4223 4415 0
-4224 4416 0
-4225 4417 0
-4226 4418 0
-4227 4419 0
-4228 4420 0
-4229 4421 0
-4214 -4230 4407 0
-4214 -4231 4408 0
-4214 -4232 4409 0
-4214 -4233 4410 0
-4214 -4234 4411 0
-4214 -4235 4412 0
-4214 -4236 4413 0
-4214 -4237 4414 0
-4214 -4238 4415 0
-4214 -4239 4416 0
-4214 -4240 4417 0
-4214 -4241 4418 0
-4214 -4242 4419 0
-4214 -4243 4420 0
-4214 -4244 4421 0
-4215 -4230 4408 0
-4215 -4231 4409 0
-4215 -4232 4410 0
-4215 -4233 4411 0
-4215 -4234 4412 0
-4215 -4235 4413 0
-4215 -4236 4414 0
-4215 -4237 4415 0
-4215 -4238 4416 0
-4215 -4239 4417 0
-4215 -4240 4418 0
-4215 -4241 4419 0
-4215 -4242 4420 0
-4215 -4243 4421 0
-4216 -4230 4409 0
-4216 -4231 4410 0
-4216 -4232 4411 0
-4216 -4233 4412 0
-4216 -4234 4413 0
-4216 -4235 4414 0
-4216 -4236 4415 0
-4216 -4237 4416 0
-4216 -4238 4417 0
-4216 -4239 4418 0
-4216 -4240 4419 0
-4216 -4241 4420 0
-4216 -4242 4421 0
-4217 -4230 4410 0
-4217 -4231 4411 0
-4217 -4232 4412 0
-4217 -4233 4413 0
-4217 -4234 4414 0
-4217 -4235 4415 0
-4217 -4236 4416 0
-4217 -4237 4417 0
-4217 -4238 4418 0
-4217 -4239 4419 0
-4217 -4240 4420 0
-4217 -4241 4421 0
-4218 -4230 4411 0
-4218 -4231 4412 0
-4218 -4232 4413 0
-4218 -4233 4414 0
-4218 -4234 4415 0
-4218 -4235 4416 0
-4218 -4236 4417 0
-4218 -4237 4418 0
-4218 -4238 4419 0
-4218 -4239 4420 0
-4218 -4240 4421 0
-4219 -4230 4412 0
-4219 -4231 4413 0
-4219 -4232 4414 0
-4219 -4233 4415 0
-4219 -4234 4416 0
-4219 -4235 4417 0
-4219 -4236 4418 0
-4219 -4237 4419 0
-4219 -4238 4420 0
-4219 -4239 4421 0
-4220 -4230 4413 0
-4220 -4231 4414 0
-4220 -4232 4415 0
-4220 -4233 4416 0
-4220 -4234 4417 0
-4220 -4235 4418 0
-4220 -4236 4419 0
-4220 -4237 4420 0
-4220 -4238 4421 0
-4221 -4230 4414 0
-4221 -4231 4415 0
-4221 -4232 4416 0
-4221 -4233 4417 0
-4221 -4234 4418 0
-4221 -4235 4419 0
-4221 -4236 4420 0
-4221 -4237 4421 0
-4222 -4230 4415 0
-4222 -4231 4416 0
-4222 -4232 4417 0
-4222 -4233 4418 0
-4222 -4234 4419 0
-4222 -4235 4420 0
-4222 -4236 4421 0
-4223 -4230 4416 0
-4223 -4231 4417 0
-4223 -4232 4418 0
-4223 -4233 4419 0
-4223 -4234 4420 0
-4223 -4235 4421 0
-4224 -4230 4417 0
-4224 -4231 4418 0
-4224 -4232 4419 0
-4224 -4233 4420 0
-4224 -4234 4421 0
-4225 -4230 4418 0
-4225 -4231 4419 0
-4225 -4232 4420 0
-4225 -4233 4421 0
-4226 -4230 4419 0
-4226 -4231 4420 0
-4226 -4232 4421 0
-4227 -4230 4420 0
-4227 -4231 4421 0
-4228 -4230 4421 0
-4262 4422 0
-4263 4423 0
-4264 4424 0
-4265 4425 0
-4266 4426 0
-4267 4427 0
-4268 4428 0
-4269 4429 0
-4270 4430 0
-4271 4431 0
-4272 4432 0
-4273 4433 0
-4274 4434 0
-4275 4435 0
-4276 4436 0
-4277 4437 0
-4246 4422 0
-4247 4423 0
-4248 4424 0
-4249 4425 0
-4250 4426 0
-4251 4427 0
-4252 4428 0
-4253 4429 0
-4254 4430 0
-4255 4431 0
-4256 4432 0
-4257 4433 0
-4258 4434 0
-4259 4435 0
-4260 4436 0
-4261 4437 0
-4246 -4262 4423 0
-4246 -4263 4424 0
-4246 -4264 4425 0
-4246 -4265 4426 0
-4246 -4266 4427 0
-4246 -4267 4428 0
-4246 -4268 4429 0
-4246 -4269 4430 0
-4246 -4270 4431 0
-4246 -4271 4432 0
-4246 -4272 4433 0
-4246 -4273 4434 0
-4246 -4274 4435 0
-4246 -4275 4436 0
-4246 -4276 4437 0
-4247 -4262 4424 0
-4247 -4263 4425 0
-4247 -4264 4426 0
-4247 -4265 4427 0
-4247 -4266 4428 0
-4247 -4267 4429 0
-4247 -4268 4430 0
-4247 -4269 4431 0
-4247 -4270 4432 0
-4247 -4271 4433 0
-4247 -4272 4434 0
-4247 -4273 4435 0
-4247 -4274 4436 0
-4247 -4275 4437 0
-4248 -4262 4425 0
-4248 -4263 4426 0
-4248 -4264 4427 0
-4248 -4265 4428 0
-4248 -4266 4429 0
-4248 -4267 4430 0
-4248 -4268 4431 0
-4248 -4269 4432 0
-4248 -4270 4433 0
-4248 -4271 4434 0
-4248 -4272 4435 0
-4248 -4273 4436 0
-4248 -4274 4437 0
-4249 -4262 4426 0
-4249 -4263 4427 0
-4249 -4264 4428 0
-4249 -4265 4429 0
-4249 -4266 4430 0
-4249 -4267 4431 0
-4249 -4268 4432 0
-4249 -4269 4433 0
-4249 -4270 4434 0
-4249 -4271 4435 0
-4249 -4272 4436 0
-4249 -4273 4437 0
-4250 -4262 4427 0
-4250 -4263 4428 0
-4250 -4264 4429 0
-4250 -4265 4430 0
-4250 -4266 4431 0
-4250 -4267 4432 0
-4250 -4268 4433 0
-4250 -4269 4434 0
-4250 -4270 4435 0
-4250 -4271 4436 0
-4250 -4272 4437 0
-4251 -4262 4428 0
-4251 -4263 4429 0
-4251 -4264 4430 0
-4251 -4265 4431 0
-4251 -4266 4432 0
-4251 -4267 4433 0
-4251 -4268 4434 0
-4251 -4269 4435 0
-4251 -4270 4436 0
-4251 -4271 4437 0
-4252 -4262 4429 0
-4252 -4263 4430 0
-4252 -4264 4431 0
-4252 -4265 4432 0
-4252 -4266 4433 0
-4252 -4267 4434 0
-4252 -4268 4435 0
-4252 -4269 4436 0
-4252 -4270 4437 0
-4253 -4262 4430 0
-4253 -4263 4431 0
-4253 -4264 4432 0
-4253 -4265 4433 0
-4253 -4266 4434 0
-4253 -4267 4435 0
-4253 -4268 4436 0
-4253 -4269 4437 0
-4254 -4262 4431 0
-4254 -4263 4432 0
-4254 -4264 4433 0
-4254 -4265 4434 0
-4254 -4266 4435 0
-4254 -4267 4436 0
-4254 -4268 4437 0
-4255 -4262 4432 0
-4255 -4263 4433 0
-4255 -4264 4434 0
-4255 -4265 4435 0
-4255 -4266 4436 0
-4255 -4267 4437 0
-4256 -4262 4433 0
-4256 -4263 4434 0
-4256 -4264 4435 0
-4256 -4265 4436 0
-4256 -4266 4437 0
-4257 -4262 4434 0
-4257 -4263 4435 0
-4257 -4264 4436 0
-4257 -4265 4437 0
-4258 -4262 4435 0
-4258 -4263 4436 0
-4258 -4264 4437 0
-4259 -4262 4436 0
-4259 -4263 4437 0
-4260 -4262 4437 0
-4294 4438 0
-4295 4439 0
-4296 4440 0
-4297 4441 0
-4298 4442 0
-4299 4443 0
-4300 4444 0
-4301 4445 0
-4302 4446 0
-4303 4447 0
-4304 4448 0
-4305 4449 0
-4306 4450 0
-4307 4451 0
-4308 4452 0
-4309 4453 0
-4278 4438 0
-4279 4439 0
-4280 4440 0
-4281 4441 0
-4282 4442 0
-4283 4443 0
-4284 4444 0
-4285 4445 0
-4286 4446 0
-4287 4447 0
-4288 4448 0
-4289 4449 0
-4290 4450 0
-4291 4451 0
-4292 4452 0
-4293 4453 0
-4278 -4294 4439 0
-4278 -4295 4440 0
-4278 -4296 4441 0
-4278 -4297 4442 0
-4278 -4298 4443 0
-4278 -4299 4444 0
-4278 -4300 4445 0
-4278 -4301 4446 0
-4278 -4302 4447 0
-4278 -4303 4448 0
-4278 -4304 4449 0
-4278 -4305 4450 0
-4278 -4306 4451 0
-4278 -4307 4452 0
-4278 -4308 4453 0
-4279 -4294 4440 0
-4279 -4295 4441 0
-4279 -4296 4442 0
-4279 -4297 4443 0
-4279 -4298 4444 0
-4279 -4299 4445 0
-4279 -4300 4446 0
-4279 -4301 4447 0
-4279 -4302 4448 0
-4279 -4303 4449 0
-4279 -4304 4450 0
-4279 -4305 4451 0
-4279 -4306 4452 0
-4279 -4307 4453 0
-4280 -4294 4441 0
-4280 -4295 4442 0
-4280 -4296 4443 0
-4280 -4297 4444 0
-4280 -4298 4445 0
-4280 -4299 4446 0
-4280 -4300 4447 0
-4280 -4301 4448 0
-4280 -4302 4449 0
-4280 -4303 4450 0
-4280 -4304 4451 0
-4280 -4305 4452 0
-4280 -4306 4453 0
-4281 -4294 4442 0
-4281 -4295 4443 0
-4281 -4296 4444 0
-4281 -4297 4445 0
-4281 -4298 4446 0
-4281 -4299 4447 0
-4281 -4300 4448 0
-4281 -4301 4449 0
-4281 -4302 4450 0
-4281 -4303 4451 0
-4281 -4304 4452 0
-4281 -4305 4453 0
-4282 -4294 4443 0
-4282 -4295 4444 0
-4282 -4296 4445 0
-4282 -4297 4446 0
-4282 -4298 4447 0
-4282 -4299 4448 0
-4282 -4300 4449 0
-4282 -4301 4450 0
-4282 -4302 4451 0
-4282 -4303 4452 0
-4282 -4304 4453 0
-4283 -4294 4444 0
-4283 -4295 4445 0
-4283 -4296 4446 0
-4283 -4297 4447 0
-4283 -4298 4448 0
-4283 -4299 4449 0
-4283 -4300 4450 0
-4283 -4301 4451 0
-4283 -4302 4452 0
-4283 -4303 4453 0
-4284 -4294 4445 0
-4284 -4295 4446 0
-4284 -4296 4447 0
-4284 -4297 4448 0
-4284 -4298 4449 0
-4284 -4299 4450 0
-4284 -4300 4451 0
-4284 -4301 4452 0
-4284 -4302 4453 0
-4285 -4294 4446 0
-4285 -4295 4447 0
-4285 -4296 4448 0
-4285 -4297 4449 0
-4285 -4298 4450 0
-4285 -4299 4451 0
-4285 -4300 4452 0
-4285 -4301 4453 0
-4286 -4294 4447 0
-4286 -4295 4448 0
-4286 -4296 4449 0
-4286 -4297 4450 0
-4286 -4298 4451 0
-4286 -4299 4452 0
-4286 -4300 4453 0
-4287 -4294 4448 0
-4287 -4295 4449 0
-4287 -4296 4450 0
-4287 -4297 4451 0
-4287 -4298 4452 0
-4287 -4299 4453 0
-4288 -4294 4449 0
-4288 -4295 4450 0
-4288 -4296 4451 0
-4288 -4297 4452 0
-4288 -4298 4453 0
-4289 -4294 4450 0
-4289 -4295 4451 0
-4289 -4296 4452 0
-4289 -4297 4453 0
-4290 -4294 4451 0
-4290 -4295 4452 0
-4290 -4296 4453 0
-4291 -4294 4452 0
-4291 -4295 4453 0
-4292 -4294 4453 0
-4326 4454 0
-4327 4455 0
-4328 4456 0
-4329 4457 0
-4330 4458 0
-4331 4459 0
-4332 4460 0
-4333 4461 0
-4334 4462 0
-4335 4463 0
-4336 4464 0
-4337 4465 0
-4338 4466 0
-4339 4467 0
-4340 4468 0
-4341 4469 0
-4310 4454 0
-4311 4455 0
-4312 4456 0
-4313 4457 0
-4314 4458 0
-4315 4459 0
-4316 4460 0
-4317 4461 0
-4318 4462 0
-4319 4463 0
-4320 4464 0
-4321 4465 0
-4322 4466 0
-4323 4467 0
-4324 4468 0
-4325 4469 0
-4310 -4326 4455 0
-4310 -4327 4456 0
-4310 -4328 4457 0
-4310 -4329 4458 0
-4310 -4330 4459 0
-4310 -4331 4460 0
-4310 -4332 4461 0
-4310 -4333 4462 0
-4310 -4334 4463 0
-4310 -4335 4464 0
-4310 -4336 4465 0
-4310 -4337 4466 0
-4310 -4338 4467 0
-4310 -4339 4468 0
-4310 -4340 4469 0
-4311 -4326 4456 0
-4311 -4327 4457 0
-4311 -4328 4458 0
-4311 -4329 4459 0
-4311 -4330 4460 0
-4311 -4331 4461 0
-4311 -4332 4462 0
-4311 -4333 4463 0
-4311 -4334 4464 0
-4311 -4335 4465 0
-4311 -4336 4466 0
-4311 -4337 4467 0
-4311 -4338 4468 0
-4311 -4339 4469 0
-4312 -4326 4457 0
-4312 -4327 4458 0
-4312 -4328 4459 0
-4312 -4329 4460 0
-4312 -4330 4461 0
-4312 -4331 4462 0
-4312 -4332 4463 0
-4312 -4333 4464 0
-4312 -4334 4465 0
-4312 -4335 4466 0
-4312 -4336 4467 0
-4312 -4337 4468 0
-4312 -4338 4469 0
-4313 -4326 4458 0
-4313 -4327 4459 0
-4313 -4328 4460 0
-4313 -4329 4461 0
-4313 -4330 4462 0
-4313 -4331 4463 0
-4313 -4332 4464 0
-4313 -4333 4465 0
-4313 -4334 4466 0
-4313 -4335 4467 0
-4313 -4336 4468 0
-4313 -4337 4469 0
-4314 -4326 4459 0
-4314 -4327 4460 0
-4314 -4328 4461 0
-4314 -4329 4462 0
-4314 -4330 4463 0
-4314 -4331 4464 0
-4314 -4332 4465 0
-4314 -4333 4466 0
-4314 -4334 4467 0
-4314 -4335 4468 0
-4314 -4336 4469 0
-4315 -4326 4460 0
-4315 -4327 4461 0
-4315 -4328 4462 0
-4315 -4329 4463 0
-4315 -4330 4464 0
-4315 -4331 4465 0
-4315 -4332 4466 0
-4315 -4333 4467 0
-4315 -4334 4468 0
-4315 -4335 4469 0
-4316 -4326 4461 0
-4316 -4327 4462 0
-4316 -4328 4463 0
-4316 -4329 4464 0
-4316 -4330 4465 0
-4316 -4331 4466 0
-4316 -4332 4467 0
-4316 -4333 4468 0
-4316 -4334 4469 0
-4317 -4326 4462 0
-4317 -4327 4463 0
-4317 -4328 4464 0
-4317 -4329 4465 0
-4317 -4330 4466 0
-4317 -4331 4467 0
-4317 -4332 4468 0
-4317 -4333 4469 0
-4318 -4326 4463 0
-4318 -4327 4464 0
-4318 -4328 4465 0
-4318 -4329 4466 0
-4318 -4330 4467 0
-4318 -4331 4468 0
-4318 -4332 4469 0
-4319 -4326 4464 0
-4319 -4327 4465 0
-4319 -4328 4466 0
-4319 -4329 4467 0
-4319 -4330 4468 0
-4319 -4331 4469 0
-4320 -4326 4465 0
-4320 -4327 4466 0
-4320 -4328 4467 0
-4320 -4329 4468 0
-4320 -4330 4469 0
-4321 -4326 4466 0
-4321 -4327 4467 0
-4321 -4328 4468 0
-4321 -4329 4469 0
-4322 -4326 4467 0
-4322 -4327 4468 0
-4322 -4328 4469 0
-4323 -4326 4468 0
-4323 -4327 4469 0
-4324 -4326 4469 0
-4358 4470 0
-4359 4471 0
-4360 4472 0
-4361 4473 0
-4362 4474 0
-4363 4475 0
-4364 4476 0
-4365 4477 0
-4366 4478 0
-4367 4479 0
-4368 4480 0
-4369 4481 0
-4370 4482 0
-4371 4483 0
-4372 4484 0
-4373 4485 0
-4342 4470 0
-4343 4471 0
-4344 4472 0
-4345 4473 0
-4346 4474 0
-4347 4475 0
-4348 4476 0
-4349 4477 0
-4350 4478 0
-4351 4479 0
-4352 4480 0
-4353 4481 0
-4354 4482 0
-4355 4483 0
-4356 4484 0
-4357 4485 0
-4342 -4358 4471 0
-4342 -4359 4472 0
-4342 -4360 4473 0
-4342 -4361 4474 0
-4342 -4362 4475 0
-4342 -4363 4476 0
-4342 -4364 4477 0
-4342 -4365 4478 0
-4342 -4366 4479 0
-4342 -4367 4480 0
-4342 -4368 4481 0
-4342 -4369 4482 0
-4342 -4370 4483 0
-4342 -4371 4484 0
-4342 -4372 4485 0
-4343 -4358 4472 0
-4343 -4359 4473 0
-4343 -4360 4474 0
-4343 -4361 4475 0
-4343 -4362 4476 0
-4343 -4363 4477 0
-4343 -4364 4478 0
-4343 -4365 4479 0
-4343 -4366 4480 0
-4343 -4367 4481 0
-4343 -4368 4482 0
-4343 -4369 4483 0
-4343 -4370 4484 0
-4343 -4371 4485 0
-4344 -4358 4473 0
-4344 -4359 4474 0
-4344 -4360 4475 0
-4344 -4361 4476 0
-4344 -4362 4477 0
-4344 -4363 4478 0
-4344 -4364 4479 0
-4344 -4365 4480 0
-4344 -4366 4481 0
-4344 -4367 4482 0
-4344 -4368 4483 0
-4344 -4369 4484 0
-4344 -4370 4485 0
-4345 -4358 4474 0
-4345 -4359 4475 0
-4345 -4360 4476 0
-4345 -4361 4477 0
-4345 -4362 4478 0
-4345 -4363 4479 0
-4345 -4364 4480 0
-4345 -4365 4481 0
-4345 -4366 4482 0
-4345 -4367 4483 0
-4345 -4368 4484 0
-4345 -4369 4485 0
-4346 -4358 4475 0
-4346 -4359 4476 0
-4346 -4360 4477 0
-4346 -4361 4478 0
-4346 -4362 4479 0
-4346 -4363 4480 0
-4346 -4364 4481 0
-4346 -4365 4482 0
-4346 -4366 4483 0
-4346 -4367 4484 0
-4346 -4368 4485 0
-4347 -4358 4476 0
-4347 -4359 4477 0
-4347 -4360 4478 0
-4347 -4361 4479 0
-4347 -4362 4480 0
-4347 -4363 4481 0
-4347 -4364 4482 0
-4347 -4365 4483 0
-4347 -4366 4484 0
-4347 -4367 4485 0
-4348 -4358 4477 0
-4348 -4359 4478 0
-4348 -4360 4479 0
-4348 -4361 4480 0
-4348 -4362 4481 0
-4348 -4363 4482 0
-4348 -4364 4483 0
-4348 -4365 4484 0
-4348 -4366 4485 0
-4349 -4358 4478 0
-4349 -4359 4479 0
-4349 -4360 4480 0
-4349 -4361 4481 0
-4349 -4362 4482 0
-4349 -4363 4483 0
-4349 -4364 4484 0
-4349 -4365 4485 0
-4350 -4358 4479 0
-4350 -4359 4480 0
-4350 -4360 4481 0
-4350 -4361 4482 0
-4350 -4362 4483 0
-4350 -4363 4484 0
-4350 -4364 4485 0
-4351 -4358 4480 0
-4351 -4359 4481 0
-4351 -4360 4482 0
-4351 -4361 4483 0
-4351 -4362 4484 0
-4351 -4363 4485 0
-4352 -4358 4481 0
-4352 -4359 4482 0
-4352 -4360 4483 0
-4352 -4361 4484 0
-4352 -4362 4485 0
-4353 -4358 4482 0
-4353 -4359 4483 0
-4353 -4360 4484 0
-4353 -4361 4485 0
-4354 -4358 4483 0
-4354 -4359 4484 0
-4354 -4360 4485 0
-4355 -4358 4484 0
-4355 -4359 4485 0
-4356 -4358 4485 0
-4390 4486 0
-4391 4487 0
-4392 4488 0
-4393 4489 0
-4394 4490 0
-4395 4491 0
-4396 4492 0
-4397 4493 0
-4398 4494 0
-4399 4495 0
-4400 4496 0
-4401 4497 0
-4402 4498 0
-4403 4499 0
-4404 4500 0
-4405 4501 0
-4374 4486 0
-4375 4487 0
-4376 4488 0
-4377 4489 0
-4378 4490 0
-4379 4491 0
-4380 4492 0
-4381 4493 0
-4382 4494 0
-4383 4495 0
-4384 4496 0
-4385 4497 0
-4386 4498 0
-4387 4499 0
-4388 4500 0
-4389 4501 0
-4374 -4390 4487 0
-4374 -4391 4488 0
-4374 -4392 4489 0
-4374 -4393 4490 0
-4374 -4394 4491 0
-4374 -4395 4492 0
-4374 -4396 4493 0
-4374 -4397 4494 0
-4374 -4398 4495 0
-4374 -4399 4496 0
-4374 -4400 4497 0
-4374 -4401 4498 0
-4374 -4402 4499 0
-4374 -4403 4500 0
-4374 -4404 4501 0
-4375 -4390 4488 0
-4375 -4391 4489 0
-4375 -4392 4490 0
-4375 -4393 4491 0
-4375 -4394 4492 0
-4375 -4395 4493 0
-4375 -4396 4494 0
-4375 -4397 4495 0
-4375 -4398 4496 0
-4375 -4399 4497 0
-4375 -4400 4498 0
-4375 -4401 4499 0
-4375 -4402 4500 0
-4375 -4403 4501 0
-4376 -4390 4489 0
-4376 -4391 4490 0
-4376 -4392 4491 0
-4376 -4393 4492 0
-4376 -4394 4493 0
-4376 -4395 4494 0
-4376 -4396 4495 0
-4376 -4397 4496 0
-4376 -4398 4497 0
-4376 -4399 4498 0
-4376 -4400 4499 0
-4376 -4401 4500 0
-4376 -4402 4501 0
-4377 -4390 4490 0
-4377 -4391 4491 0
-4377 -4392 4492 0
-4377 -4393 4493 0
-4377 -4394 4494 0
-4377 -4395 4495 0
-4377 -4396 4496 0
-4377 -4397 4497 0
-4377 -4398 4498 0
-4377 -4399 4499 0
-4377 -4400 4500 0
-4377 -4401 4501 0
-4378 -4390 4491 0
-4378 -4391 4492 0
-4378 -4392 4493 0
-4378 -4393 4494 0
-4378 -4394 4495 0
-4378 -4395 4496 0
-4378 -4396 4497 0
-4378 -4397 4498 0
-4378 -4398 4499 0
-4378 -4399 4500 0
-4378 -4400 4501 0
-4379 -4390 4492 0
-4379 -4391 4493 0
-4379 -4392 4494 0
-4379 -4393 4495 0
-4379 -4394 4496 0
-4379 -4395 4497 0
-4379 -4396 4498 0
-4379 -4397 4499 0
-4379 -4398 4500 0
-4379 -4399 4501 0
-4380 -4390 4493 0
-4380 -4391 4494 0
-4380 -4392 4495 0
-4380 -4393 4496 0
-4380 -4394 4497 0
-4380 -4395 4498 0
-4380 -4396 4499 0
-4380 -4397 4500 0
-4380 -4398 4501 0
-4381 -4390 4494 0
-4381 -4391 4495 0
-4381 -4392 4496 0
-4381 -4393 4497 0
-4381 -4394 4498 0
-4381 -4395 4499 0
-4381 -4396 4500 0
-4381 -4397 4501 0
-4382 -4390 4495 0
-4382 -4391 4496 0
-4382 -4392 4497 0
-4382 -4393 4498 0
-4382 -4394 4499 0
-4382 -4395 4500 0
-4382 -4396 4501 0
-4383 -4390 4496 0
-4383 -4391 4497 0
-4383 -4392 4498 0
-4383 -4393 4499 0
-4383 -4394 4500 0
-4383 -4395 4501 0
-4384 -4390 4497 0
-4384 -4391 4498 0
-4384 -4392 4499 0
-4384 -4393 4500 0
-4384 -4394 4501 0
-4385 -4390 4498 0
-4385 -4391 4499 0
-4385 -4392 4500 0
-4385 -4393 4501 0
-4386 -4390 4499 0
-4386 -4391 4500 0
-4386 -4392 4501 0
-4387 -4390 4500 0
-4387 -4391 4501 0
-4388 -4390 4501 0
-4422 4502 0
-4423 4503 0
-4424 4504 0
-4425 4505 0
-4426 4506 0
-4427 4507 0
-4428 4508 0
-4429 4509 0
-4430 4510 0
-4431 4511 0
-4432 4512 0
-4433 4513 0
-4434 4514 0
-4435 4515 0
-4436 4516 0
-4437 4517 0
-4406 4502 0
-4407 4503 0
-4408 4504 0
-4409 4505 0
-4410 4506 0
-4411 4507 0
-4412 4508 0
-4413 4509 0
-4414 4510 0
-4415 4511 0
-4416 4512 0
-4417 4513 0
-4418 4514 0
-4419 4515 0
-4420 4516 0
-4421 4517 0
-4406 -4422 4503 0
-4406 -4423 4504 0
-4406 -4424 4505 0
-4406 -4425 4506 0
-4406 -4426 4507 0
-4406 -4427 4508 0
-4406 -4428 4509 0
-4406 -4429 4510 0
-4406 -4430 4511 0
-4406 -4431 4512 0
-4406 -4432 4513 0
-4406 -4433 4514 0
-4406 -4434 4515 0
-4406 -4435 4516 0
-4406 -4436 4517 0
-4407 -4422 4504 0
-4407 -4423 4505 0
-4407 -4424 4506 0
-4407 -4425 4507 0
-4407 -4426 4508 0
-4407 -4427 4509 0
-4407 -4428 4510 0
-4407 -4429 4511 0
-4407 -4430 4512 0
-4407 -4431 4513 0
-4407 -4432 4514 0
-4407 -4433 4515 0
-4407 -4434 4516 0
-4407 -4435 4517 0
-4408 -4422 4505 0
-4408 -4423 4506 0
-4408 -4424 4507 0
-4408 -4425 4508 0
-4408 -4426 4509 0
-4408 -4427 4510 0
-4408 -4428 4511 0
-4408 -4429 4512 0
-4408 -4430 4513 0
-4408 -4431 4514 0
-4408 -4432 4515 0
-4408 -4433 4516 0
-4408 -4434 4517 0
-4409 -4422 4506 0
-4409 -4423 4507 0
-4409 -4424 4508 0
-4409 -4425 4509 0
-4409 -4426 4510 0
-4409 -4427 4511 0
-4409 -4428 4512 0
-4409 -4429 4513 0
-4409 -4430 4514 0
-4409 -4431 4515 0
-4409 -4432 4516 0
-4409 -4433 4517 0
-4410 -4422 4507 0
-4410 -4423 4508 0
-4410 -4424 4509 0
-4410 -4425 4510 0
-4410 -4426 4511 0
-4410 -4427 4512 0
-4410 -4428 4513 0
-4410 -4429 4514 0
-4410 -4430 4515 0
-4410 -4431 4516 0
-4410 -4432 4517 0
-4411 -4422 4508 0
-4411 -4423 4509 0
-4411 -4424 4510 0
-4411 -4425 4511 0
-4411 -4426 4512 0
-4411 -4427 4513 0
-4411 -4428 4514 0
-4411 -4429 4515 0
-4411 -4430 4516 0
-4411 -4431 4517 0
-4412 -4422 4509 0
-4412 -4423 4510 0
-4412 -4424 4511 0
-4412 -4425 4512 0
-4412 -4426 4513 0
-4412 -4427 4514 0
-4412 -4428 4515 0
-4412 -4429 4516 0
-4412 -4430 4517 0
-4413 -4422 4510 0
-4413 -4423 4511 0
-4413 -4424 4512 0
-4413 -4425 4513 0
-4413 -4426 4514 0
-4413 -4427 4515 0
-4413 -4428 4516 0
-4413 -4429 4517 0
-4414 -4422 4511 0
-4414 -4423 4512 0
-4414 -4424 4513 0
-4414 -4425 4514 0
-4414 -4426 4515 0
-4414 -4427 4516 0
-4414 -4428 4517 0
-4415 -4422 4512 0
-4415 -4423 4513 0
-4415 -4424 4514 0
-4415 -4425 4515 0
-4415 -4426 4516 0
-4415 -4427 4517 0
-4416 -4422 4513 0
-4416 -4423 4514 0
-4416 -4424 4515 0
-4416 -4425 4516 0
-4416 -4426 4517 0
-4417 -4422 4514 0
-4417 -4423 4515 0
-4417 -4424 4516 0
-4417 -4425 4517 0
-4418 -4422 4515 0
-4418 -4423 4516 0
-4418 -4424 4517 0
-4419 -4422 4516 0
-4419 -4423 4517 0
-4420 -4422 4517 0
-4454 4518 0
-4455 4519 0
-4456 4520 0
-4457 4521 0
-4458 4522 0
-4459 4523 0
-4460 4524 0
-4461 4525 0
-4462 4526 0
-4463 4527 0
-4464 4528 0
-4465 4529 0
-4466 4530 0
-4467 4531 0
-4468 4532 0
-4469 4533 0
-4438 4518 0
-4439 4519 0
-4440 4520 0
-4441 4521 0
-4442 4522 0
-4443 4523 0
-4444 4524 0
-4445 4525 0
-4446 4526 0
-4447 4527 0
-4448 4528 0
-4449 4529 0
-4450 4530 0
-4451 4531 0
-4452 4532 0
-4453 4533 0
-4438 -4454 4519 0
-4438 -4455 4520 0
-4438 -4456 4521 0
-4438 -4457 4522 0
-4438 -4458 4523 0
-4438 -4459 4524 0
-4438 -4460 4525 0
-4438 -4461 4526 0
-4438 -4462 4527 0
-4438 -4463 4528 0
-4438 -4464 4529 0
-4438 -4465 4530 0
-4438 -4466 4531 0
-4438 -4467 4532 0
-4438 -4468 4533 0
-4439 -4454 4520 0
-4439 -4455 4521 0
-4439 -4456 4522 0
-4439 -4457 4523 0
-4439 -4458 4524 0
-4439 -4459 4525 0
-4439 -4460 4526 0
-4439 -4461 4527 0
-4439 -4462 4528 0
-4439 -4463 4529 0
-4439 -4464 4530 0
-4439 -4465 4531 0
-4439 -4466 4532 0
-4439 -4467 4533 0
-4440 -4454 4521 0
-4440 -4455 4522 0
-4440 -4456 4523 0
-4440 -4457 4524 0
-4440 -4458 4525 0
-4440 -4459 4526 0
-4440 -4460 4527 0
-4440 -4461 4528 0
-4440 -4462 4529 0
-4440 -4463 4530 0
-4440 -4464 4531 0
-4440 -4465 4532 0
-4440 -4466 4533 0
-4441 -4454 4522 0
-4441 -4455 4523 0
-4441 -4456 4524 0
-4441 -4457 4525 0
-4441 -4458 4526 0
-4441 -4459 4527 0
-4441 -4460 4528 0
-4441 -4461 4529 0
-4441 -4462 4530 0
-4441 -4463 4531 0
-4441 -4464 4532 0
-4441 -4465 4533 0
-4442 -4454 4523 0
-4442 -4455 4524 0
-4442 -4456 4525 0
-4442 -4457 4526 0
-4442 -4458 4527 0
-4442 -4459 4528 0
-4442 -4460 4529 0
-4442 -4461 4530 0
-4442 -4462 4531 0
-4442 -4463 4532 0
-4442 -4464 4533 0
-4443 -4454 4524 0
-4443 -4455 4525 0
-4443 -4456 4526 0
-4443 -4457 4527 0
-4443 -4458 4528 0
-4443 -4459 4529 0
-4443 -4460 4530 0
-4443 -4461 4531 0
-4443 -4462 4532 0
-4443 -4463 4533 0
-4444 -4454 4525 0
-4444 -4455 4526 0
-4444 -4456 4527 0
-4444 -4457 4528 0
-4444 -4458 4529 0
-4444 -4459 4530 0
-4444 -4460 4531 0
-4444 -4461 4532 0
-4444 -4462 4533 0
-4445 -4454 4526 0
-4445 -4455 4527 0
-4445 -4456 4528 0
-4445 -4457 4529 0
-4445 -4458 4530 0
-4445 -4459 4531 0
-4445 -4460 4532 0
-4445 -4461 4533 0
-4446 -4454 4527 0
-4446 -4455 4528 0
-4446 -4456 4529 0
-4446 -4457 4530 0
-4446 -4458 4531 0
-4446 -4459 4532 0
-4446 -4460 4533 0
-4447 -4454 4528 0
-4447 -4455 4529 0
-4447 -4456 4530 0
-4447 -4457 4531 0
-4447 -4458 4532 0
-4447 -4459 4533 0
-4448 -4454 4529 0
-4448 -4455 4530 0
-4448 -4456 4531 0
-4448 -4457 4532 0
-4448 -4458 4533 0
-4449 -4454 4530 0
-4449 -4455 4531 0
-4449 -4456 4532 0
-4449 -4457 4533 0
-4450 -4454 4531 0
-4450 -4455 4532 0
-4450 -4456 4533 0
-4451 -4454 4532 0
-4451 -4455 4533 0
-4452 -4454 4533 0
-4486 4534 0
-4487 4535 0
-4488 4536 0
-4489 4537 0
-4490 4538 0
-4491 4539 0
-4492 4540 0
-4493 4541 0
-4494 4542 0
-4495 4543 0
-4496 4544 0
-4497 4545 0
-4498 4546 0
-4499 4547 0
-4500 4548 0
-4501 4549 0
-4470 4534 0
-4471 4535 0
-4472 4536 0
-4473 4537 0
-4474 4538 0
-4475 4539 0
-4476 4540 0
-4477 4541 0
-4478 4542 0
-4479 4543 0
-4480 4544 0
-4481 4545 0
-4482 4546 0
-4483 4547 0
-4484 4548 0
-4485 4549 0
-4470 -4486 4535 0
-4470 -4487 4536 0
-4470 -4488 4537 0
-4470 -4489 4538 0
-4470 -4490 4539 0
-4470 -4491 4540 0
-4470 -4492 4541 0
-4470 -4493 4542 0
-4470 -4494 4543 0
-4470 -4495 4544 0
-4470 -4496 4545 0
-4470 -4497 4546 0
-4470 -4498 4547 0
-4470 -4499 4548 0
-4470 -4500 4549 0
-4471 -4486 4536 0
-4471 -4487 4537 0
-4471 -4488 4538 0
-4471 -4489 4539 0
-4471 -4490 4540 0
-4471 -4491 4541 0
-4471 -4492 4542 0
-4471 -4493 4543 0
-4471 -4494 4544 0
-4471 -4495 4545 0
-4471 -4496 4546 0
-4471 -4497 4547 0
-4471 -4498 4548 0
-4471 -4499 4549 0
-4472 -4486 4537 0
-4472 -4487 4538 0
-4472 -4488 4539 0
-4472 -4489 4540 0
-4472 -4490 4541 0
-4472 -4491 4542 0
-4472 -4492 4543 0
-4472 -4493 4544 0
-4472 -4494 4545 0
-4472 -4495 4546 0
-4472 -4496 4547 0
-4472 -4497 4548 0
-4472 -4498 4549 0
-4473 -4486 4538 0
-4473 -4487 4539 0
-4473 -4488 4540 0
-4473 -4489 4541 0
-4473 -4490 4542 0
-4473 -4491 4543 0
-4473 -4492 4544 0
-4473 -4493 4545 0
-4473 -4494 4546 0
-4473 -4495 4547 0
-4473 -4496 4548 0
-4473 -4497 4549 0
-4474 -4486 4539 0
-4474 -4487 4540 0
-4474 -4488 4541 0
-4474 -4489 4542 0
-4474 -4490 4543 0
-4474 -4491 4544 0
-4474 -4492 4545 0
-4474 -4493 4546 0
-4474 -4494 4547 0
-4474 -4495 4548 0
-4474 -4496 4549 0
-4475 -4486 4540 0
-4475 -4487 4541 0
-4475 -4488 4542 0
-4475 -4489 4543 0
-4475 -4490 4544 0
-4475 -4491 4545 0
-4475 -4492 4546 0
-4475 -4493 4547 0
-4475 -4494 4548 0
-4475 -4495 4549 0
-4476 -4486 4541 0
-4476 -4487 4542 0
-4476 -4488 4543 0
-4476 -4489 4544 0
-4476 -4490 4545 0
-4476 -4491 4546 0
-4476 -4492 4547 0
-4476 -4493 4548 0
-4476 -4494 4549 0
-4477 -4486 4542 0
-4477 -4487 4543 0
-4477 -4488 4544 0
-4477 -4489 4545 0
-4477 -4490 4546 0
-4477 -4491 4547 0
-4477 -4492 4548 0
-4477 -4493 4549 0
-4478 -4486 4543 0
-4478 -4487 4544 0
-4478 -4488 4545 0
-4478 -4489 4546 0
-4478 -4490 4547 0
-4478 -4491 4548 0
-4478 -4492 4549 0
-4479 -4486 4544 0
-4479 -4487 4545 0
-4479 -4488 4546 0
-4479 -4489 4547 0
-4479 -4490 4548 0
-4479 -4491 4549 0
-4480 -4486 4545 0
-4480 -4487 4546 0
-4480 -4488 4547 0
-4480 -4489 4548 0
-4480 -4490 4549 0
-4481 -4486 4546 0
-4481 -4487 4547 0
-4481 -4488 4548 0
-4481 -4489 4549 0
-4482 -4486 4547 0
-4482 -4487 4548 0
-4482 -4488 4549 0
-4483 -4486 4548 0
-4483 -4487 4549 0
-4484 -4486 4549 0
-4518 4550 0
-4519 4551 0
-4520 4552 0
-4521 4553 0
-4522 4554 0
-4523 4555 0
-4524 4556 0
-4525 4557 0
-4526 4558 0
-4527 4559 0
-4528 4560 0
-4529 4561 0
-4530 4562 0
-4531 4563 0
-4532 4564 0
-4533 4565 0
-4502 4550 0
-4503 4551 0
-4504 4552 0
-4505 4553 0
-4506 4554 0
-4507 4555 0
-4508 4556 0
-4509 4557 0
-4510 4558 0
-4511 4559 0
-4512 4560 0
-4513 4561 0
-4514 4562 0
-4515 4563 0
-4516 4564 0
-4517 4565 0
-4502 -4518 4551 0
-4502 -4519 4552 0
-4502 -4520 4553 0
-4502 -4521 4554 0
-4502 -4522 4555 0
-4502 -4523 4556 0
-4502 -4524 4557 0
-4502 -4525 4558 0
-4502 -4526 4559 0
-4502 -4527 4560 0
-4502 -4528 4561 0
-4502 -4529 4562 0
-4502 -4530 4563 0
-4502 -4531 4564 0
-4502 -4532 4565 0
-4503 -4518 4552 0
-4503 -4519 4553 0
-4503 -4520 4554 0
-4503 -4521 4555 0
-4503 -4522 4556 0
-4503 -4523 4557 0
-4503 -4524 4558 0
-4503 -4525 4559 0
-4503 -4526 4560 0
-4503 -4527 4561 0
-4503 -4528 4562 0
-4503 -4529 4563 0
-4503 -4530 4564 0
-4503 -4531 4565 0
-4504 -4518 4553 0
-4504 -4519 4554 0
-4504 -4520 4555 0
-4504 -4521 4556 0
-4504 -4522 4557 0
-4504 -4523 4558 0
-4504 -4524 4559 0
-4504 -4525 4560 0
-4504 -4526 4561 0
-4504 -4527 4562 0
-4504 -4528 4563 0
-4504 -4529 4564 0
-4504 -4530 4565 0
-4505 -4518 4554 0
-4505 -4519 4555 0
-4505 -4520 4556 0
-4505 -4521 4557 0
-4505 -4522 4558 0
-4505 -4523 4559 0
-4505 -4524 4560 0
-4505 -4525 4561 0
-4505 -4526 4562 0
-4505 -4527 4563 0
-4505 -4528 4564 0
-4505 -4529 4565 0
-4506 -4518 4555 0
-4506 -4519 4556 0
-4506 -4520 4557 0
-4506 -4521 4558 0
-4506 -4522 4559 0
-4506 -4523 4560 0
-4506 -4524 4561 0
-4506 -4525 4562 0
-4506 -4526 4563 0
-4506 -4527 4564 0
-4506 -4528 4565 0
-4507 -4518 4556 0
-4507 -4519 4557 0
-4507 -4520 4558 0
-4507 -4521 4559 0
-4507 -4522 4560 0
-4507 -4523 4561 0
-4507 -4524 4562 0
-4507 -4525 4563 0
-4507 -4526 4564 0
-4507 -4527 4565 0
-4508 -4518 4557 0
-4508 -4519 4558 0
-4508 -4520 4559 0
-4508 -4521 4560 0
-4508 -4522 4561 0
-4508 -4523 4562 0
-4508 -4524 4563 0
-4508 -4525 4564 0
-4508 -4526 4565 0
-4509 -4518 4558 0
-4509 -4519 4559 0
-4509 -4520 4560 0
-4509 -4521 4561 0
-4509 -4522 4562 0
-4509 -4523 4563 0
-4509 -4524 4564 0
-4509 -4525 4565 0
-4510 -4518 4559 0
-4510 -4519 4560 0
-4510 -4520 4561 0
-4510 -4521 4562 0
-4510 -4522 4563 0
-4510 -4523 4564 0
-4510 -4524 4565 0
-4511 -4518 4560 0
-4511 -4519 4561 0
-4511 -4520 4562 0
-4511 -4521 4563 0
-4511 -4522 4564 0
-4511 -4523 4565 0
-4512 -4518 4561 0
-4512 -4519 4562 0
-4512 -4520 4563 0
-4512 -4521 4564 0
-4512 -4522 4565 0
-4513 -4518 4562 0
-4513 -4519 4563 0
-4513 -4520 4564 0
-4513 -4521 4565 0
-4514 -4518 4563 0
-4514 -4519 4564 0
-4514 -4520 4565 0
-4515 -4518 4564 0
-4515 -4519 4565 0
-4516 -4518 4565 0
-4550 4566 0
-4551 4567 0
-4552 4568 0
-4553 4569 0
-4554 4570 0
-4555 4571 0
-4556 4572 0
-4557 4573 0
-4558 4574 0
-4559 4575 0
-4560 4576 0
-4561 4577 0
-4562 4578 0
-4563 4579 0
-4564 4580 0
-4565 4581 0
-4534 4566 0
-4535 4567 0
-4536 4568 0
-4537 4569 0
-4538 4570 0
-4539 4571 0
-4540 4572 0
-4541 4573 0
-4542 4574 0
-4543 4575 0
-4544 4576 0
-4545 4577 0
-4546 4578 0
-4547 4579 0
-4548 4580 0
-4549 4581 0
-4534 -4550 4567 0
-4534 -4551 4568 0
-4534 -4552 4569 0
-4534 -4553 4570 0
-4534 -4554 4571 0
-4534 -4555 4572 0
-4534 -4556 4573 0
-4534 -4557 4574 0
-4534 -4558 4575 0
-4534 -4559 4576 0
-4534 -4560 4577 0
-4534 -4561 4578 0
-4534 -4562 4579 0
-4534 -4563 4580 0
-4534 -4564 4581 0
-4535 -4550 4568 0
-4535 -4551 4569 0
-4535 -4552 4570 0
-4535 -4553 4571 0
-4535 -4554 4572 0
-4535 -4555 4573 0
-4535 -4556 4574 0
-4535 -4557 4575 0
-4535 -4558 4576 0
-4535 -4559 4577 0
-4535 -4560 4578 0
-4535 -4561 4579 0
-4535 -4562 4580 0
-4535 -4563 4581 0
-4536 -4550 4569 0
-4536 -4551 4570 0
-4536 -4552 4571 0
-4536 -4553 4572 0
-4536 -4554 4573 0
-4536 -4555 4574 0
-4536 -4556 4575 0
-4536 -4557 4576 0
-4536 -4558 4577 0
-4536 -4559 4578 0
-4536 -4560 4579 0
-4536 -4561 4580 0
-4536 -4562 4581 0
-4537 -4550 4570 0
-4537 -4551 4571 0
-4537 -4552 4572 0
-4537 -4553 4573 0
-4537 -4554 4574 0
-4537 -4555 4575 0
-4537 -4556 4576 0
-4537 -4557 4577 0
-4537 -4558 4578 0
-4537 -4559 4579 0
-4537 -4560 4580 0
-4537 -4561 4581 0
-4538 -4550 4571 0
-4538 -4551 4572 0
-4538 -4552 4573 0
-4538 -4553 4574 0
-4538 -4554 4575 0
-4538 -4555 4576 0
-4538 -4556 4577 0
-4538 -4557 4578 0
-4538 -4558 4579 0
-4538 -4559 4580 0
-4538 -4560 4581 0
-4539 -4550 4572 0
-4539 -4551 4573 0
-4539 -4552 4574 0
-4539 -4553 4575 0
-4539 -4554 4576 0
-4539 -4555 4577 0
-4539 -4556 4578 0
-4539 -4557 4579 0
-4539 -4558 4580 0
-4539 -4559 4581 0
-4540 -4550 4573 0
-4540 -4551 4574 0
-4540 -4552 4575 0
-4540 -4553 4576 0
-4540 -4554 4577 0
-4540 -4555 4578 0
-4540 -4556 4579 0
-4540 -4557 4580 0
-4540 -4558 4581 0
-4541 -4550 4574 0
-4541 -4551 4575 0
-4541 -4552 4576 0
-4541 -4553 4577 0
-4541 -4554 4578 0
-4541 -4555 4579 0
-4541 -4556 4580 0
-4541 -4557 4581 0
-4542 -4550 4575 0
-4542 -4551 4576 0
-4542 -4552 4577 0
-4542 -4553 4578 0
-4542 -4554 4579 0
-4542 -4555 4580 0
-4542 -4556 4581 0
-4543 -4550 4576 0
-4543 -4551 4577 0
-4543 -4552 4578 0
-4543 -4553 4579 0
-4543 -4554 4580 0
-4543 -4555 4581 0
-4544 -4550 4577 0
-4544 -4551 4578 0
-4544 -4552 4579 0
-4544 -4553 4580 0
-4544 -4554 4581 0
-4545 -4550 4578 0
-4545 -4551 4579 0
-4545 -4552 4580 0
-4545 -4553 4581 0
-4546 -4550 4579 0
-4546 -4551 4580 0
-4546 -4552 4581 0
-4547 -4550 4580 0
-4547 -4551 4581 0
-4548 -4550 4581 0
-4582 326 0
-4582 521 0
-4583 326 0
-4583 605 0
-4584 375 0
-4584 1118 0
-4585 394 0
-4585 1096 0
-4586 396 0
-4586 1109 0
-4587 400 0
-4587 1104 0
-4588 407 0
-4588 1105 0
-4589 409 0
-4589 1099 0
-4590 422 0
-4590 540 0
-4591 426 0
-4591 1136 0
-4592 429 0
-4592 1128 0
-4593 429 0
-4593 1135 0
-4594 433 0
-4594 1166 0
-4595 439 0
-4595 1133 0
-4596 446 0
-4596 1110 0
-4597 463 0
-4597 1146 0
-4598 464 0
-4598 1132 0
-4599 469 0
-4599 1138 0
-4600 490 0
-4600 1155 0
-4601 1117 0
-4601 1161 0
-4602 1147 0
-4602 1156 0
4582 4583 4584 4585 4586 4587 4588 4589 4590 4591 4592 4593 4594 4595 4596 4597 4598 4599 4600 4601 4602 0
-4603 415 0
-4603 1102 0
-4604 415 0
-4604 1107 0
-4605 415 0
-4605 1148 0
-4606 418 0
-4606 1115 0
-4607 432 0
-4607 1164 0
-4608 439 0
-4608 1108 0
-4609 443 0
-4609 1154 0
-4610 446 0
-4610 1111 0
-4611 468 0
-4611 1144 0
-4612 475 0
-4612 1163 0
-4613 475 0
-4613 1165 0
-4614 483 0
-4614 1143 0
4603 4604 4605 4606 4607 4608 4609 4610 4611 4612 4613 4614 0
1143 1111 1144 0
-4615 311 0
-4615 509 0
-4616 311 0
-4616 574 0
-4617 311 0
-4617 602 0
-4618 311 0
-4618 688 0
-4619 394 0
-4619 1097 0
-4620 405 0
-4620 1177 0
-4621 420 0
-4621 549 0
-4622 488 0
-4622 1167 0
-4623 1106 0
-4623 1107 0
4615 4616 4617 4618 4619 4620 4621 4622 4623 0
-4624 399 0
-4624 1112 0
-4625 404 0
-4625 1121 0
-4626 455 0
-4626 1152 0
4624 4625 4626 0
1121 1112 0
-4627 388 0
-4627 1105 0
-4628 403 0
-4628 1116 0
4594 4627 4628 0
-4629 431 0
-4629 1165 0
-4630 439 0
-4630 1149 0
-4631 451 0
-4631 1108 0
-4632 472 0
-4632 1164 0
-4633 477 0
-4633 1154 0
4590 4600 4629 4630 4631 4632 4633 0
1164 1108 1165 0
-4634 23 0
-4634 1046 0
-4635 24 0
-4635 1048 0
-4636 44 0
-4636 1004 0
-4637 108 0
-4637 780 0
-4638 109 0
-4638 717 0
-4639 109 0
-4639 826 0
-4640 314 0
-4640 508 0
-4641 314 0
-4641 619 0
-4642 384 0
-4642 1107 0
-4643 387 0
-4643 1096 0
-4644 390 0
-4644 1114 0
-4645 407 0
-4645 1158 0
-4646 434 0
-4646 1103 0
-4647 436 0
-4647 1102 0
-4648 450 0
-4648 1119 0
-4649 452 0
-4649 1117 0
-4650 466 0
-4650 556 0
-4651 467 0
-4651 1148 0
-4652 646 0
-4652 759 0
-4653 1101 0
-4653 1155 0
-4654 1115 0
-4654 1165 0
4621 4634 4635 4636 4637 4638 4639 4640 4641 4642 4643 4644 4645 4646 4647 4648 4649 4650 4651 4652 4653 4654 0
-4655 314 0
-4655 622 0
-4656 314 0
-4656 629 0
-4657 326 0
-4657 513 0
-4658 326 0
-4658 1028 0
-4659 450 0
-4659 1118 0
-4660 462 0
-4660 545 0
-4661 463 0
-4661 1098 0
-4662 468 0
-4662 1145 0
-4663 484 0
-4663 1096 0
-4664 1097 0
-4664 1100 0
-4665 1097 0
-4665 1135 0
-4666 1113 0
-4666 1143 0
4582 4583 4590 4611 4632 4640 4641 4655 4656 4657 4658 4659 4660 4661 4662 4663 4664 4665 4666 0
4582 4583 4590 4611 4632 4640 4641 4655 4656 4657 4658 4659 4660 4661 4662 4663 4666 0
1144 1113 540 0
-4667 379 0
-4667 1158 0
-4668 424 0
-4668 560 0
-4669 436 0
-4669 1140 0
-4670 1111 0
-4670 1112 0
-4671 1119 0
-4671 1121 0
4626 4667 4668 4669 4670 4671 0
-4672 413 0
-4672 1112 0
-4673 437 0
-4673 1152 0
-4674 446 0
-4674 1140 0
4625 4668 4672 4673 4674 0
-4675 376 0
-4675 1135 0
-4676 388 0
-4676 1107 0
-4677 409 0
-4677 1109 0
-4678 409 0
-4678 1134 0
-4679 453 0
-4679 1160 0
-4680 465 0
-4680 1176 0
-4681 473 0
-4681 1170 0
-4682 486 0
-4682 1130 0
-4683 1115 0
-4683 1117 0
4589 4591 4599 4675 4676 4677 4678 4679 4680 4681 4682 4683 0
1120 1107 1135 1100 0
-4684 449 0
-4684 1131 0
-4685 460 0
-4685 1172 0
-4686 483 0
-4686 1141 0
4588 4659 4661 4663 4684 4685 4686 0
-4687 395 0
-4687 1121 0
-4688 435 0
-4688 1160 0
-4689 483 0
-4689 1127 0
-4690 1112 0
-4690 1158 0
4650 4670 4673 4687 4688 4689 4690 0
-4691 404 0
-4691 1112 0
4650 4673 4687 4688 4689 4691 0
1111 1158 1121 0
-4692 389 0
-4692 1119 0
-4693 451 0
-4693 1167 0
-4694 464 0
-4694 565 0
-4695 1108 0
-4695 1149 0
4595 4599 4621 4643 4644 4676 4692 4693 4694 4695 0
-4696 443 0
-4696 1114 0
-4697 454 0
-4697 1114 0
-4698 455 0
-4698 1102 0
-4699 478 0
-4699 1136 0
-4700 478 0
-4700 1155 0
-4701 489 0
-4701 1168 0
4654 4660 4696 4697 4698 4699 4700 4701 0
1155 1102 1114 0
-4702 237 0
-4702 589 0
-4703 323 0
-4703 522 0
-4704 323 0
-4704 609 0
-4705 323 0
-4705 626 0
-4706 323 0
-4706 767 0
-4707 389 0
-4707 1116 0
-4708 398 0
-4708 1105 0
4621 4702 4703 4704 4705 4706 4707 4708 0
-4709 24 0
-4709 1056 0
-4710 108 0
-4710 715 0
-4711 271 0
-4711 990 0
-4712 718 0
-4712 831 0
-4713 1120 0
-4713 1177 0
4619 4623 4709 4710 4711 4712 4713 0
1120 1106 1097 0
-4714 388 0
-4714 1158 0
-4715 427 0
-4715 1125 0
-4716 435 0
-4716 1150 0
-4717 442 0
-4717 1155 0
-4718 443 0
-4718 1099 0
-4719 446 0
-4719 1141 0
-4720 457 0
-4720 1101 0
-4721 459 0
-4721 1169 0
-4722 474 0
-4722 1137 0
-4723 1110 0
-4723 1120 0
-4724 1119 0
-4724 1170 0
-4725 1136 0
-4725 1177 0
4611 4621 4662 4714 4715 4716 4717 4718 4719 4720 4721 4722 4723 4724 4725 0
-4726 422 0
-4726 1098 0
-4727 471 0
-4727 1125 0
-4728 1099 0
-4728 1144 0
-4729 1100 0
-4729 1145 0
4590 4614 4650 4659 4663 4726 4727 4728 4729 0
1143 1099 556 0
-4730 452 0
-4730 1168 0
-4731 489 0
-4731 1161 0
-4732 1109 0
-4732 1164 0
4608 4613 4730 4731 4732 0
-4733 381 0
-4733 1122 0
4620 4623 4664 4675 4733 0
4619 4620 4623 4733 0
1100 1107 1135 1177 0
-4734 167 0
-4734 586 0
-4735 323 0
-4735 518 0
-4736 323 0
-4736 1030 0
-4737 418 0
-4737 1154 0
-4738 484 0
-4738 1127 0
-4739 493 0
-4739 1113 0
-4740 1120 0
-4740 1138 0
4591 4606 4628 4650 4684 4686 4703 4704 4734 4735 4736 4737 4738 4739 4740 0
-4741 378 0
-4741 1164 0
-4742 443 0
-4742 1144 0
-4743 444 0
-4743 1118 0
-4744 447 0
-4744 1128 0
-4745 459 0
-4745 1132 0
-4746 476 0
-4746 1148 0
-4747 518 0
-4747 767 0
-4748 543 0
-4748 767 0
-4749 767 0
-4749 913 0
4622 4630 4643 4716 4741 4742 4743 4744 4745 4746 4747 4748 4749 0
4622 4630 4643 4716 4741 4743 4744 4745 4746 0
1118 1149 1150 1096 1132 1148 1167 1164 0
-4750 428 0
-4750 1145 0
-4751 432 0
-4751 1160 0
-4752 442 0
-4752 1163 0
-4753 460 0
-4753 1173 0
-4754 1102 0
-4754 1140 0
-4755 1108 0
-4755 1109 0
-4756 1120 0
-4756 1140 0
4611 4632 4661 4666 4684 4692 4750 4751 4752 4753 4754 4755 4756 0
4611 4632 4661 4666 4684 4692 4750 4751 4752 4753 4755 0
-4757 98 0
-4757 677 0
-4758 414 0
-4758 1118 0
-4759 414 0
-4759 1170 0
-4760 521 0
-4760 768 0
-4761 521 0
-4761 780 0
-4762 715 0
-4762 780 0
4703 4704 4718 4723 4727 4750 4757 4758 4759 4760 4761 4762 0
4703 4704 4718 4727 4750 4758 4759 4760 0
1099 1145 1118 0
-4763 414 0
-4763 1135 0
-4764 434 0
-4764 1152 0
-4765 485 0
-4765 1130 0
-4766 486 0
-4766 1176 0
4591 4599 4676 4681 4683 4763 4764 4765 4766 0
-4767 23 0
-4767 681 0
-4768 23 0
-4768 1055 0
-4769 28 0
-4769 697 0
-4770 28 0
-4770 1062 0
-4771 267 0
-4771 872 0
-4772 270 0
-4772 782 0
-4773 450 0
-4773 1131 0
-4774 460 0
-4774 1168 0
-4775 486 0
-4775 1108 0
-4776 522 0
-4776 715 0
-4777 605 0
-4777 1019 0
-4778 715 0
-4778 717 0
-4779 812 0
-4779 1081 0
-4780 1105 0
-4780 1109 0
4584 4615 4617 4618 4634 4643 4648 4650 4663 4767 4768 4769 4770 4771 4772 4773 4774 4775 4776 4777 4778 4779 4780 0
4584 4615 4617 4618 4634 4643 4648 4650 4663 4767 4768 4769 4770 4771 4772 4773 4774 4775 4777 4779 0
1108 556 1168 1131 1119 1096 1118 0
-4781 450 0
-4781 1130 0
4590 4624 4671 4781 0
-4782 109 0
-4782 1079 0
-4783 376 0
-4783 1100 0
-4784 378 0
-4784 1109 0
-4785 380 0
-4785 1138 0
-4786 383 0
-4786 1124 0
-4787 406 0
-4787 1116 0
-4788 416 0
-4788 1163 0
-4789 424 0
-4789 1104 0
-4790 426 0
-4790 1128 0
-4791 441 0
-4791 1119 0
-4792 446 0
-4792 1142 0
-4793 448 0
-4793 1127 0
-4794 449 0
-4794 1096 0
-4795 451 0
-4795 1173 0
-4796 457 0
-4796 1140 0
-4797 746 0
-4797 1055 0
4589 4590 4634 4638 4639 4660 4668 4671 4699 4715 4723 4751 4782 4783 4784 4785 4786 4787 4788 4789 4790 4791 4792 4793 4794 4795 4796 4797 0
1138 1136 540 0
-4798 411 0
-4798 1096 0
-4799 411 0
-4799 1164 0
-4800 457 0
-4800 1100 0
-4801 461 0
-4801 1142 0
-4802 492 0
-4802 1144 0
4640 4641 4655 4656 4666 4673 4694 4733 4754 4756 4798 4799 4800 4801 4802 0
4640 4641 4655 4656 4666 4673 4694 4733 4798 4799 4800 4801 4802 0
-4803 486 0
-4803 1137 0
4611 4681 4703 4704 4718 4727 4730 4750 4760 4803 0
1125 1099 1145 0
-4804 393 0
-4804 1098 0
-4805 406 0
-4805 1135 0
-4806 417 0
-4806 1155 0
-4807 1099 0
-4807 1100 0
-4808 1141 0
-4808 1142 0
4590 4599 4723 4744 4764 4796 4804 4805 4806 4807 4808 0
4624 4671 0
1119 1112 0
-4809 377 0
-4809 1115 0
-4810 418 0
-4810 1113 0
-4811 419 0
-4811 1145 0
-4812 454 0
-4812 1115 0
-4813 456 0
-4813 1151 0
-4814 481 0
-4814 1163 0
-4815 1101 0
-4815 1102 0
-4816 1111 0
-4816 1113 0
-4817 1143 0
-4817 1144 0
4609 4632 4719 4738 4789 4809 4810 4811 4812 4813 4814 4815 4816 4817 0
-4818 375 0
-4818 1102 0
-4819 380 0
-4819 1120 0
-4820 382 0
-4820 1110 0
-4821 417 0
-4821 1136 0
-4822 480 0
-4822 1149 0
-4823 1114 0
-4823 1154 0
4584 4590 4660 4700 4731 4793 4818 4819 4820 4821 4822 4823 0
-4824 412 0
-4824 1120 0
-4825 427 0
-4825 1120 0
-4826 484 0
-4826 1149 0
-4827 490 0
-4827 1161 0
-4828 493 0
-4828 1154 0
4590 4659 4660 4689 4698 4700 4824 4825 4826 4827 4828 0
1155 1102 1154 0
-4829 472 0
-4829 1149 0
4600 4608 4632 4633 4654 4701 4829 0
-4830 311 0
-4830 1019 0
-4831 508 0
-4831 688 0
-4832 1168 0
-4832 1169 0
4600 4607 4608 4615 4617 4633 4654 4692 4830 4831 4832 0
1164 1108 1115 0
4629 4631 4732 0
-4833 389 0
-4833 1117 0
-4834 397 0
-4834 1115 0
-4835 398 0
-4835 1107 0
-4836 399 0
-4836 1104 0
-4837 400 0
-4837 1103 0
-4838 423 0
-4838 1137 0
-4839 425 0
-4839 1157 0
-4840 428 0
-4840 1131 0
-4841 438 0
-4841 1096 0
-4842 466 0
-4842 1158 0
-4843 492 0
-4843 1101 0
-4844 1114 0
-4844 1115 0
4673 4694 4732 4753 4755 4763 4833 4834 4835 4836 4837 4838 4839 4840 4841 4842 4843 4844 0
-4845 380 0
-4845 1103 0
-4846 381 0
-4846 1109 0
-4847 381 0
-4847 1115 0
-4848 390 0
-4848 1112 0
-4849 431 0
-4849 1131 0
-4850 432 0
-4850 1173 0
-4851 436 0
-4851 1157 0
-4852 467 0
-4852 1104 0
-4853 1137 0
-4853 1170 0
4646 4694 4763 4794 4833 4843 4845 4846 4847 4848 4849 4850 4851 4852 4853 0
1152 1115 1109 1103 1135 1157 1158 1137 1131 1117 1096 1104 0
-4854 317 0
-4854 530 0
-4855 317 0
-4855 615 0
-4856 317 0
-4856 623 0
-4857 317 0
-4857 633 0
-4858 1102 0
-4858 1136 0
-4859 1118 0
-4859 1177 0
4599 4621 4681 4703 4704 4735 4736 4775 4803 4854 4855 4856 4857 4858 4859 0
-4860 437 0
-4860 1138 0
4621 4681 4699 4703 4704 4735 4736 4803 4854 4855 4856 4857 4860 0
-4861 320 0
-4861 529 0
-4862 320 0
-4862 614 0
-4863 385 0
-4863 1124 0
-4864 395 0
-4864 1116 0
-4865 403 0
-4865 1105 0
4625 4689 4694 4751 4861 4862 4863 4864 4865 0
1105 1116 0
4619 4687 4865 0
-4866 311 0
-4866 506 0
-4867 311 0
-4867 1020 0
-4868 429 0
-4868 1118 0
-4869 449 0
-4869 1130 0
-4870 454 0
-4870 1162 0
-4871 464 0
-4871 1098 0
4615 4617 4660 4703 4704 4705 4706 4716 4760 4812 4830 4845 4866 4867 4868 4869 4870 4871 0
1130 1098 1115 1118 545 0
-4872 26 0
-4872 1070 0
-4873 112 0
-4873 700 0
-4874 112 0
-4874 964 0
-4875 437 0
-4875 1111 0
-4876 755 0
-4876 1084 0
-4877 1101 0
-4877 1151 0
-4878 1115 0
-4878 1116 0
4590 4603 4660 4676 4691 4697 4732 4817 4858 4860 4861 4862 4872 4873 4874 4875 4876 4877 4878 0
4590 4603 4660 4676 4691 4697 4817 4858 4860 4861 4862 4872 4873 4874 4875 4876 4877 4878 0
-4879 26 0
-4879 1084 0
-4880 425 0
-4880 1104 0
-4881 452 0
-4881 1167 0
-4882 454 0
-4882 1161 0
-4883 459 0
-4883 1176 0
-4884 473 0
-4884 1135 0
-4885 482 0
-4885 1134 0
-4886 1154 0
-4886 1155 0
4676 4683 4699 4853 4860 4861 4862 4872 4873 4874 4879 4880 4881 4882 4883 4884 4885 4886 0
1107 1137 1135 1138 1117 1136 1167 1161 1155 1176 1104 0
-4887 162 0
-4887 589 0
-4888 320 0
-4888 627 0
-4889 320 0
-4889 791 0
-4890 442 0
-4890 1101 0
-4891 446 0
-4891 1139 0
-4892 470 0
-4892 1134 0
-4893 1118 0
-4893 1125 0
4592 4598 4630 4692 4693 4725 4740 4784 4794 4861 4862 4887 4888 4889 4890 4891 4892 4893 0
-4894 320 0
-4894 589 0
-4895 438 0
-4895 1134 0
-4896 457 0
-4896 1139 0
4659 4692 4745 4784 4790 4794 4829 4861 4862 4881 4888 4889 4890 4894 4895 4896 0
4592 4598 4692 4725 4740 4784 4794 4829 4881 4890 4891 4893 4895 0
-4897 450 0
-4897 1132 0
4630 4659 4692 4693 4784 4790 4794 4890 4892 4896 4897 0
1132 1167 1149 1128 1109 1177 1134 1096 1125 1119 0
-4898 314 0
-4898 574 0
-4899 375 0
-4899 1125 0
-4900 422 0
-4900 1175 0
-4901 452 0
-4901 1166 0
-4902 479 0
-4902 1150 0
-4903 1096 0
-4903 1134 0
4615 4617 4621 4659 4689 4702 4703 4704 4705 4706 4755 4787 4791 4866 4867 4884 4898 4899 4900 4901 4902 4903 0
-4904 226 0
-4904 574 0
-4905 1111 0
-4905 1150 0
-4906 1115 0
-4906 1166 0
4615 4617 4621 4659 4702 4703 4704 4705 4706 4727 4738 4784 4791 4794 4866 4867 4884 4900 4904 4905 4906 0
-4907 423 0
-4907 1173 0
-4908 445 0
-4908 1103 0
-4909 474 0
-4909 1158 0
4590 4644 4679 4682 4722 4791 4907 4908 4909 0
1137 1158 1114 540 1173 1103 1160 0
-4910 382 0
-4910 1096 0
-4911 384 0
-4911 1119 0
-4912 413 0
-4912 1137 0
-4913 414 0
-4913 1106 0
-4914 430 0
-4914 1109 0
-4915 447 0
-4915 1099 0
4582 4583 4596 4630 4668 4694 4815 4817 4827 4853 4909 4910 4911 4912 4913 4914 4915 0
-4916 1107 0
-4916 1137 0
4582 4583 4596 4630 4667 4668 4694 4722 4815 4827 4910 4911 4913 4914 4916 0
-4917 326 0
-4917 625 0
-4918 326 0
-4918 720 0
-4919 375 0
-4919 1136 0
-4920 388 0
-4920 1160 0
-4921 456 0
-4921 1152 0
-4922 461 0
-4922 1153 0
-4923 469 0
-4923 1133 0
4582 4583 4621 4696 4742 4789 4885 4917 4918 4919 4920 4921 4922 4923 0
1104 1160 549 1144 1114 1136 0
-4924 413 0
-4924 1108 0
-4925 453 0
-4925 1103 0
-4926 619 0
-4926 1012 0
4589 4590 4653 4660 4670 4675 4678 4683 4729 4737 4743 4746 4810 4854 4855 4901 4905 4924 4925 4926 0
-4927 317 0
-4927 1012 0
4589 4590 4660 4675 4678 4683 4729 4737 4743 4810 4848 4854 4855 4901 4908 4924 4927 0
-4928 451 0
-4928 1176 0
-4929 489 0
-4929 1117 0
4594 4630 4668 4670 4673 4683 4694 4765 4783 4796 4843 4928 4929 0
1108 1101 1140 1149 1111 1152 1176 565 1166 560 1117 0
-4930 427 0
-4930 1140 0
4619 4623 4787 4859 4919 4930 0
4619 4623 4713 4787 4930 0
-4931 25 0
-4931 1050 0
-4932 31 0
-4932 1073 0
-4933 34 0
-4933 1089 0
-4934 101 0
-4934 701 0
-4935 101 0
-4935 702 0
-4936 108 0
-4936 990 0
-4937 397 0
-4937 1117 0
-4938 409 0
-4938 1116 0
-4939 453 0
-4939 1161 0
-4940 491 0
-4940 1163 0
-4941 1106 0
-4941 1170 0
4621 4642 4664 4668 4709 4710 4798 4804 4809 4896 4911 4925 4928 4931 4932 4933 4934 4935 4936 4937 4938 4939 4940 4941 0
1117 1103 1161 1116 1100 1119 1139 1107 1115 1163 1176 1098 1106 1096 0
-4942 421 0
-4942 1098 0
-4943 482 0
-4943 1139 0
-4944 489 0
-4944 1170 0
-4945 1164 0
-4945 1165 0
4642 4665 4707 4731 4788 4798 4833 4845 4911 4942 4943 4944 4945 0
4598 4630 4692 4715 4725 4784 4790 4794 4881 4892 0
-4946 487 0
-4946 1132 0
4592 4659 4692 4693 4784 4794 4829 4895 4946 0
1119 1149 1132 1167 1128 1134 1125 1136 1096 1109 0
-4947 389 0
-4947 1131 0
-4948 438 0
-4948 1143 0
-4949 449 0
-4949 1109 0
-4950 1128 0
-4950 1177 0
4600 4621 4633 4699 4726 4841 4908 4919 4947 4948 4949 4950 0
-4951 1136 0
-4951 1138 0
4588 4600 4621 4684 4726 4823 4841 4908 4948 4951 0
-4952 379 0
-4952 1150 0
-4953 485 0
-4953 1133 0
4676 4683 4819 4881 4886 4892 4939 4952 4953 0
1133 1134 1120 0
-4954 380 0
-4954 1148 0
-4955 440 0
-4955 1107 0
-4956 448 0
-4956 1120 0
-4957 1110 0
-4957 1133 0
4609 4670 4693 4697 4766 4809 4882 4892 4925 4954 4955 4956 4957 0
4609 4693 4697 4766 4809 4882 4892 4925 4954 4955 4956 4957 0
-4958 424 0
-4958 1162 0
-4959 491 0
-4959 1151 0
-4960 1109 0
-4960 1166 0
4666 4675 4697 4796 4809 4822 4909 4925 4954 4955 4958 4959 4960 0
4675 4697 4796 4809 4822 4909 4925 4954 4955 4958 4959 4960 0
1151 1115 1162 1158 1107 1114 1109 1148 1103 0
-4961 422 0
-4961 1174 0
-4962 442 0
-4962 1117 0
4612 4629 4676 4732 4765 4766 4961 4962 0
-4963 414 0
-4963 1117 0
-4964 417 0
-4964 1177 0
-4965 440 0
-4965 1137 0
-4966 464 0
-4966 1135 0
-4967 491 0
-4967 1114 0
-4968 1111 0
-4968 1152 0
4621 4630 4694 4759 4775 4810 4919 4963 4964 4965 4966 4967 4968 0
565 1137 1117 549 1108 1135 1136 1113 1170 1152 1177 1149 0
-4969 376 0
-4969 1145 0
-4970 438 0
-4970 1113 0
-4971 1133 0
-4971 1134 0
4611 4614 4668 4716 4719 4746 4815 4827 4901 4928 4969 4970 4971 0
4611 4614 4668 4716 4719 4746 4827 4901 4928 4969 4970 4971 0
-4972 436 0
-4972 1148 0
-4973 451 0
-4973 1166 0
4627 4668 4680 4731 4815 4902 4969 4970 4971 4972 4973 0
-4974 1125 0
-4974 1145 0
4595 4668 4731 4753 4901 4902 4970 4972 4974 0
1150 1148 1113 0
4668 4703 4704 4720 4735 4736 4755 4854 4855 4856 4857 4858 4860 0
4668 4703 4704 4720 4735 4736 4854 4855 4856 4857 4858 4860 0
-4975 26 0
-4975 778 0
-4976 27 0
-4976 1067 0
-4977 105 0
-4977 827 0
-4978 112 0
-4978 933 0
-4979 127 0
-4979 762 0
-4980 323 0
-4980 768 0
4621 4681 4683 4703 4704 4715 4721 4729 4801 4803 4879 4909 4915 4975 4976 4977 4978 4979 4980 0
4621 4681 4703 4704 4715 4721 4729 4801 4803 4879 4909 4915 4975 4976 4977 4978 4979 4980 0
1125 1099 1100 0
-4981 426 0
-4981 1100 0
-4982 445 0
-4982 1102 0
-4983 482 0
-4983 1099 0
4596 4608 4629 4668 4688 4694 4791 4803 4850 4891 4909 4919 4953 4962 4981 4982 4983 0
-4984 383 0
-4984 1108 0
-4985 430 0
-4985 1166 0
-4986 465 0
-4986 1168 0
-4987 483 0
-4987 1110 0
4590 4601 4604 4605 4619 4631 4647 4650 4668 4752 4790 4796 4984 4985 4986 4987 0
1163 1097 1161 556 540 1140 1166 1168 1128 1110 1108 0
-4988 420 0
-4988 1142 0
-4989 447 0
-4989 1127 0
4590 4603 4604 4605 4612 4626 4699 4732 4800 4816 4863 4864 4890 4953 4969 4988 4989 0
4596 4626 4689 4699 4800 4811 4816 4890 4988 0
1127 1145 1152 1100 1113 1133 1142 1136 1101 0
-4990 457 0
-4990 1147 0
4630 4660 4802 4843 4875 4990 0
-4991 454 0
-4991 1160 0
-4992 516 0
-4992 522 0
-4993 521 0
-4993 522 0
4597 4668 4676 4683 4694 4704 4735 4736 4744 4776 4807 4840 4858 4860 4923 4973 4991 4992 4993 0
4597 4668 4676 4683 4694 4703 4704 4735 4736 4744 4807 4840 4858 4860 4923 4973 4991 0
565 1102 1138 0
-4994 104 0
-4994 788 0
-4995 377 0
-4995 1165 0
-4996 396 0
-4996 1108 0
-4997 413 0
-4997 1103 0
-4998 444 0
-4998 1130 0
-4999 1112 0
-4999 1152 0
-5000 1173 0
-5000 1176 0
4611 4612 4614 4615 4617 4618 4689 4692 4770 4771 4777 4779 4815 4901 4916 4972 4994 4995 4996 4997 4998 4999 5000 0
4611 4612 4614 4615 4617 4618 4689 4692 4770 4771 4777 4779 4901 4916 4972 4994 4995 4996 4997 4998 5000 0
-5001 386 0
-5001 1101 0
-5002 455 0
-5002 1151 0
4610 4611 4613 4660 4663 4668 4689 4723 4726 4783 4814 4818 4840 4891 4925 4988 5001 5002 0
4610 4613 4660 4663 4668 4723 4726 4783 4814 4818 4840 4891 4925 4988 4989 5001 5002 0
1110 560 1102 1111 1100 1139 0
-5003 466 0
-5003 1104 0
4582 4583 4608 4693 4698 4700 4753 4808 4813 4919 4929 4942 4954 4991 5003 0
-5004 410 0
-5004 1133 0
-5005 458 0
-5005 1141 0
-5006 482 0
-5006 1146 0
4582 4583 4608 4609 4622 4679 4698 4746 4795 4852 4877 4919 4929 4942 4943 5004 5005 5006 0
1102 1117 1167 1142 1104 1148 1108 1136 1151 1154 1160 1173 1098 0
4603 4604 4611 4612 4614 4680 4688 4692 4755 4901 4954 4995 0
-5007 479 0
-5007 1143 0
4603 4604 4605 4612 4613 4692 4728 4751 4755 4901 4928 5007 0
1099 1143 1165 1109 0
-5008 170 0
-5008 577 0
-5009 311 0
-5009 624 0
-5010 311 0
-5010 689 0
4590 4601 4615 4617 4660 4780 4845 4880 4881 4919 4943 4950 5006 5008 5009 5010 0
4590 4601 4615 4617 4660 4780 4845 4880 4881 4943 5006 5008 5009 5010 0
-5011 448 0
-5011 1128 0
-5012 495 0
-5012 522 0
-5013 511 0
-5013 522 0
-5014 522 0
-5014 782 0
4609 4613 4668 4678 4718 4723 4784 4796 4915 4949 4952 4962 4992 5011 5012 5013 5014 0
4609 4613 4668 4678 4718 4723 4784 4796 4915 4949 4952 4962 5011 0
1117 1109 1165 0
-5015 389 0
-5015 1135 0
4590 4681 4699 4717 4723 4744 4764 4801 4803 4804 4807 4854 4855 4856 4857 5015 0
-5016 27 0
-5016 1064 0
-5017 28 0
-5017 1081 0
-5018 49 0
-5018 698 0
-5019 104 0
-5019 907 0
-5020 221 0
-5020 773 0
4582 4583 4633 4653 4698 4719 4738 5016 5017 5018 5019 5020 0
1102 1154 1101 0
4602 4613 4668 4723 4726 4742 4793 4807 4826 4845 4896 4952 0
4614 4629 4632 4660 4728 0
1164 1143 1165 1144 0
-5021 314 0
-5021 500 0
-5022 314 0
-5022 1011 0
4582 4583 4621 4640 4641 4661 4697 4780 4841 4861 4862 4882 4888 4889 4894 4898 4947 5021 5022 0
-5023 487 0
-5023 1167 0
-5024 493 0
-5024 1139 0
4582 4583 4594 4621 4700 4765 4787 4795 4809 4843 4845 4852 4929 4991 5023 5024 0
1104 1101 1130 1160 1103 1155 549 1173 1117 1166 1115 1167 0
-5025 381 0
-5025 1123 0
4582 4583 4621 4679 4681 4698 4700 4753 4812 4813 4841 4845 4929 4943 5003 5025 0
-5026 422 0
-5026 1149 0
4592 4614 4665 4676 4679 4707 4798 4799 4808 4911 4963 4973 5024 5026 0
1160 1166 1135 1128 1116 1117 1139 1096 1164 1107 1119 0
-5027 1174 0
-5027 1175 0
4662 4681 4800 4802 4803 4868 4899 4929 5007 5027 0
-5028 470 0
-5028 1174 0
4611 4614 4722 4727 4750 4783 4868 5028 0
4591 4596 4650 4681 4694 4740 4803 4861 4862 0
1136 1138 1110 0
4590 4615 4617 4618 4632 4654 4673 4777 4962 0
4582 4583 4611 4613 4614 4642 4657 4658 4660 4668 4734 4905 4967 4972 0
560 1144 1143 0
-5029 488 0
-5029 1172 0
4612 4644 4662 4669 4715 4815 4851 4908 4995 5001 5023 5029 0
4621 4650 4661 4663 4684 4727 4729 4785 4861 4862 4888 4889 4948 0
1131 1096 1138 1098 549 1143 0
-5030 14 0
-5030 773 0
-5031 104 0
-5031 717 0
-5032 105 0
-5032 698 0
-5033 105 0
-5033 700 0
4621 4661 4663 4684 4696 4919 4948 4950 5016 5017 5019 5030 5031 5032 5033 0
4621 4661 4663 4684 4696 4919 4948 5016 5017 5019 5030 5031 5032 5033 0
4621 4694 4696 4794 4852 4878 4920 4921 4922 4951 0
4621 4694 4696 4794 4852 4878 4920 4921 4922 0
1115 1104 1114 1160 549 0
-5034 317 0
-5034 501 0
-5035 317 0
-5035 1013 0
-5036 408 0
-5036 1110 0
-5037 408 0
-5037 1150 0
-5038 411 0
-5038 1122 0
4611 4619 4623 4646 4697 4700 4750 4828 4854 4855 4880 4893 4939 4949 4988 5034 5035 5036 5037 5038 0
-5039 437 0
-5039 1142 0
4619 4646 4662 4697 4700 4828 4854 4855 4880 4893 4913 4939 4949 5034 5035 5039 0
1104 1142 1103 1109 1114 1161 0
-5040 383 0
-5040 1103 0
-5041 426 0
-5041 1147 0
4587 4595 4599 4626 4681 4790 4815 4816 4827 4908 4965 5040 5041 0
4592 4599 4668 4815 4816 4827 5004 5041 0
1138 1133 1111 1147 560 1101 0
-5042 388 0
-5042 1108 0
-5043 416 0
-5043 1114 0
4584 4590 4592 4621 4627 4633 4642 4667 4682 4687 4725 4764 4826 4911 4945 5042 5043 0
-5044 411 0
-5044 1149 0
-5045 418 0
-5045 1105 0
4590 4621 4625 4633 4642 4659 4690 4764 4765 4784 4790 4911 5042 5043 5044 5045 0
-5046 423 0
-5046 1169 0
4584 4621 4640 4641 4661 4697 4722 4731 4773 4923 4943 4949 4984 4987 5046 0
1114 1110 1133 1169 1108 1118 1109 549 1098 1161 1137 1131 0
-5047 445 0
-5047 1106 0
4590 4660 4676 4697 4742 4820 4861 4862 4903 4938 4981 5001 5047 0
4590 4644 4660 4664 4676 4723 4813 4815 4817 4861 4862 4864 4903 4913 0
540 1107 1114 1120 545 1101 1143 1134 0
4590 4607 4613 4662 4719 4738 4815 4816 4836 4940 5002 5007 0
-5048 452 0
-5048 1169 0
4612 4614 4615 4617 4660 4694 4775 4792 4830 4831 4871 4895 4981 4987 5048 0
1142 1100 545 1163 1143 1110 0
-4581 0
