p cnf 1062 1477
1 0
2 0
3 0
4 0
5 0
6 0
7 0
8 0
9 0
10 0
11 0
12 0
13 0
14 0
15 0
16 0
17 0
18 0
19 0
20 0
21 0
22 0
23 0
24 0
25 0
26 0
27 0
28 0
29 0
30 0
31 0
32 0
33 0
34 0
35 0
36 0
37 0
38 0
39 0
40 0
41 0
42 0
43 0
44 0
45 0
46 0
47 0
48 0
49 0
50 0
51 0
52 0
53 0
54 0
55 0
56 0
57 0
58 0
59 0
60 0
61 0
62 0
63 0
64 0
65 0
66 0
67 0
68 0
69 0
70 0
71 0
72 0
73 0
74 0
75 0
76 0
77 0
78 0
79 0
80 0
81 0
82 0
83 0
84 0
85 0
86 0
87 0
88 0
89 0
90 0
91 0
92 0
93 0
94 0
95 0
96 0
97 0
98 0
99 0
100 0
101 0
102 0
103 0
104 0
105 0
106 0
107 0
108 0
109 0
110 0
111 0
112 0
113 0
114 0
115 0
116 0
117 0
118 0
119 0
120 0
121 0
122 0
123 0
124 0
125 0
126 0
127 0
128 0
129 0
130 0
131 0
132 0
133 0
134 0
135 0
136 0
137 0
138 0
139 0
140 0
141 0
142 0
143 0
144 0
145 0
146 0
147 0
148 0
149 0
150 0
151 0
152 0
153 0
154 0
155 0
156 0
157 0
158 0
159 0
160 0
161 0
162 0
163 0
164 0
165 0
166 0
167 0
168 0
169 0
170 0
171 0
172 0
173 0
174 0
175 0
176 0
177 0
178 0
179 0
180 0
181 0
182 0
183 0
184 0
185 0
186 0
187 0
188 0
189 0
190 0
191 0
192 0
193 0
194 0
195 0
196 0
197 0
198 0
199 0
200 0
201 0
202 0
203 0
204 0
205 0
206 0
207 0
208 0
209 0
210 0
211 0
212 0
213 0
214 0
215 0
216 0
217 0
218 0
219 0
220 0
221 0
222 0
223 0
224 0
225 0
226 0
227 0
228 0
229 0
230 0
231 0
232 0
233 0
234 0
235 0
236 0
237 0
238 0
239 0
240 0
241 0
242 0
243 0
244 0
245 0
246 0
247 0
248 0
249 0
250 0
251 0
252 0
253 0
254 0
255 0
256 0
257 0
258 0
259 0
260 0
261 0
262 0
263 0
264 0
265 0
266 0
267 0
268 0
269 0
270 0
271 0
272 0
273 0
274 0
275 0
276 0
277 0
278 0
279 0
280 0
281 0
282 0
283 0
284 0
285 0
286 0
287 0
288 0
289 0
290 0
291 0
292 0
293 0
294 0
295 0
296 0
297 0
298 0
299 0
300 0
301 0
302 0
303 0
304 0
305 0
306 0
307 0
308 0
309 0
310 0
311 0
312 0
313 0
314 0
315 0
316 0
317 0
318 0
319 0
320 0
321 0
322 0
323 0
324 0
325 0
326 0
327 0
328 0
329 0
330 0
331 0
332 0
333 0
334 0
335 0
336 0
337 0
338 0
339 0
340 0
341 0
342 0
343 0
344 0
345 0
346 0
347 0
348 0
349 0
350 0
351 0
352 0
353 0
354 0
355 0
356 0
357 0
358 0
359 0
360 0
361 0
362 0
363 0
364 0
365 0
366 0
367 0
368 0
369 0
370 0
371 0
372 0
373 0
374 0
375 0
376 0
377 0
378 0
379 0
380 0
381 0
382 0
383 0
384 0
385 0
386 0
387 0
388 0
389 0
390 0
391 0
392 0
393 0
394 0
395 0
396 0
397 0
398 0
399 0
400 0
401 0
402 0
403 0
404 0
405 0
406 0
407 0
408 0
409 0
410 0
411 0
412 0
413 0
414 0
415 0
416 0
417 0
418 0
419 0
420 0
421 0
422 0
423 0
424 0
425 0
426 0
427 0
428 0
429 0
430 0
431 0
432 0
433 0
434 0
435 0
436 0
437 0
438 0
439 0
440 0
441 0
442 0
443 0
444 0
445 0
446 0
447 0
448 0
449 0
450 0
451 0
452 0
453 0
454 0
455 0
456 0
457 0
458 0
459 0
460 0
461 0
462 0
463 0
464 0
465 0
466 0
467 0
468 0
469 0
470 0
471 0
472 0
473 0
474 0
475 0
476 0
477 0
478 0
479 0
480 0
481 0
482 0
483 0
484 0
485 0
486 0
487 0
488 0
489 0
490 0
491 0
492 0
493 0
494 0
495 0
496 0
497 0
498 0
499 0
500 0
501 0
502 0
503 0
504 0
505 0
506 0
-510 548 549 550 0
-511 551 552 553 0
-512 556 557 558 0
-528 529 547 564 591 0
-534 535 555 583 597 0
-542 543 560 613 623 0
-546 571 625 0
-548 510 614 0
-549 510 513 0
-551 511 631 0
-552 511 518 0
-554 572 601 0
-556 512 585 0
-558 512 523 0
-559 602 627 0
-561 565 593 633 0
-562 563 566 0
-569 514 630 0
-574 514 575 0
-575 574 584 0
-576 577 580 0
-580 519 576 0
-581 530 582 594 637 0
-582 531 581 594 0
-585 556 557 583 0
-586 563 587 637 0
-587 545 586 0
-592 532 610 0
-593 541 561 633 0
-594 581 582 598 0
-595 596 599 0
-603 519 604 0
-604 590 603 0
-605 606 609 0
-609 524 605 0
-610 592 596 639 0
-611 536 612 619 639 0
-612 537 611 619 0
-614 548 550 613 0
-618 538 632 0
-619 611 612 622 0
-621 620 624 0
-628 524 629 0
-629 617 628 0
-630 569 573 0
-631 551 553 591 0
-632 618 620 641 0
-633 540 561 593 641 0
-636 0
-637 581 586 0
-638 0
-639 610 611 0
-640 0
-641 632 633 0
-508 642 0
-507 642 0
-507 -508 643 0
-510 644 0
-509 644 0
-509 -510 645 0
-512 646 0
-511 646 0
-511 -512 647 0
-514 648 0
-513 648 0
-513 -514 649 0
-516 650 0
-515 650 0
-515 -516 651 0
-518 652 0
-517 652 0
-517 -518 653 0
-520 654 0
-519 654 0
-519 -520 655 0
-522 656 0
-521 656 0
-521 -522 657 0
-524 658 0
-523 658 0
-523 -524 659 0
-526 660 0
-525 660 0
-525 -526 661 0
-528 662 0
-527 662 0
-527 -528 663 0
-530 664 0
-529 664 0
-529 -530 665 0
-532 666 0
-531 666 0
-531 -532 667 0
-534 668 0
-533 668 0
-533 -534 669 0
-536 670 0
-535 670 0
-535 -536 671 0
-538 672 0
-537 672 0
-537 -538 673 0
-540 674 0
-539 674 0
-539 -540 675 0
-542 676 0
-541 676 0
-541 -542 677 0
-544 678 0
-543 678 0
-543 -544 679 0
-546 680 0
-545 680 0
-545 -546 681 0
-548 682 0
-547 682 0
-547 -548 683 0
-550 684 0
-549 684 0
-549 -550 685 0
-552 686 0
-551 686 0
-551 -552 687 0
-554 688 0
-553 688 0
-553 -554 689 0
-556 690 0
-555 690 0
-555 -556 691 0
-558 692 0
-557 692 0
-557 -558 693 0
-560 694 0
-559 694 0
-559 -560 695 0
-562 696 0
-561 696 0
-561 -562 697 0
-564 698 0
-563 698 0
-563 -564 699 0
-566 700 0
-565 700 0
-565 -566 701 0
-568 702 0
-567 702 0
-567 -568 703 0
-570 704 0
-569 704 0
-569 -570 705 0
-572 706 0
-571 706 0
-571 -572 707 0
-574 708 0
-573 708 0
-573 -574 709 0
-576 710 0
-575 710 0
-575 -576 711 0
-578 712 0
-577 712 0
-577 -578 713 0
-580 714 0
-579 714 0
-579 -580 715 0
-582 716 0
-581 716 0
-581 -582 717 0
-584 718 0
-583 718 0
-583 -584 719 0
-586 720 0
-585 720 0
-585 -586 721 0
-588 722 0
-587 722 0
-587 -588 723 0
-590 724 0
-589 724 0
-589 -590 725 0
-592 726 0
-591 726 0
-591 -592 727 0
-594 728 0
-593 728 0
-593 -594 729 0
-596 730 0
-595 730 0
-595 -596 731 0
-598 732 0
-597 732 0
-597 -598 733 0
-600 734 0
-599 734 0
-599 -600 735 0
-602 736 0
-601 736 0
-601 -602 737 0
-604 738 0
-603 738 0
-603 -604 739 0
-606 740 0
-605 740 0
-605 -606 741 0
-608 742 0
-607 742 0
-607 -608 743 0
-610 744 0
-609 744 0
-609 -610 745 0
-612 746 0
-611 746 0
-611 -612 747 0
-614 748 0
-613 748 0
-613 -614 749 0
-616 750 0
-615 750 0
-615 -616 751 0
-618 752 0
-617 752 0
-617 -618 753 0
-620 754 0
-619 754 0
-619 -620 755 0
-622 756 0
-621 756 0
-621 -622 757 0
-624 758 0
-623 758 0
-623 -624 759 0
-626 760 0
-625 760 0
-625 -626 761 0
-628 762 0
-627 762 0
-627 -628 763 0
-630 764 0
-629 764 0
-629 -630 765 0
-632 766 0
-631 766 0
-631 -632 767 0
-634 768 0
-633 768 0
-633 -634 769 0
-636 770 0
-635 770 0
-635 -636 771 0
-638 772 0
-637 772 0
-637 -638 773 0
-640 774 0
-639 774 0
-639 -640 775 0
-642 776 0
-643 777 0
-641 776 0
-641 -642 777 0
-641 -643 778 0
-646 779 0
-647 780 0
-644 779 0
-645 780 0
-644 -646 780 0
-644 -647 781 0
-645 -646 781 0
-650 782 0
-651 783 0
-648 782 0
-649 783 0
-648 -650 783 0
-648 -651 784 0
-649 -650 784 0
-654 785 0
-655 786 0
-652 785 0
-653 786 0
-652 -654 786 0
-652 -655 787 0
-653 -654 787 0
-658 788 0
-659 789 0
-656 788 0
-657 789 0
-656 -658 789 0
-656 -659 790 0
-657 -658 790 0
-662 791 0
-663 792 0
-660 791 0
-661 792 0
-660 -662 792 0
-660 -663 793 0
-661 -662 793 0
-666 794 0
-667 795 0
-664 794 0
-665 795 0
-664 -666 795 0
-664 -667 796 0
-665 -666 796 0
-670 797 0
-671 798 0
-668 797 0
-669 798 0
-668 -670 798 0
-668 -671 799 0
-669 -670 799 0
-674 800 0
-675 801 0
-672 800 0
-673 801 0
-672 -674 801 0
-672 -675 802 0
-673 -674 802 0
-678 803 0
-679 804 0
-676 803 0
-677 804 0
-676 -678 804 0
-676 -679 805 0
-677 -678 805 0
-682 806 0
-683 807 0
-680 806 0
-681 807 0
-680 -682 807 0
-680 -683 808 0
-681 -682 808 0
-686 809 0
-687 810 0
-684 809 0
-685 810 0
-684 -686 810 0
-684 -687 811 0
-685 -686 811 0
-690 812 0
-691 813 0
-688 812 0
-689 813 0
-688 -690 813 0
-688 -691 814 0
-689 -690 814 0
-694 815 0
-695 816 0
-692 815 0
-693 816 0
-692 -694 816 0
-692 -695 817 0
-693 -694 817 0
-698 818 0
-699 819 0
-696 818 0
-697 819 0
-696 -698 819 0
-696 -699 820 0
-697 -698 820 0
-702 821 0
-703 822 0
-700 821 0
-701 822 0
-700 -702 822 0
-700 -703 823 0
-701 -702 823 0
-706 824 0
-707 825 0
-704 824 0
-705 825 0
-704 -706 825 0
-704 -707 826 0
-705 -706 826 0
-710 827 0
-711 828 0
-708 827 0
-709 828 0
-708 -710 828 0
-708 -711 829 0
-709 -710 829 0
-714 830 0
-715 831 0
-712 830 0
-713 831 0
-712 -714 831 0
-712 -715 832 0
-713 -714 832 0
-718 833 0
-719 834 0
-716 833 0
-717 834 0
-716 -718 834 0
-716 -719 835 0
-717 -718 835 0
-722 836 0
-723 837 0
-720 836 0
-721 837 0
-720 -722 837 0
-720 -723 838 0
-721 -722 838 0
-726 839 0
-727 840 0
-724 839 0
-725 840 0
-724 -726 840 0
-724 -727 841 0
-725 -726 841 0
-730 842 0
-731 843 0
-728 842 0
-729 843 0
-728 -730 843 0
-728 -731 844 0
-729 -730 844 0
-734 845 0
-735 846 0
-732 845 0
-733 846 0
-732 -734 846 0
-732 -735 847 0
-733 -734 847 0
-738 848 0
-739 849 0
-736 848 0
-737 849 0
-736 -738 849 0
-736 -739 850 0
-737 -738 850 0
-742 851 0
-743 852 0
-740 851 0
-741 852 0
-740 -742 852 0
-740 -743 853 0
-741 -742 853 0
-746 854 0
-747 855 0
-744 854 0
-745 855 0
-744 -746 855 0
-744 -747 856 0
-745 -746 856 0
-750 857 0
-751 858 0
-748 857 0
-749 858 0
-748 -750 858 0
-748 -751 859 0
-749 -750 859 0
-754 860 0
-755 861 0
-752 860 0
-753 861 0
-752 -754 861 0
-752 -755 862 0
-753 -754 862 0
-758 863 0
-759 864 0
-756 863 0
-757 864 0
-756 -758 864 0
-756 -759 865 0
-757 -758 865 0
-762 866 0
-763 867 0
-760 866 0
-761 867 0
-760 -762 867 0
-760 -763 868 0
-761 -762 868 0
-766 869 0
-767 870 0
-764 869 0
-765 870 0
-764 -766 870 0
-764 -767 871 0
-765 -766 871 0
-770 872 0
-771 873 0
-768 872 0
-769 873 0
-768 -770 873 0
-768 -771 874 0
-769 -770 874 0
-774 875 0
-775 876 0
-772 875 0
-773 876 0
-772 -774 876 0
-772 -775 877 0
-773 -774 877 0
-779 878 0
-780 879 0
-781 880 0
-776 878 0
-777 879 0
-778 880 0
-776 -779 879 0
-776 -780 880 0
-777 -779 880 0
-785 881 0
-786 882 0
-787 883 0
-782 881 0
-783 882 0
-784 883 0
-782 -785 882 0
-782 -786 883 0
-783 -785 883 0
-791 884 0
-792 885 0
-793 886 0
-788 884 0
-789 885 0
-790 886 0
-788 -791 885 0
-788 -792 886 0
-789 -791 886 0
-797 887 0
-798 888 0
-799 889 0
-794 887 0
-795 888 0
-796 889 0
-794 -797 888 0
-794 -798 889 0
-795 -797 889 0
-803 890 0
-804 891 0
-805 892 0
-800 890 0
-801 891 0
-802 892 0
-800 -803 891 0
-800 -804 892 0
-801 -803 892 0
-809 893 0
-810 894 0
-811 895 0
-806 893 0
-807 894 0
-808 895 0
-806 -809 894 0
-806 -810 895 0
-807 -809 895 0
-815 896 0
-816 897 0
-817 898 0
-812 896 0
-813 897 0
-814 898 0
-812 -815 897 0
-812 -816 898 0
-813 -815 898 0
-821 899 0
-822 900 0
-823 901 0
-818 899 0
-819 900 0
-820 901 0
-818 -821 900 0
-818 -822 901 0
-819 -821 901 0
-827 902 0
-828 903 0
-829 904 0
-824 902 0
-825 903 0
-826 904 0
-824 -827 903 0
-824 -828 904 0
-825 -827 904 0
-833 905 0
-834 906 0
-835 907 0
-830 905 0
-831 906 0
-832 907 0
-830 -833 906 0
-830 -834 907 0
-831 -833 907 0
-839 908 0
-840 909 0
-841 910 0
-836 908 0
-837 909 0
-838 910 0
-836 -839 909 0
-836 -840 910 0
-837 -839 910 0
-845 911 0
-846 912 0
-847 913 0
-842 911 0
-843 912 0
-844 913 0
-842 -845 912 0
-842 -846 913 0
-843 -845 913 0
-851 914 0
-852 915 0
-853 916 0
-848 914 0
-849 915 0
-850 916 0
-848 -851 915 0
-848 -852 916 0
-849 -851 916 0
-857 917 0
-858 918 0
-859 919 0
-854 917 0
-855 918 0
-856 919 0
-854 -857 918 0
-854 -858 919 0
-855 -857 919 0
-863 920 0
-864 921 0
-865 922 0
-860 920 0
-861 921 0
-862 922 0
-860 -863 921 0
-860 -864 922 0
-861 -863 922 0
-869 923 0
-870 924 0
-871 925 0
-866 923 0
-867 924 0
-868 925 0
-866 -869 924 0
-866 -870 925 0
-867 -869 925 0
-875 926 0
-876 927 0
-877 928 0
-872 926 0
-873 927 0
-874 928 0
-872 -875 927 0
-872 -876 928 0
-873 -875 928 0
-881 929 0
-882 930 0
-883 931 0
-878 929 0
-879 930 0
-880 931 0
-878 -881 930 0
-878 -882 931 0
-879 -881 931 0
-887 932 0
-888 933 0
-889 934 0
-884 932 0
-885 933 0
-886 934 0
-884 -887 933 0
-884 -888 934 0
-885 -887 934 0
-893 935 0
-894 936 0
-895 937 0
-890 935 0
-891 936 0
-892 937 0
-890 -893 936 0
-890 -894 937 0
-891 -893 937 0
-899 938 0
-900 939 0
-901 940 0
-896 938 0
-897 939 0
-898 940 0
-896 -899 939 0
-896 -900 940 0
-897 -899 940 0
-905 941 0
-906 942 0
-907 943 0
-902 941 0
-903 942 0
-904 943 0
-902 -905 942 0
-902 -906 943 0
-903 -905 943 0
-911 944 0
-912 945 0
-913 946 0
-908 944 0
-909 945 0
-910 946 0
-908 -911 945 0
-908 -912 946 0
-909 -911 946 0
-917 947 0
-918 948 0
-919 949 0
-914 947 0
-915 948 0
-916 949 0
-914 -917 948 0
-914 -918 949 0
-915 -917 949 0
-923 950 0
-924 951 0
-925 952 0
-920 950 0
-921 951 0
-922 952 0
-920 -923 951 0
-920 -924 952 0
-921 -923 952 0
-929 953 0
-930 954 0
-931 955 0
-926 953 0
-927 954 0
-928 955 0
-926 -929 954 0
-926 -930 955 0
-927 -929 955 0
-935 956 0
-936 957 0
-937 958 0
-932 956 0
-933 957 0
-934 958 0
-932 -935 957 0
-932 -936 958 0
-933 -935 958 0
-941 959 0
-942 960 0
-943 961 0
-938 959 0
-939 960 0
-940 961 0
-938 -941 960 0
-938 -942 961 0
-939 -941 961 0
-947 962 0
-948 963 0
-949 964 0
-944 962 0
-945 963 0
-946 964 0
-944 -947 963 0
-944 -948 964 0
-945 -947 964 0
-953 965 0
-954 966 0
-955 967 0
-950 965 0
-951 966 0
-952 967 0
-950 -953 966 0
-950 -954 967 0
-951 -953 967 0
-959 968 0
-960 969 0
-961 970 0
-956 968 0
-957 969 0
-958 970 0
-956 -959 969 0
-956 -960 970 0
-957 -959 970 0
-965 971 0
-966 972 0
-967 973 0
-962 971 0
-963 972 0
-964 973 0
-962 -965 972 0
-962 -966 973 0
-963 -965 973 0
-971 974 0
-972 975 0
-973 976 0
-968 974 0
-969 975 0
-970 976 0
-968 -971 975 0
-968 -972 976 0
-969 -971 976 0
-977 393 0
-977 509 0
-978 393 0
-978 520 0
-979 394 0
-979 517 0
-980 415 0
-980 537 0
-981 419 0
-981 531 0
-982 422 0
-982 526 0
-983 423 0
-983 541 0
-984 495 0
-984 516 0
-985 496 0
-985 529 0
-986 499 0
-986 525 0
-987 500 0
-987 543 0
-988 503 0
-988 522 0
-989 504 0
-989 535 0
-990 507 0
-990 533 0
-991 508 0
-991 539 0
977 978 979 980 981 982 983 984 985 986 987 988 989 990 991 0
-992 438 0
-992 617 0
-993 441 0
-993 533 0
-994 484 0
-994 620 0
989 992 993 994 0
617 620 535 0
-995 381 0
-995 617 0
-996 393 0
-996 522 0
-997 425 0
-997 584 0
-998 434 0
-998 561 0
-999 434 0
-999 568 0
-1000 443 0
-1000 598 0
-1001 464 0
-1001 536 0
-1002 470 0
-1002 599 0
-1003 472 0
-1003 584 0
-1004 479 0
-1004 634 0
-1005 544 0
-1005 577 0
-1006 590 0
-1006 596 0
978 982 985 986 987 989 990 995 996 997 998 999 1000 1001 1002 1003 1004 1005 1006 0
-1007 376 0
-1007 561 0
-1008 379 0
-1008 584 0
-1009 393 0
-1009 598 0
-1010 434 0
-1010 634 0
-1011 536 0
-1011 537 0
-1012 539 0
-1012 568 0
-1013 563 0
-1013 584 0
-1014 595 0
-1014 599 0
978 982 985 986 987 989 990 996 1005 1006 1007 1008 1009 1010 1011 1012 1013 1014 0
-1015 395 0
-1015 585 0
-1016 424 0
-1016 536 0
-1017 424 0
-1017 606 0
-1018 431 0
-1018 600 0
-1019 431 0
-1019 603 0
-1020 432 0
-1020 565 0
-1021 441 0
-1021 596 0
-1022 449 0
-1022 535 0
-1023 453 0
-1023 508 0
-1024 453 0
-1024 542 0
-1025 456 0
-1025 579 0
-1026 471 0
-1026 601 0
-1027 478 0
-1027 570 0
-1028 489 0
-1028 515 0
-1029 501 0
-1029 613 0
-1030 504 0
-1030 597 0
-1031 530 0
-1031 581 0
-1032 535 0
-1032 538 0
979 985 1015 1016 1017 1018 1019 1020 1021 1022 1023 1024 1025 1026 1027 1028 1029 1030 1031 1032 0
596 515 585 517 581 542 597 535 579 519 565 529 508 0
-1033 447 0
-1033 522 0
-1034 485 0
-1034 590 0
-1035 491 0
-1035 527 0
-1036 508 0
-1036 521 0
-1037 540 0
-1037 633 0
1021 1033 1034 1035 1036 1037 0
-1038 384 0
-1038 547 0
-1039 386 0
-1039 560 0
-1040 388 0
-1040 555 0
-1041 397 0
-1041 517 0
-1042 401 0
-1042 526 0
-1043 405 0
-1043 520 0
-1044 408 0
-1044 518 0
-1045 408 0
-1045 537 0
-1046 409 0
-1046 513 0
-1047 409 0
-1047 531 0
-1048 410 0
-1048 523 0
-1049 410 0
-1049 538 0
-1050 410 0
-1050 541 0
-1051 413 0
-1051 601 0
-1052 417 0
-1052 625 0
-1053 425 0
-1053 572 0
-1054 440 0
-1054 559 0
-1055 451 0
-1055 545 0
-1056 453 0
-1056 632 0
-1057 496 0
-1057 637 0
-1058 499 0
-1058 546 0
-1059 521 0
-1059 522 0
-1060 529 0
-1060 532 0
-1061 536 0
-1061 611 0
-1062 596 0
-1062 610 0
1031 1037 1038 1039 1040 1041 1042 1043 1044 1045 1046 1047 1048 1049 1050 1051 1052 1053 1054 1055 1056 1057 1058 1059 1060 1061 1062 0
531 523 581 517 538 611 555 546 565 526 559 518 545 641 537 513 637 639 532 560 547 541 520 0
-976 0
