p cnf 2353 6888
1 0
2 0
3 0
4 0
5 0
6 0
7 0
8 0
9 0
10 0
11 0
12 0
13 0
14 0
15 0
16 0
17 0
18 0
19 0
20 0
21 0
22 0
23 0
24 0
25 0
26 0
27 0
28 0
29 0
30 0
31 0
32 0
33 0
34 0
35 0
36 0
37 0
38 0
39 0
40 0
41 0
42 0
43 0
44 0
45 0
46 0
47 0
48 0
49 0
50 0
51 0
52 0
53 0
54 0
55 0
56 0
57 0
58 0
59 0
60 0
61 0
62 0
63 0
64 0
65 0
66 0
67 0
68 0
69 0
70 0
71 0
72 0
73 0
74 0
75 0
76 0
77 0
78 0
79 0
80 0
81 0
82 0
83 0
84 0
85 0
86 0
87 0
88 0
89 0
90 0
91 0
92 0
93 0
94 0
95 0
96 0
97 0
98 0
99 0
100 0
101 0
102 0
103 0
104 0
105 0
106 0
107 0
108 0
109 0
110 0
111 0
112 0
113 0
114 0
115 0
116 0
117 0
118 0
119 0
120 0
121 0
122 0
123 0
124 0
125 0
126 0
127 0
128 0
129 0
130 0
131 0
132 0
133 0
134 0
135 0
136 0
137 0
138 0
139 0
140 0
141 0
142 0
143 0
144 0
145 0
146 0
147 0
148 0
149 0
150 0
151 0
152 0
153 0
154 0
155 0
156 0
157 0
158 0
159 0
160 0
161 0
162 0
163 0
164 0
165 0
166 0
167 0
168 0
169 0
170 0
171 0
172 0
173 0
174 0
175 0
176 0
177 0
178 0
179 0
180 0
181 0
182 0
183 0
184 0
185 0
186 0
187 0
188 0
189 0
190 0
191 0
192 0
193 0
194 0
195 0
196 0
197 0
198 0
199 0
200 0
201 0
202 0
203 0
204 0
205 0
206 0
207 0
208 0
209 0
210 0
211 0
212 0
213 0
214 0
215 0
216 0
217 0
218 0
219 0
220 0
221 0
222 0
223 0
224 0
225 0
226 0
227 0
228 0
229 0
230 0
231 0
232 0
233 0
234 0
235 0
236 0
237 0
238 0
239 0
240 0
241 0
242 0
243 0
244 0
245 0
246 0
247 0
248 0
249 0
250 0
251 0
252 0
253 0
254 0
255 0
256 0
257 0
258 0
259 0
260 0
261 0
262 0
263 0
264 0
265 0
266 0
267 0
268 0
269 0
270 0
271 0
272 0
273 0
274 0
275 0
276 0
277 0
278 0
279 0
280 0
281 0
282 0
283 0
284 0
285 0
286 0
287 0
288 0
289 0
290 0
291 0
292 0
293 0
294 0
295 0
296 0
297 0
298 0
299 0
300 0
301 0
302 0
303 0
304 0
305 0
306 0
307 0
308 0
309 0
310 0
311 0
312 0
313 0
314 0
315 0
316 0
317 0
318 0
319 0
320 0
321 0
322 0
323 0
324 0
325 0
326 0
327 0
328 0
329 0
330 0
331 0
332 0
333 0
334 0
335 0
336 0
337 0
338 0
339 0
340 0
341 0
342 0
343 0
344 0
345 0
346 0
347 0
348 0
349 0
350 0
351 0
352 0
353 0
354 0
355 0
356 0
357 0
358 0
359 0
360 0
361 0
362 0
363 0
364 0
365 0
366 0
367 0
368 0
369 0
370 0
371 0
372 0
373 0
374 0
375 0
376 0
377 0
378 0
379 0
380 0
381 0
382 0
383 0
384 0
385 0
386 0
387 0
388 0
389 0
390 0
391 0
392 0
393 0
394 0
395 0
396 0
397 0
398 0
399 0
400 0
401 0
402 0
403 0
404 0
405 0
406 0
407 0
408 0
409 0
410 0
411 0
412 0
413 0
414 0
415 0
416 0
417 0
418 0
419 0
420 0
421 0
422 0
423 0
424 0
425 0
426 0
427 0
428 0
429 0
430 0
431 0
432 0
433 0
434 0
435 0
436 0
437 0
438 0
439 0
440 0
441 0
442 0
443 0
444 0
445 0
446 0
447 0
448 0
449 0
450 0
451 0
452 0
453 0
454 0
455 0
456 0
457 0
458 0
459 0
460 0
461 0
462 0
463 0
464 0
465 0
466 0
467 0
468 0
469 0
470 0
471 0
472 0
473 0
474 0
475 0
476 0
477 0
478 0
479 0
480 0
481 0
482 0
483 0
484 0
485 0
486 0
487 0
488 0
489 0
490 0
491 0
-744 683 699 714 726 0
-745 689 707 742 0
-493 746 0
-492 746 0
-492 -493 747 0
-495 748 0
-494 748 0
-494 -495 749 0
-497 750 0
-496 750 0
-496 -497 751 0
-499 752 0
-498 752 0
-498 -499 753 0
-501 754 0
-500 754 0
-500 -501 755 0
-503 756 0
-502 756 0
-502 -503 757 0
-505 758 0
-504 758 0
-504 -505 759 0
-507 760 0
-506 760 0
-506 -507 761 0
-509 762 0
-508 762 0
-508 -509 763 0
-511 764 0
-510 764 0
-510 -511 765 0
-513 766 0
-512 766 0
-512 -513 767 0
-515 768 0
-514 768 0
-514 -515 769 0
-517 770 0
-516 770 0
-516 -517 771 0
-519 772 0
-518 772 0
-518 -519 773 0
-521 774 0
-520 774 0
-520 -521 775 0
-523 776 0
-522 776 0
-522 -523 777 0
-525 778 0
-524 778 0
-524 -525 779 0
-527 780 0
-526 780 0
-526 -527 781 0
-529 782 0
-528 782 0
-528 -529 783 0
-531 784 0
-530 784 0
-530 -531 785 0
-533 786 0
-532 786 0
-532 -533 787 0
-535 788 0
-534 788 0
-534 -535 789 0
-537 790 0
-536 790 0
-536 -537 791 0
-539 792 0
-538 792 0
-538 -539 793 0
-541 794 0
-540 794 0
-540 -541 795 0
-543 796 0
-542 796 0
-542 -543 797 0
-545 798 0
-544 798 0
-544 -545 799 0
-547 800 0
-546 800 0
-546 -547 801 0
-549 802 0
-548 802 0
-548 -549 803 0
-551 804 0
-550 804 0
-550 -551 805 0
-553 806 0
-552 806 0
-552 -553 807 0
-555 808 0
-554 808 0
-554 -555 809 0
-557 810 0
-556 810 0
-556 -557 811 0
-559 812 0
-558 812 0
-558 -559 813 0
-561 814 0
-560 814 0
-560 -561 815 0
-563 816 0
-562 816 0
-562 -563 817 0
-565 818 0
-564 818 0
-564 -565 819 0
-567 820 0
-566 820 0
-566 -567 821 0
-569 822 0
-568 822 0
-568 -569 823 0
-571 824 0
-570 824 0
-570 -571 825 0
-573 826 0
-572 826 0
-572 -573 827 0
-575 828 0
-574 828 0
-574 -575 829 0
-577 830 0
-576 830 0
-576 -577 831 0
-579 832 0
-578 832 0
-578 -579 833 0
-581 834 0
-580 834 0
-580 -581 835 0
-583 836 0
-582 836 0
-582 -583 837 0
-585 838 0
-584 838 0
-584 -585 839 0
-587 840 0
-586 840 0
-586 -587 841 0
-589 842 0
-588 842 0
-588 -589 843 0
-591 844 0
-590 844 0
-590 -591 845 0
-593 846 0
-592 846 0
-592 -593 847 0
-595 848 0
-594 848 0
-594 -595 849 0
-597 850 0
-596 850 0
-596 -597 851 0
-599 852 0
-598 852 0
-598 -599 853 0
-601 854 0
-600 854 0
-600 -601 855 0
-603 856 0
-602 856 0
-602 -603 857 0
-605 858 0
-604 858 0
-604 -605 859 0
-607 860 0
-606 860 0
-606 -607 861 0
-609 862 0
-608 862 0
-608 -609 863 0
-611 864 0
-610 864 0
-610 -611 865 0
-613 866 0
-612 866 0
-612 -613 867 0
-615 868 0
-614 868 0
-614 -615 869 0
-617 870 0
-616 870 0
-616 -617 871 0
-619 872 0
-618 872 0
-618 -619 873 0
-621 874 0
-620 874 0
-620 -621 875 0
-623 876 0
-622 876 0
-622 -623 877 0
-625 878 0
-624 878 0
-624 -625 879 0
-627 880 0
-626 880 0
-626 -627 881 0
-629 882 0
-628 882 0
-628 -629 883 0
-631 884 0
-630 884 0
-630 -631 885 0
-633 886 0
-632 886 0
-632 -633 887 0
-635 888 0
-634 888 0
-634 -635 889 0
-637 890 0
-636 890 0
-636 -637 891 0
-639 892 0
-638 892 0
-638 -639 893 0
-641 894 0
-640 894 0
-640 -641 895 0
-643 896 0
-642 896 0
-642 -643 897 0
-645 898 0
-644 898 0
-644 -645 899 0
-647 900 0
-646 900 0
-646 -647 901 0
-649 902 0
-648 902 0
-648 -649 903 0
-651 904 0
-650 904 0
-650 -651 905 0
-653 906 0
-652 906 0
-652 -653 907 0
-655 908 0
-654 908 0
-654 -655 909 0
-657 910 0
-656 910 0
-656 -657 911 0
-659 912 0
-658 912 0
-658 -659 913 0
-661 914 0
-660 914 0
-660 -661 915 0
-663 916 0
-662 916 0
-662 -663 917 0
-665 918 0
-664 918 0
-664 -665 919 0
-667 920 0
-666 920 0
-666 -667 921 0
-669 922 0
-668 922 0
-668 -669 923 0
-671 924 0
-670 924 0
-670 -671 925 0
-673 926 0
-672 926 0
-672 -673 927 0
-675 928 0
-674 928 0
-674 -675 929 0
-677 930 0
-676 930 0
-676 -677 931 0
-679 932 0
-678 932 0
-678 -679 933 0
-681 934 0
-680 934 0
-680 -681 935 0
-683 936 0
-682 936 0
-682 -683 937 0
-685 938 0
-684 938 0
-684 -685 939 0
-687 940 0
-686 940 0
-686 -687 941 0
-689 942 0
-688 942 0
-688 -689 943 0
-691 944 0
-690 944 0
-690 -691 945 0
-693 946 0
-692 946 0
-692 -693 947 0
-695 948 0
-694 948 0
-694 -695 949 0
-697 950 0
-696 950 0
-696 -697 951 0
-699 952 0
-698 952 0
-698 -699 953 0
-701 954 0
-700 954 0
-700 -701 955 0
-703 956 0
-702 956 0
-702 -703 957 0
-705 958 0
-704 958 0
-704 -705 959 0
-707 960 0
-706 960 0
-706 -707 961 0
-709 962 0
-708 962 0
-708 -709 963 0
-711 964 0
-710 964 0
-710 -711 965 0
-713 966 0
-712 966 0
-712 -713 967 0
-715 968 0
-714 968 0
-714 -715 969 0
-717 970 0
-716 970 0
-716 -717 971 0
-719 972 0
-718 972 0
-718 -719 973 0
-721 974 0
-720 974 0
-720 -721 975 0
-723 976 0
-722 976 0
-722 -723 977 0
-725 978 0
-724 978 0
-724 -725 979 0
-727 980 0
-726 980 0
-726 -727 981 0
-729 982 0
-728 982 0
-728 -729 983 0
-731 984 0
-730 984 0
-730 -731 985 0
-733 986 0
-732 986 0
-732 -733 987 0
-735 988 0
-734 988 0
-734 -735 989 0
-737 990 0
-736 990 0
-736 -737 991 0
-739 992 0
-738 992 0
-738 -739 993 0
-741 994 0
-740 994 0
-740 -741 995 0
-743 996 0
-742 996 0
-742 -743 997 0
-745 998 0
-744 998 0
-744 -745 999 0
-748 1000 0
-749 1001 0
-746 1000 0
-747 1001 0
-746 -748 1001 0
-746 -749 1002 0
-747 -748 1002 0
-747 -749 1003 0
-752 1004 0
-753 1005 0
-750 1004 0
-751 1005 0
-750 -752 1005 0
-750 -753 1006 0
-751 -752 1006 0
-751 -753 1007 0
-756 1008 0
-757 1009 0
-754 1008 0
-755 1009 0
-754 -756 1009 0
-754 -757 1010 0
-755 -756 1010 0
-755 -757 1011 0
-760 1012 0
-761 1013 0
-758 1012 0
-759 1013 0
-758 -760 1013 0
-758 -761 1014 0
-759 -760 1014 0
-759 -761 1015 0
-764 1016 0
-765 1017 0
-762 1016 0
-763 1017 0
-762 -764 1017 0
-762 -765 1018 0
-763 -764 1018 0
-763 -765 1019 0
-768 1020 0
-769 1021 0
-766 1020 0
-767 1021 0
-766 -768 1021 0
-766 -769 1022 0
-767 -768 1022 0
-767 -769 1023 0
-772 1024 0
-773 1025 0
-770 1024 0
-771 1025 0
-770 -772 1025 0
-770 -773 1026 0
-771 -772 1026 0
-771 -773 1027 0
-776 1028 0
-777 1029 0
-774 1028 0
-775 1029 0
-774 -776 1029 0
-774 -777 1030 0
-775 -776 1030 0
-775 -777 1031 0
-780 1032 0
-781 1033 0
-778 1032 0
-779 1033 0
-778 -780 1033 0
-778 -781 1034 0
-779 -780 1034 0
-779 -781 1035 0
-784 1036 0
-785 1037 0
-782 1036 0
-783 1037 0
-782 -784 1037 0
-782 -785 1038 0
-783 -784 1038 0
-783 -785 1039 0
-788 1040 0
-789 1041 0
-786 1040 0
-787 1041 0
-786 -788 1041 0
-786 -789 1042 0
-787 -788 1042 0
-787 -789 1043 0
-792 1044 0
-793 1045 0
-790 1044 0
-791 1045 0
-790 -792 1045 0
-790 -793 1046 0
-791 -792 1046 0
-791 -793 1047 0
-796 1048 0
-797 1049 0
-794 1048 0
-795 1049 0
-794 -796 1049 0
-794 -797 1050 0
-795 -796 1050 0
-795 -797 1051 0
-800 1052 0
-801 1053 0
-798 1052 0
-799 1053 0
-798 -800 1053 0
-798 -801 1054 0
-799 -800 1054 0
-799 -801 1055 0
-804 1056 0
-805 1057 0
-802 1056 0
-803 1057 0
-802 -804 1057 0
-802 -805 1058 0
-803 -804 1058 0
-803 -805 1059 0
-808 1060 0
-809 1061 0
-806 1060 0
-807 1061 0
-806 -808 1061 0
-806 -809 1062 0
-807 -808 1062 0
-807 -809 1063 0
-812 1064 0
-813 1065 0
-810 1064 0
-811 1065 0
-810 -812 1065 0
-810 -813 1066 0
-811 -812 1066 0
-811 -813 1067 0
-816 1068 0
-817 1069 0
-814 1068 0
-815 1069 0
-814 -816 1069 0
-814 -817 1070 0
-815 -816 1070 0
-815 -817 1071 0
-820 1072 0
-821 1073 0
-818 1072 0
-819 1073 0
-818 -820 1073 0
-818 -821 1074 0
-819 -820 1074 0
-819 -821 1075 0
-824 1076 0
-825 1077 0
-822 1076 0
-823 1077 0
-822 -824 1077 0
-822 -825 1078 0
-823 -824 1078 0
-823 -825 1079 0
-828 1080 0
-829 1081 0
-826 1080 0
-827 1081 0
-826 -828 1081 0
-826 -829 1082 0
-827 -828 1082 0
-827 -829 1083 0
-832 1084 0
-833 1085 0
-830 1084 0
-831 1085 0
-830 -832 1085 0
-830 -833 1086 0
-831 -832 1086 0
-831 -833 1087 0
-836 1088 0
-837 1089 0
-834 1088 0
-835 1089 0
-834 -836 1089 0
-834 -837 1090 0
-835 -836 1090 0
-835 -837 1091 0
-840 1092 0
-841 1093 0
-838 1092 0
-839 1093 0
-838 -840 1093 0
-838 -841 1094 0
-839 -840 1094 0
-839 -841 1095 0
-844 1096 0
-845 1097 0
-842 1096 0
-843 1097 0
-842 -844 1097 0
-842 -845 1098 0
-843 -844 1098 0
-843 -845 1099 0
-848 1100 0
-849 1101 0
-846 1100 0
-847 1101 0
-846 -848 1101 0
-846 -849 1102 0
-847 -848 1102 0
-847 -849 1103 0
-852 1104 0
-853 1105 0
-850 1104 0
-851 1105 0
-850 -852 1105 0
-850 -853 1106 0
-851 -852 1106 0
-851 -853 1107 0
-856 1108 0
-857 1109 0
-854 1108 0
-855 1109 0
-854 -856 1109 0
-854 -857 1110 0
-855 -856 1110 0
-855 -857 1111 0
-860 1112 0
-861 1113 0
-858 1112 0
-859 1113 0
-858 -860 1113 0
-858 -861 1114 0
-859 -860 1114 0
-859 -861 1115 0
-864 1116 0
-865 1117 0
-862 1116 0
-863 1117 0
-862 -864 1117 0
-862 -865 1118 0
-863 -864 1118 0
-863 -865 1119 0
-868 1120 0
-869 1121 0
-866 1120 0
-867 1121 0
-866 -868 1121 0
-866 -869 1122 0
-867 -868 1122 0
-867 -869 1123 0
-872 1124 0
-873 1125 0
-870 1124 0
-871 1125 0
-870 -872 1125 0
-870 -873 1126 0
-871 -872 1126 0
-871 -873 1127 0
-876 1128 0
-877 1129 0
-874 1128 0
-875 1129 0
-874 -876 1129 0
-874 -877 1130 0
-875 -876 1130 0
-875 -877 1131 0
-880 1132 0
-881 1133 0
-878 1132 0
-879 1133 0
-878 -880 1133 0
-878 -881 1134 0
-879 -880 1134 0
-879 -881 1135 0
-884 1136 0
-885 1137 0
-882 1136 0
-883 1137 0
-882 -884 1137 0
-882 -885 1138 0
-883 -884 1138 0
-883 -885 1139 0
-888 1140 0
-889 1141 0
-886 1140 0
-887 1141 0
-886 -888 1141 0
-886 -889 1142 0
-887 -888 1142 0
-887 -889 1143 0
-892 1144 0
-893 1145 0
-890 1144 0
-891 1145 0
-890 -892 1145 0
-890 -893 1146 0
-891 -892 1146 0
-891 -893 1147 0
-896 1148 0
-897 1149 0
-894 1148 0
-895 1149 0
-894 -896 1149 0
-894 -897 1150 0
-895 -896 1150 0
-895 -897 1151 0
-900 1152 0
-901 1153 0
-898 1152 0
-899 1153 0
-898 -900 1153 0
-898 -901 1154 0
-899 -900 1154 0
-899 -901 1155 0
-904 1156 0
-905 1157 0
-902 1156 0
-903 1157 0
-902 -904 1157 0
-902 -905 1158 0
-903 -904 1158 0
-903 -905 1159 0
-908 1160 0
-909 1161 0
-906 1160 0
-907 1161 0
-906 -908 1161 0
-906 -909 1162 0
-907 -908 1162 0
-907 -909 1163 0
-912 1164 0
-913 1165 0
-910 1164 0
-911 1165 0
-910 -912 1165 0
-910 -913 1166 0
-911 -912 1166 0
-911 -913 1167 0
-916 1168 0
-917 1169 0
-914 1168 0
-915 1169 0
-914 -916 1169 0
-914 -917 1170 0
-915 -916 1170 0
-915 -917 1171 0
-920 1172 0
-921 1173 0
-918 1172 0
-919 1173 0
-918 -920 1173 0
-918 -921 1174 0
-919 -920 1174 0
-919 -921 1175 0
-924 1176 0
-925 1177 0
-922 1176 0
-923 1177 0
-922 -924 1177 0
-922 -925 1178 0
-923 -924 1178 0
-923 -925 1179 0
-928 1180 0
-929 1181 0
-926 1180 0
-927 1181 0
-926 -928 1181 0
-926 -929 1182 0
-927 -928 1182 0
-927 -929 1183 0
-932 1184 0
-933 1185 0
-930 1184 0
-931 1185 0
-930 -932 1185 0
-930 -933 1186 0
-931 -932 1186 0
-931 -933 1187 0
-936 1188 0
-937 1189 0
-934 1188 0
-935 1189 0
-934 -936 1189 0
-934 -937 1190 0
-935 -936 1190 0
-935 -937 1191 0
-940 1192 0
-941 1193 0
-938 1192 0
-939 1193 0
-938 -940 1193 0
-938 -941 1194 0
-939 -940 1194 0
-939 -941 1195 0
-944 1196 0
-945 1197 0
-942 1196 0
-943 1197 0
-942 -944 1197 0
-942 -945 1198 0
-943 -944 1198 0
-943 -945 1199 0
-948 1200 0
-949 1201 0
-946 1200 0
-947 1201 0
-946 -948 1201 0
-946 -949 1202 0
-947 -948 1202 0
-947 -949 1203 0
-952 1204 0
-953 1205 0
-950 1204 0
-951 1205 0
-950 -952 1205 0
-950 -953 1206 0
-951 -952 1206 0
-951 -953 1207 0
-956 1208 0
-957 1209 0
-954 1208 0
-955 1209 0
-954 -956 1209 0
-954 -957 1210 0
-955 -956 1210 0
-955 -957 1211 0
-960 1212 0
-961 1213 0
-958 1212 0
-959 1213 0
-958 -960 1213 0
-958 -961 1214 0
-959 -960 1214 0
-959 -961 1215 0
-964 1216 0
-965 1217 0
-962 1216 0
-963 1217 0
-962 -964 1217 0
-962 -965 1218 0
-963 -964 1218 0
-963 -965 1219 0
-968 1220 0
-969 1221 0
-966 1220 0
-967 1221 0
-966 -968 1221 0
-966 -969 1222 0
-967 -968 1222 0
-967 -969 1223 0
-972 1224 0
-973 1225 0
-970 1224 0
-971 1225 0
-970 -972 1225 0
-970 -973 1226 0
-971 -972 1226 0
-971 -973 1227 0
-976 1228 0
-977 1229 0
-974 1228 0
-975 1229 0
-974 -976 1229 0
-974 -977 1230 0
-975 -976 1230 0
-975 -977 1231 0
-980 1232 0
-981 1233 0
-978 1232 0
-979 1233 0
-978 -980 1233 0
-978 -981 1234 0
-979 -980 1234 0
-979 -981 1235 0
-984 1236 0
-985 1237 0
-982 1236 0
-983 1237 0
-982 -984 1237 0
-982 -985 1238 0
-983 -984 1238 0
-983 -985 1239 0
-988 1240 0
-989 1241 0
-986 1240 0
-987 1241 0
-986 -988 1241 0
-986 -989 1242 0
-987 -988 1242 0
-987 -989 1243 0
-992 1244 0
-993 1245 0
-990 1244 0
-991 1245 0
-990 -992 1245 0
-990 -993 1246 0
-991 -992 1246 0
-991 -993 1247 0
-996 1248 0
-997 1249 0
-994 1248 0
-995 1249 0
-994 -996 1249 0
-994 -997 1250 0
-995 -996 1250 0
-995 -997 1251 0
-1000 1252 0
-1001 1253 0
-1002 1254 0
-1003 1255 0
-998 1252 0
-999 1253 0
-998 -1000 1253 0
-998 -1001 1254 0
-998 -1002 1255 0
-998 -1003 1256 0
-999 -1000 1254 0
-999 -1001 1255 0
-999 -1002 1256 0
-999 -1003 1257 0
-1008 1258 0
-1009 1259 0
-1010 1260 0
-1011 1261 0
-1004 1258 0
-1005 1259 0
-1006 1260 0
-1007 1261 0
-1004 -1008 1259 0
-1004 -1009 1260 0
-1004 -1010 1261 0
-1004 -1011 1262 0
-1005 -1008 1260 0
-1005 -1009 1261 0
-1005 -1010 1262 0
-1005 -1011 1263 0
-1006 -1008 1261 0
-1006 -1009 1262 0
-1006 -1010 1263 0
-1006 -1011 1264 0
-1007 -1008 1262 0
-1007 -1009 1263 0
-1007 -1010 1264 0
-1007 -1011 1265 0
-1016 1266 0
-1017 1267 0
-1018 1268 0
-1019 1269 0
-1012 1266 0
-1013 1267 0
-1014 1268 0
-1015 1269 0
-1012 -1016 1267 0
-1012 -1017 1268 0
-1012 -1018 1269 0
-1012 -1019 1270 0
-1013 -1016 1268 0
-1013 -1017 1269 0
-1013 -1018 1270 0
-1013 -1019 1271 0
-1014 -1016 1269 0
-1014 -1017 1270 0
-1014 -1018 1271 0
-1014 -1019 1272 0
-1015 -1016 1270 0
-1015 -1017 1271 0
-1015 -1018 1272 0
-1015 -1019 1273 0
-1024 1274 0
-1025 1275 0
-1026 1276 0
-1027 1277 0
-1020 1274 0
-1021 1275 0
-1022 1276 0
-1023 1277 0
-1020 -1024 1275 0
-1020 -1025 1276 0
-1020 -1026 1277 0
-1020 -1027 1278 0
-1021 -1024 1276 0
-1021 -1025 1277 0
-1021 -1026 1278 0
-1021 -1027 1279 0
-1022 -1024 1277 0
-1022 -1025 1278 0
-1022 -1026 1279 0
-1022 -1027 1280 0
-1023 -1024 1278 0
-1023 -1025 1279 0
-1023 -1026 1280 0
-1023 -1027 1281 0
-1032 1282 0
-1033 1283 0
-1034 1284 0
-1035 1285 0
-1028 1282 0
-1029 1283 0
-1030 1284 0
-1031 1285 0
-1028 -1032 1283 0
-1028 -1033 1284 0
-1028 -1034 1285 0
-1028 -1035 1286 0
-1029 -1032 1284 0
-1029 -1033 1285 0
-1029 -1034 1286 0
-1029 -1035 1287 0
-1030 -1032 1285 0
-1030 -1033 1286 0
-1030 -1034 1287 0
-1030 -1035 1288 0
-1031 -1032 1286 0
-1031 -1033 1287 0
-1031 -1034 1288 0
-1031 -1035 1289 0
-1040 1290 0
-1041 1291 0
-1042 1292 0
-1043 1293 0
-1036 1290 0
-1037 1291 0
-1038 1292 0
-1039 1293 0
-1036 -1040 1291 0
-1036 -1041 1292 0
-1036 -1042 1293 0
-1036 -1043 1294 0
-1037 -1040 1292 0
-1037 -1041 1293 0
-1037 -1042 1294 0
-1037 -1043 1295 0
-1038 -1040 1293 0
-1038 -1041 1294 0
-1038 -1042 1295 0
-1038 -1043 1296 0
-1039 -1040 1294 0
-1039 -1041 1295 0
-1039 -1042 1296 0
-1039 -1043 1297 0
-1048 1298 0
-1049 1299 0
-1050 1300 0
-1051 1301 0
-1044 1298 0
-1045 1299 0
-1046 1300 0
-1047 1301 0
-1044 -1048 1299 0
-1044 -1049 1300 0
-1044 -1050 1301 0
-1044 -1051 1302 0
-1045 -1048 1300 0
-1045 -1049 1301 0
-1045 -1050 1302 0
-1045 -1051 1303 0
-1046 -1048 1301 0
-1046 -1049 1302 0
-1046 -1050 1303 0
-1046 -1051 1304 0
-1047 -1048 1302 0
-1047 -1049 1303 0
-1047 -1050 1304 0
-1047 -1051 1305 0
-1056 1306 0
-1057 1307 0
-1058 1308 0
-1059 1309 0
-1052 1306 0
-1053 1307 0
-1054 1308 0
-1055 1309 0
-1052 -1056 1307 0
-1052 -1057 1308 0
-1052 -1058 1309 0
-1052 -1059 1310 0
-1053 -1056 1308 0
-1053 -1057 1309 0
-1053 -1058 1310 0
-1053 -1059 1311 0
-1054 -1056 1309 0
-1054 -1057 1310 0
-1054 -1058 1311 0
-1054 -1059 1312 0
-1055 -1056 1310 0
-1055 -1057 1311 0
-1055 -1058 1312 0
-1055 -1059 1313 0
-1064 1314 0
-1065 1315 0
-1066 1316 0
-1067 1317 0
-1060 1314 0
-1061 1315 0
-1062 1316 0
-1063 1317 0
-1060 -1064 1315 0
-1060 -1065 1316 0
-1060 -1066 1317 0
-1060 -1067 1318 0
-1061 -1064 1316 0
-1061 -1065 1317 0
-1061 -1066 1318 0
-1061 -1067 1319 0
-1062 -1064 1317 0
-1062 -1065 1318 0
-1062 -1066 1319 0
-1062 -1067 1320 0
-1063 -1064 1318 0
-1063 -1065 1319 0
-1063 -1066 1320 0
-1063 -1067 1321 0
-1072 1322 0
-1073 1323 0
-1074 1324 0
-1075 1325 0
-1068 1322 0
-1069 1323 0
-1070 1324 0
-1071 1325 0
-1068 -1072 1323 0
-1068 -1073 1324 0
-1068 -1074 1325 0
-1068 -1075 1326 0
-1069 -1072 1324 0
-1069 -1073 1325 0
-1069 -1074 1326 0
-1069 -1075 1327 0
-1070 -1072 1325 0
-1070 -1073 1326 0
-1070 -1074 1327 0
-1070 -1075 1328 0
-1071 -1072 1326 0
-1071 -1073 1327 0
-1071 -1074 1328 0
-1071 -1075 1329 0
-1080 1330 0
-1081 1331 0
-1082 1332 0
-1083 1333 0
-1076 1330 0
-1077 1331 0
-1078 1332 0
-1079 1333 0
-1076 -1080 1331 0
-1076 -1081 1332 0
-1076 -1082 1333 0
-1076 -1083 1334 0
-1077 -1080 1332 0
-1077 -1081 1333 0
-1077 -1082 1334 0
-1077 -1083 1335 0
-1078 -1080 1333 0
-1078 -1081 1334 0
-1078 -1082 1335 0
-1078 -1083 1336 0
-1079 -1080 1334 0
-1079 -1081 1335 0
-1079 -1082 1336 0
-1079 -1083 1337 0
-1088 1338 0
-1089 1339 0
-1090 1340 0
-1091 1341 0
-1084 1338 0
-1085 1339 0
-1086 1340 0
-1087 1341 0
-1084 -1088 1339 0
-1084 -1089 1340 0
-1084 -1090 1341 0
-1084 -1091 1342 0
-1085 -1088 1340 0
-1085 -1089 1341 0
-1085 -1090 1342 0
-1085 -1091 1343 0
-1086 -1088 1341 0
-1086 -1089 1342 0
-1086 -1090 1343 0
-1086 -1091 1344 0
-1087 -1088 1342 0
-1087 -1089 1343 0
-1087 -1090 1344 0
-1087 -1091 1345 0
-1096 1346 0
-1097 1347 0
-1098 1348 0
-1099 1349 0
-1092 1346 0
-1093 1347 0
-1094 1348 0
-1095 1349 0
-1092 -1096 1347 0
-1092 -1097 1348 0
-1092 -1098 1349 0
-1092 -1099 1350 0
-1093 -1096 1348 0
-1093 -1097 1349 0
-1093 -1098 1350 0
-1093 -1099 1351 0
-1094 -1096 1349 0
-1094 -1097 1350 0
-1094 -1098 1351 0
-1094 -1099 1352 0
-1095 -1096 1350 0
-1095 -1097 1351 0
-1095 -1098 1352 0
-1095 -1099 1353 0
-1104 1354 0
-1105 1355 0
-1106 1356 0
-1107 1357 0
-1100 1354 0
-1101 1355 0
-1102 1356 0
-1103 1357 0
-1100 -1104 1355 0
-1100 -1105 1356 0
-1100 -1106 1357 0
-1100 -1107 1358 0
-1101 -1104 1356 0
-1101 -1105 1357 0
-1101 -1106 1358 0
-1101 -1107 1359 0
-1102 -1104 1357 0
-1102 -1105 1358 0
-1102 -1106 1359 0
-1102 -1107 1360 0
-1103 -1104 1358 0
-1103 -1105 1359 0
-1103 -1106 1360 0
-1103 -1107 1361 0
-1112 1362 0
-1113 1363 0
-1114 1364 0
-1115 1365 0
-1108 1362 0
-1109 1363 0
-1110 1364 0
-1111 1365 0
-1108 -1112 1363 0
-1108 -1113 1364 0
-1108 -1114 1365 0
-1108 -1115 1366 0
-1109 -1112 1364 0
-1109 -1113 1365 0
-1109 -1114 1366 0
-1109 -1115 1367 0
-1110 -1112 1365 0
-1110 -1113 1366 0
-1110 -1114 1367 0
-1110 -1115 1368 0
-1111 -1112 1366 0
-1111 -1113 1367 0
-1111 -1114 1368 0
-1111 -1115 1369 0
-1120 1370 0
-1121 1371 0
-1122 1372 0
-1123 1373 0
-1116 1370 0
-1117 1371 0
-1118 1372 0
-1119 1373 0
-1116 -1120 1371 0
-1116 -1121 1372 0
-1116 -1122 1373 0
-1116 -1123 1374 0
-1117 -1120 1372 0
-1117 -1121 1373 0
-1117 -1122 1374 0
-1117 -1123 1375 0
-1118 -1120 1373 0
-1118 -1121 1374 0
-1118 -1122 1375 0
-1118 -1123 1376 0
-1119 -1120 1374 0
-1119 -1121 1375 0
-1119 -1122 1376 0
-1119 -1123 1377 0
-1128 1378 0
-1129 1379 0
-1130 1380 0
-1131 1381 0
-1124 1378 0
-1125 1379 0
-1126 1380 0
-1127 1381 0
-1124 -1128 1379 0
-1124 -1129 1380 0
-1124 -1130 1381 0
-1124 -1131 1382 0
-1125 -1128 1380 0
-1125 -1129 1381 0
-1125 -1130 1382 0
-1125 -1131 1383 0
-1126 -1128 1381 0
-1126 -1129 1382 0
-1126 -1130 1383 0
-1126 -1131 1384 0
-1127 -1128 1382 0
-1127 -1129 1383 0
-1127 -1130 1384 0
-1127 -1131 1385 0
-1136 1386 0
-1137 1387 0
-1138 1388 0
-1139 1389 0
-1132 1386 0
-1133 1387 0
-1134 1388 0
-1135 1389 0
-1132 -1136 1387 0
-1132 -1137 1388 0
-1132 -1138 1389 0
-1132 -1139 1390 0
-1133 -1136 1388 0
-1133 -1137 1389 0
-1133 -1138 1390 0
-1133 -1139 1391 0
-1134 -1136 1389 0
-1134 -1137 1390 0
-1134 -1138 1391 0
-1134 -1139 1392 0
-1135 -1136 1390 0
-1135 -1137 1391 0
-1135 -1138 1392 0
-1135 -1139 1393 0
-1144 1394 0
-1145 1395 0
-1146 1396 0
-1147 1397 0
-1140 1394 0
-1141 1395 0
-1142 1396 0
-1143 1397 0
-1140 -1144 1395 0
-1140 -1145 1396 0
-1140 -1146 1397 0
-1140 -1147 1398 0
-1141 -1144 1396 0
-1141 -1145 1397 0
-1141 -1146 1398 0
-1141 -1147 1399 0
-1142 -1144 1397 0
-1142 -1145 1398 0
-1142 -1146 1399 0
-1142 -1147 1400 0
-1143 -1144 1398 0
-1143 -1145 1399 0
-1143 -1146 1400 0
-1143 -1147 1401 0
-1152 1402 0
-1153 1403 0
-1154 1404 0
-1155 1405 0
-1148 1402 0
-1149 1403 0
-1150 1404 0
-1151 1405 0
-1148 -1152 1403 0
-1148 -1153 1404 0
-1148 -1154 1405 0
-1148 -1155 1406 0
-1149 -1152 1404 0
-1149 -1153 1405 0
-1149 -1154 1406 0
-1149 -1155 1407 0
-1150 -1152 1405 0
-1150 -1153 1406 0
-1150 -1154 1407 0
-1150 -1155 1408 0
-1151 -1152 1406 0
-1151 -1153 1407 0
-1151 -1154 1408 0
-1151 -1155 1409 0
-1160 1410 0
-1161 1411 0
-1162 1412 0
-1163 1413 0
-1156 1410 0
-1157 1411 0
-1158 1412 0
-1159 1413 0
-1156 -1160 1411 0
-1156 -1161 1412 0
-1156 -1162 1413 0
-1156 -1163 1414 0
-1157 -1160 1412 0
-1157 -1161 1413 0
-1157 -1162 1414 0
-1157 -1163 1415 0
-1158 -1160 1413 0
-1158 -1161 1414 0
-1158 -1162 1415 0
-1158 -1163 1416 0
-1159 -1160 1414 0
-1159 -1161 1415 0
-1159 -1162 1416 0
-1159 -1163 1417 0
-1168 1418 0
-1169 1419 0
-1170 1420 0
-1171 1421 0
-1164 1418 0
-1165 1419 0
-1166 1420 0
-1167 1421 0
-1164 -1168 1419 0
-1164 -1169 1420 0
-1164 -1170 1421 0
-1164 -1171 1422 0
-1165 -1168 1420 0
-1165 -1169 1421 0
-1165 -1170 1422 0
-1165 -1171 1423 0
-1166 -1168 1421 0
-1166 -1169 1422 0
-1166 -1170 1423 0
-1166 -1171 1424 0
-1167 -1168 1422 0
-1167 -1169 1423 0
-1167 -1170 1424 0
-1167 -1171 1425 0
-1176 1426 0
-1177 1427 0
-1178 1428 0
-1179 1429 0
-1172 1426 0
-1173 1427 0
-1174 1428 0
-1175 1429 0
-1172 -1176 1427 0
-1172 -1177 1428 0
-1172 -1178 1429 0
-1172 -1179 1430 0
-1173 -1176 1428 0
-1173 -1177 1429 0
-1173 -1178 1430 0
-1173 -1179 1431 0
-1174 -1176 1429 0
-1174 -1177 1430 0
-1174 -1178 1431 0
-1174 -1179 1432 0
-1175 -1176 1430 0
-1175 -1177 1431 0
-1175 -1178 1432 0
-1175 -1179 1433 0
-1184 1434 0
-1185 1435 0
-1186 1436 0
-1187 1437 0
-1180 1434 0
-1181 1435 0
-1182 1436 0
-1183 1437 0
-1180 -1184 1435 0
-1180 -1185 1436 0
-1180 -1186 1437 0
-1180 -1187 1438 0
-1181 -1184 1436 0
-1181 -1185 1437 0
-1181 -1186 1438 0
-1181 -1187 1439 0
-1182 -1184 1437 0
-1182 -1185 1438 0
-1182 -1186 1439 0
-1182 -1187 1440 0
-1183 -1184 1438 0
-1183 -1185 1439 0
-1183 -1186 1440 0
-1183 -1187 1441 0
-1192 1442 0
-1193 1443 0
-1194 1444 0
-1195 1445 0
-1188 1442 0
-1189 1443 0
-1190 1444 0
-1191 1445 0
-1188 -1192 1443 0
-1188 -1193 1444 0
-1188 -1194 1445 0
-1188 -1195 1446 0
-1189 -1192 1444 0
-1189 -1193 1445 0
-1189 -1194 1446 0
-1189 -1195 1447 0
-1190 -1192 1445 0
-1190 -1193 1446 0
-1190 -1194 1447 0
-1190 -1195 1448 0
-1191 -1192 1446 0
-1191 -1193 1447 0
-1191 -1194 1448 0
-1191 -1195 1449 0
-1200 1450 0
-1201 1451 0
-1202 1452 0
-1203 1453 0
-1196 1450 0
-1197 1451 0
-1198 1452 0
-1199 1453 0
-1196 -1200 1451 0
-1196 -1201 1452 0
-1196 -1202 1453 0
-1196 -1203 1454 0
-1197 -1200 1452 0
-1197 -1201 1453 0
-1197 -1202 1454 0
-1197 -1203 1455 0
-1198 -1200 1453 0
-1198 -1201 1454 0
-1198 -1202 1455 0
-1198 -1203 1456 0
-1199 -1200 1454 0
-1199 -1201 1455 0
-1199 -1202 1456 0
-1199 -1203 1457 0
-1208 1458 0
-1209 1459 0
-1210 1460 0
-1211 1461 0
-1204 1458 0
-1205 1459 0
-1206 1460 0
-1207 1461 0
-1204 -1208 1459 0
-1204 -1209 1460 0
-1204 -1210 1461 0
-1204 -1211 1462 0
-1205 -1208 1460 0
-1205 -1209 1461 0
-1205 -1210 1462 0
-1205 -1211 1463 0
-1206 -1208 1461 0
-1206 -1209 1462 0
-1206 -1210 1463 0
-1206 -1211 1464 0
-1207 -1208 1462 0
-1207 -1209 1463 0
-1207 -1210 1464 0
-1207 -1211 1465 0
-1216 1466 0
-1217 1467 0
-1218 1468 0
-1219 1469 0
-1212 1466 0
-1213 1467 0
-1214 1468 0
-1215 1469 0
-1212 -1216 1467 0
-1212 -1217 1468 0
-1212 -1218 1469 0
-1212 -1219 1470 0
-1213 -1216 1468 0
-1213 -1217 1469 0
-1213 -1218 1470 0
-1213 -1219 1471 0
-1214 -1216 1469 0
-1214 -1217 1470 0
-1214 -1218 1471 0
-1214 -1219 1472 0
-1215 -1216 1470 0
-1215 -1217 1471 0
-1215 -1218 1472 0
-1215 -1219 1473 0
-1224 1474 0
-1225 1475 0
-1226 1476 0
-1227 1477 0
-1220 1474 0
-1221 1475 0
-1222 1476 0
-1223 1477 0
-1220 -1224 1475 0
-1220 -1225 1476 0
-1220 -1226 1477 0
-1220 -1227 1478 0
-1221 -1224 1476 0
-1221 -1225 1477 0
-1221 -1226 1478 0
-1221 -1227 1479 0
-1222 -1224 1477 0
-1222 -1225 1478 0
-1222 -1226 1479 0
-1222 -1227 1480 0
-1223 -1224 1478 0
-1223 -1225 1479 0
-1223 -1226 1480 0
-1223 -1227 1481 0
-1232 1482 0
-1233 1483 0
-1234 1484 0
-1235 1485 0
-1228 1482 0
-1229 1483 0
-1230 1484 0
-1231 1485 0
-1228 -1232 1483 0
-1228 -1233 1484 0
-1228 -1234 1485 0
-1228 -1235 1486 0
-1229 -1232 1484 0
-1229 -1233 1485 0
-1229 -1234 1486 0
-1229 -1235 1487 0
-1230 -1232 1485 0
-1230 -1233 1486 0
-1230 -1234 1487 0
-1230 -1235 1488 0
-1231 -1232 1486 0
-1231 -1233 1487 0
-1231 -1234 1488 0
-1231 -1235 1489 0
-1240 1490 0
-1241 1491 0
-1242 1492 0
-1243 1493 0
-1236 1490 0
-1237 1491 0
-1238 1492 0
-1239 1493 0
-1236 -1240 1491 0
-1236 -1241 1492 0
-1236 -1242 1493 0
-1236 -1243 1494 0
-1237 -1240 1492 0
-1237 -1241 1493 0
-1237 -1242 1494 0
-1237 -1243 1495 0
-1238 -1240 1493 0
-1238 -1241 1494 0
-1238 -1242 1495 0
-1238 -1243 1496 0
-1239 -1240 1494 0
-1239 -1241 1495 0
-1239 -1242 1496 0
-1239 -1243 1497 0
-1248 1498 0
-1249 1499 0
-1250 1500 0
-1251 1501 0
-1244 1498 0
-1245 1499 0
-1246 1500 0
-1247 1501 0
-1244 -1248 1499 0
-1244 -1249 1500 0
-1244 -1250 1501 0
-1244 -1251 1502 0
-1245 -1248 1500 0
-1245 -1249 1501 0
-1245 -1250 1502 0
-1245 -1251 1503 0
-1246 -1248 1501 0
-1246 -1249 1502 0
-1246 -1250 1503 0
-1246 -1251 1504 0
-1247 -1248 1502 0
-1247 -1249 1503 0
-1247 -1250 1504 0
-1247 -1251 1505 0
-1258 1506 0
-1259 1507 0
-1260 1508 0
-1261 1509 0
-1262 1510 0
-1263 1511 0
-1264 1512 0
-1265 1513 0
-1252 1506 0
-1253 1507 0
-1254 1508 0
-1255 1509 0
-1256 1510 0
-1257 1511 0
-1252 -1258 1507 0
-1252 -1259 1508 0
-1252 -1260 1509 0
-1252 -1261 1510 0
-1252 -1262 1511 0
-1252 -1263 1512 0
-1252 -1264 1513 0
-1252 -1265 1514 0
-1253 -1258 1508 0
-1253 -1259 1509 0
-1253 -1260 1510 0
-1253 -1261 1511 0
-1253 -1262 1512 0
-1253 -1263 1513 0
-1253 -1264 1514 0
-1253 -1265 1515 0
-1254 -1258 1509 0
-1254 -1259 1510 0
-1254 -1260 1511 0
-1254 -1261 1512 0
-1254 -1262 1513 0
-1254 -1263 1514 0
-1254 -1264 1515 0
-1254 -1265 1516 0
-1255 -1258 1510 0
-1255 -1259 1511 0
-1255 -1260 1512 0
-1255 -1261 1513 0
-1255 -1262 1514 0
-1255 -1263 1515 0
-1255 -1264 1516 0
-1255 -1265 1517 0
-1256 -1258 1511 0
-1256 -1259 1512 0
-1256 -1260 1513 0
-1256 -1261 1514 0
-1256 -1262 1515 0
-1256 -1263 1516 0
-1256 -1264 1517 0
-1256 -1265 1518 0
-1257 -1258 1512 0
-1257 -1259 1513 0
-1257 -1260 1514 0
-1257 -1261 1515 0
-1257 -1262 1516 0
-1257 -1263 1517 0
-1257 -1264 1518 0
-1257 -1265 1519 0
-1274 1520 0
-1275 1521 0
-1276 1522 0
-1277 1523 0
-1278 1524 0
-1279 1525 0
-1280 1526 0
-1281 1527 0
-1266 1520 0
-1267 1521 0
-1268 1522 0
-1269 1523 0
-1270 1524 0
-1271 1525 0
-1272 1526 0
-1273 1527 0
-1266 -1274 1521 0
-1266 -1275 1522 0
-1266 -1276 1523 0
-1266 -1277 1524 0
-1266 -1278 1525 0
-1266 -1279 1526 0
-1266 -1280 1527 0
-1266 -1281 1528 0
-1267 -1274 1522 0
-1267 -1275 1523 0
-1267 -1276 1524 0
-1267 -1277 1525 0
-1267 -1278 1526 0
-1267 -1279 1527 0
-1267 -1280 1528 0
-1267 -1281 1529 0
-1268 -1274 1523 0
-1268 -1275 1524 0
-1268 -1276 1525 0
-1268 -1277 1526 0
-1268 -1278 1527 0
-1268 -1279 1528 0
-1268 -1280 1529 0
-1268 -1281 1530 0
-1269 -1274 1524 0
-1269 -1275 1525 0
-1269 -1276 1526 0
-1269 -1277 1527 0
-1269 -1278 1528 0
-1269 -1279 1529 0
-1269 -1280 1530 0
-1269 -1281 1531 0
-1270 -1274 1525 0
-1270 -1275 1526 0
-1270 -1276 1527 0
-1270 -1277 1528 0
-1270 -1278 1529 0
-1270 -1279 1530 0
-1270 -1280 1531 0
-1270 -1281 1532 0
-1271 -1274 1526 0
-1271 -1275 1527 0
-1271 -1276 1528 0
-1271 -1277 1529 0
-1271 -1278 1530 0
-1271 -1279 1531 0
-1271 -1280 1532 0
-1271 -1281 1533 0
-1272 -1274 1527 0
-1272 -1275 1528 0
-1272 -1276 1529 0
-1272 -1277 1530 0
-1272 -1278 1531 0
-1272 -1279 1532 0
-1272 -1280 1533 0
-1272 -1281 1534 0
-1273 -1274 1528 0
-1273 -1275 1529 0
-1273 -1276 1530 0
-1273 -1277 1531 0
-1273 -1278 1532 0
-1273 -1279 1533 0
-1273 -1280 1534 0
-1273 -1281 1535 0
-1290 1536 0
-1291 1537 0
-1292 1538 0
-1293 1539 0
-1294 1540 0
-1295 1541 0
-1296 1542 0
-1297 1543 0
-1282 1536 0
-1283 1537 0
-1284 1538 0
-1285 1539 0
-1286 1540 0
-1287 1541 0
-1288 1542 0
-1289 1543 0
-1282 -1290 1537 0
-1282 -1291 1538 0
-1282 -1292 1539 0
-1282 -1293 1540 0
-1282 -1294 1541 0
-1282 -1295 1542 0
-1282 -1296 1543 0
-1282 -1297 1544 0
-1283 -1290 1538 0
-1283 -1291 1539 0
-1283 -1292 1540 0
-1283 -1293 1541 0
-1283 -1294 1542 0
-1283 -1295 1543 0
-1283 -1296 1544 0
-1283 -1297 1545 0
-1284 -1290 1539 0
-1284 -1291 1540 0
-1284 -1292 1541 0
-1284 -1293 1542 0
-1284 -1294 1543 0
-1284 -1295 1544 0
-1284 -1296 1545 0
-1284 -1297 1546 0
-1285 -1290 1540 0
-1285 -1291 1541 0
-1285 -1292 1542 0
-1285 -1293 1543 0
-1285 -1294 1544 0
-1285 -1295 1545 0
-1285 -1296 1546 0
-1285 -1297 1547 0
-1286 -1290 1541 0
-1286 -1291 1542 0
-1286 -1292 1543 0
-1286 -1293 1544 0
-1286 -1294 1545 0
-1286 -1295 1546 0
-1286 -1296 1547 0
-1286 -1297 1548 0
-1287 -1290 1542 0
-1287 -1291 1543 0
-1287 -1292 1544 0
-1287 -1293 1545 0
-1287 -1294 1546 0
-1287 -1295 1547 0
-1287 -1296 1548 0
-1287 -1297 1549 0
-1288 -1290 1543 0
-1288 -1291 1544 0
-1288 -1292 1545 0
-1288 -1293 1546 0
-1288 -1294 1547 0
-1288 -1295 1548 0
-1288 -1296 1549 0
-1288 -1297 1550 0
-1289 -1290 1544 0
-1289 -1291 1545 0
-1289 -1292 1546 0
-1289 -1293 1547 0
-1289 -1294 1548 0
-1289 -1295 1549 0
-1289 -1296 1550 0
-1289 -1297 1551 0
-1306 1552 0
-1307 1553 0
-1308 1554 0
-1309 1555 0
-1310 1556 0
-1311 1557 0
-1312 1558 0
-1313 1559 0
-1298 1552 0
-1299 1553 0
-1300 1554 0
-1301 1555 0
-1302 1556 0
-1303 1557 0
-1304 1558 0
-1305 1559 0
-1298 -1306 1553 0
-1298 -1307 1554 0
-1298 -1308 1555 0
-1298 -1309 1556 0
-1298 -1310 1557 0
-1298 -1311 1558 0
-1298 -1312 1559 0
-1298 -1313 1560 0
-1299 -1306 1554 0
-1299 -1307 1555 0
-1299 -1308 1556 0
-1299 -1309 1557 0
-1299 -1310 1558 0
-1299 -1311 1559 0
-1299 -1312 1560 0
-1299 -1313 1561 0
-1300 -1306 1555 0
-1300 -1307 1556 0
-1300 -1308 1557 0
-1300 -1309 1558 0
-1300 -1310 1559 0
-1300 -1311 1560 0
-1300 -1312 1561 0
-1300 -1313 1562 0
-1301 -1306 1556 0
-1301 -1307 1557 0
-1301 -1308 1558 0
-1301 -1309 1559 0
-1301 -1310 1560 0
-1301 -1311 1561 0
-1301 -1312 1562 0
-1301 -1313 1563 0
-1302 -1306 1557 0
-1302 -1307 1558 0
-1302 -1308 1559 0
-1302 -1309 1560 0
-1302 -1310 1561 0
-1302 -1311 1562 0
-1302 -1312 1563 0
-1302 -1313 1564 0
-1303 -1306 1558 0
-1303 -1307 1559 0
-1303 -1308 1560 0
-1303 -1309 1561 0
-1303 -1310 1562 0
-1303 -1311 1563 0
-1303 -1312 1564 0
-1303 -1313 1565 0
-1304 -1306 1559 0
-1304 -1307 1560 0
-1304 -1308 1561 0
-1304 -1309 1562 0
-1304 -1310 1563 0
-1304 -1311 1564 0
-1304 -1312 1565 0
-1304 -1313 1566 0
-1305 -1306 1560 0
-1305 -1307 1561 0
-1305 -1308 1562 0
-1305 -1309 1563 0
-1305 -1310 1564 0
-1305 -1311 1565 0
-1305 -1312 1566 0
-1305 -1313 1567 0
-1322 1568 0
-1323 1569 0
-1324 1570 0
-1325 1571 0
-1326 1572 0
-1327 1573 0
-1328 1574 0
-1329 1575 0
-1314 1568 0
-1315 1569 0
-1316 1570 0
-1317 1571 0
-1318 1572 0
-1319 1573 0
-1320 1574 0
-1321 1575 0
-1314 -1322 1569 0
-1314 -1323 1570 0
-1314 -1324 1571 0
-1314 -1325 1572 0
-1314 -1326 1573 0
-1314 -1327 1574 0
-1314 -1328 1575 0
-1314 -1329 1576 0
-1315 -1322 1570 0
-1315 -1323 1571 0
-1315 -1324 1572 0
-1315 -1325 1573 0
-1315 -1326 1574 0
-1315 -1327 1575 0
-1315 -1328 1576 0
-1315 -1329 1577 0
-1316 -1322 1571 0
-1316 -1323 1572 0
-1316 -1324 1573 0
-1316 -1325 1574 0
-1316 -1326 1575 0
-1316 -1327 1576 0
-1316 -1328 1577 0
-1316 -1329 1578 0
-1317 -1322 1572 0
-1317 -1323 1573 0
-1317 -1324 1574 0
-1317 -1325 1575 0
-1317 -1326 1576 0
-1317 -1327 1577 0
-1317 -1328 1578 0
-1317 -1329 1579 0
-1318 -1322 1573 0
-1318 -1323 1574 0
-1318 -1324 1575 0
-1318 -1325 1576 0
-1318 -1326 1577 0
-1318 -1327 1578 0
-1318 -1328 1579 0
-1318 -1329 1580 0
-1319 -1322 1574 0
-1319 -1323 1575 0
-1319 -1324 1576 0
-1319 -1325 1577 0
-1319 -1326 1578 0
-1319 -1327 1579 0
-1319 -1328 1580 0
-1319 -1329 1581 0
-1320 -1322 1575 0
-1320 -1323 1576 0
-1320 -1324 1577 0
-1320 -1325 1578 0
-1320 -1326 1579 0
-1320 -1327 1580 0
-1320 -1328 1581 0
-1320 -1329 1582 0
-1321 -1322 1576 0
-1321 -1323 1577 0
-1321 -1324 1578 0
-1321 -1325 1579 0
-1321 -1326 1580 0
-1321 -1327 1581 0
-1321 -1328 1582 0
-1321 -1329 1583 0
-1338 1584 0
-1339 1585 0
-1340 1586 0
-1341 1587 0
-1342 1588 0
-1343 1589 0
-1344 1590 0
-1345 1591 0
-1330 1584 0
-1331 1585 0
-1332 1586 0
-1333 1587 0
-1334 1588 0
-1335 1589 0
-1336 1590 0
-1337 1591 0
-1330 -1338 1585 0
-1330 -1339 1586 0
-1330 -1340 1587 0
-1330 -1341 1588 0
-1330 -1342 1589 0
-1330 -1343 1590 0
-1330 -1344 1591 0
-1330 -1345 1592 0
-1331 -1338 1586 0
-1331 -1339 1587 0
-1331 -1340 1588 0
-1331 -1341 1589 0
-1331 -1342 1590 0
-1331 -1343 1591 0
-1331 -1344 1592 0
-1331 -1345 1593 0
-1332 -1338 1587 0
-1332 -1339 1588 0
-1332 -1340 1589 0
-1332 -1341 1590 0
-1332 -1342 1591 0
-1332 -1343 1592 0
-1332 -1344 1593 0
-1332 -1345 1594 0
-1333 -1338 1588 0
-1333 -1339 1589 0
-1333 -1340 1590 0
-1333 -1341 1591 0
-1333 -1342 1592 0
-1333 -1343 1593 0
-1333 -1344 1594 0
-1333 -1345 1595 0
-1334 -1338 1589 0
-1334 -1339 1590 0
-1334 -1340 1591 0
-1334 -1341 1592 0
-1334 -1342 1593 0
-1334 -1343 1594 0
-1334 -1344 1595 0
-1334 -1345 1596 0
-1335 -1338 1590 0
-1335 -1339 1591 0
-1335 -1340 1592 0
-1335 -1341 1593 0
-1335 -1342 1594 0
-1335 -1343 1595 0
-1335 -1344 1596 0
-1335 -1345 1597 0
-1336 -1338 1591 0
-1336 -1339 1592 0
-1336 -1340 1593 0
-1336 -1341 1594 0
-1336 -1342 1595 0
-1336 -1343 1596 0
-1336 -1344 1597 0
-1336 -1345 1598 0
-1337 -1338 1592 0
-1337 -1339 1593 0
-1337 -1340 1594 0
-1337 -1341 1595 0
-1337 -1342 1596 0
-1337 -1343 1597 0
-1337 -1344 1598 0
-1337 -1345 1599 0
-1354 1600 0
-1355 1601 0
-1356 1602 0
-1357 1603 0
-1358 1604 0
-1359 1605 0
-1360 1606 0
-1361 1607 0
-1346 1600 0
-1347 1601 0
-1348 1602 0
-1349 1603 0
-1350 1604 0
-1351 1605 0
-1352 1606 0
-1353 1607 0
-1346 -1354 1601 0
-1346 -1355 1602 0
-1346 -1356 1603 0
-1346 -1357 1604 0
-1346 -1358 1605 0
-1346 -1359 1606 0
-1346 -1360 1607 0
-1346 -1361 1608 0
-1347 -1354 1602 0
-1347 -1355 1603 0
-1347 -1356 1604 0
-1347 -1357 1605 0
-1347 -1358 1606 0
-1347 -1359 1607 0
-1347 -1360 1608 0
-1347 -1361 1609 0
-1348 -1354 1603 0
-1348 -1355 1604 0
-1348 -1356 1605 0
-1348 -1357 1606 0
-1348 -1358 1607 0
-1348 -1359 1608 0
-1348 -1360 1609 0
-1348 -1361 1610 0
-1349 -1354 1604 0
-1349 -1355 1605 0
-1349 -1356 1606 0
-1349 -1357 1607 0
-1349 -1358 1608 0
-1349 -1359 1609 0
-1349 -1360 1610 0
-1349 -1361 1611 0
-1350 -1354 1605 0
-1350 -1355 1606 0
-1350 -1356 1607 0
-1350 -1357 1608 0
-1350 -1358 1609 0
-1350 -1359 1610 0
-1350 -1360 1611 0
-1350 -1361 1612 0
-1351 -1354 1606 0
-1351 -1355 1607 0
-1351 -1356 1608 0
-1351 -1357 1609 0
-1351 -1358 1610 0
-1351 -1359 1611 0
-1351 -1360 1612 0
-1351 -1361 1613 0
-1352 -1354 1607 0
-1352 -1355 1608 0
-1352 -1356 1609 0
-1352 -1357 1610 0
-1352 -1358 1611 0
-1352 -1359 1612 0
-1352 -1360 1613 0
-1352 -1361 1614 0
-1353 -1354 1608 0
-1353 -1355 1609 0
-1353 -1356 1610 0
-1353 -1357 1611 0
-1353 -1358 1612 0
-1353 -1359 1613 0
-1353 -1360 1614 0
-1353 -1361 1615 0
-1370 1616 0
-1371 1617 0
-1372 1618 0
-1373 1619 0
-1374 1620 0
-1375 1621 0
-1376 1622 0
-1377 1623 0
-1362 1616 0
-1363 1617 0
-1364 1618 0
-1365 1619 0
-1366 1620 0
-1367 1621 0
-1368 1622 0
-1369 1623 0
-1362 -1370 1617 0
-1362 -1371 1618 0
-1362 -1372 1619 0
-1362 -1373 1620 0
-1362 -1374 1621 0
-1362 -1375 1622 0
-1362 -1376 1623 0
-1362 -1377 1624 0
-1363 -1370 1618 0
-1363 -1371 1619 0
-1363 -1372 1620 0
-1363 -1373 1621 0
-1363 -1374 1622 0
-1363 -1375 1623 0
-1363 -1376 1624 0
-1363 -1377 1625 0
-1364 -1370 1619 0
-1364 -1371 1620 0
-1364 -1372 1621 0
-1364 -1373 1622 0
-1364 -1374 1623 0
-1364 -1375 1624 0
-1364 -1376 1625 0
-1364 -1377 1626 0
-1365 -1370 1620 0
-1365 -1371 1621 0
-1365 -1372 1622 0
-1365 -1373 1623 0
-1365 -1374 1624 0
-1365 -1375 1625 0
-1365 -1376 1626 0
-1365 -1377 1627 0
-1366 -1370 1621 0
-1366 -1371 1622 0
-1366 -1372 1623 0
-1366 -1373 1624 0
-1366 -1374 1625 0
-1366 -1375 1626 0
-1366 -1376 1627 0
-1366 -1377 1628 0
-1367 -1370 1622 0
-1367 -1371 1623 0
-1367 -1372 1624 0
-1367 -1373 1625 0
-1367 -1374 1626 0
-1367 -1375 1627 0
-1367 -1376 1628 0
-1367 -1377 1629 0
-1368 -1370 1623 0
-1368 -1371 1624 0
-1368 -1372 1625 0
-1368 -1373 1626 0
-1368 -1374 1627 0
-1368 -1375 1628 0
-1368 -1376 1629 0
-1368 -1377 1630 0
-1369 -1370 1624 0
-1369 -1371 1625 0
-1369 -1372 1626 0
-1369 -1373 1627 0
-1369 -1374 1628 0
-1369 -1375 1629 0
-1369 -1376 1630 0
-1369 -1377 1631 0
-1386 1632 0
-1387 1633 0
-1388 1634 0
-1389 1635 0
-1390 1636 0
-1391 1637 0
-1392 1638 0
-1393 1639 0
-1378 1632 0
-1379 1633 0
-1380 1634 0
-1381 1635 0
-1382 1636 0
-1383 1637 0
-1384 1638 0
-1385 1639 0
-1378 -1386 1633 0
-1378 -1387 1634 0
-1378 -1388 1635 0
-1378 -1389 1636 0
-1378 -1390 1637 0
-1378 -1391 1638 0
-1378 -1392 1639 0
-1378 -1393 1640 0
-1379 -1386 1634 0
-1379 -1387 1635 0
-1379 -1388 1636 0
-1379 -1389 1637 0
-1379 -1390 1638 0
-1379 -1391 1639 0
-1379 -1392 1640 0
-1379 -1393 1641 0
-1380 -1386 1635 0
-1380 -1387 1636 0
-1380 -1388 1637 0
-1380 -1389 1638 0
-1380 -1390 1639 0
-1380 -1391 1640 0
-1380 -1392 1641 0
-1380 -1393 1642 0
-1381 -1386 1636 0
-1381 -1387 1637 0
-1381 -1388 1638 0
-1381 -1389 1639 0
-1381 -1390 1640 0
-1381 -1391 1641 0
-1381 -1392 1642 0
-1381 -1393 1643 0
-1382 -1386 1637 0
-1382 -1387 1638 0
-1382 -1388 1639 0
-1382 -1389 1640 0
-1382 -1390 1641 0
-1382 -1391 1642 0
-1382 -1392 1643 0
-1382 -1393 1644 0
-1383 -1386 1638 0
-1383 -1387 1639 0
-1383 -1388 1640 0
-1383 -1389 1641 0
-1383 -1390 1642 0
-1383 -1391 1643 0
-1383 -1392 1644 0
-1383 -1393 1645 0
-1384 -1386 1639 0
-1384 -1387 1640 0
-1384 -1388 1641 0
-1384 -1389 1642 0
-1384 -1390 1643 0
-1384 -1391 1644 0
-1384 -1392 1645 0
-1384 -1393 1646 0
-1385 -1386 1640 0
-1385 -1387 1641 0
-1385 -1388 1642 0
-1385 -1389 1643 0
-1385 -1390 1644 0
-1385 -1391 1645 0
-1385 -1392 1646 0
-1385 -1393 1647 0
-1402 1648 0
-1403 1649 0
-1404 1650 0
-1405 1651 0
-1406 1652 0
-1407 1653 0
-1408 1654 0
-1409 1655 0
-1394 1648 0
-1395 1649 0
-1396 1650 0
-1397 1651 0
-1398 1652 0
-1399 1653 0
-1400 1654 0
-1401 1655 0
-1394 -1402 1649 0
-1394 -1403 1650 0
-1394 -1404 1651 0
-1394 -1405 1652 0
-1394 -1406 1653 0
-1394 -1407 1654 0
-1394 -1408 1655 0
-1394 -1409 1656 0
-1395 -1402 1650 0
-1395 -1403 1651 0
-1395 -1404 1652 0
-1395 -1405 1653 0
-1395 -1406 1654 0
-1395 -1407 1655 0
-1395 -1408 1656 0
-1395 -1409 1657 0
-1396 -1402 1651 0
-1396 -1403 1652 0
-1396 -1404 1653 0
-1396 -1405 1654 0
-1396 -1406 1655 0
-1396 -1407 1656 0
-1396 -1408 1657 0
-1396 -1409 1658 0
-1397 -1402 1652 0
-1397 -1403 1653 0
-1397 -1404 1654 0
-1397 -1405 1655 0
-1397 -1406 1656 0
-1397 -1407 1657 0
-1397 -1408 1658 0
-1397 -1409 1659 0
-1398 -1402 1653 0
-1398 -1403 1654 0
-1398 -1404 1655 0
-1398 -1405 1656 0
-1398 -1406 1657 0
-1398 -1407 1658 0
-1398 -1408 1659 0
-1398 -1409 1660 0
-1399 -1402 1654 0
-1399 -1403 1655 0
-1399 -1404 1656 0
-1399 -1405 1657 0
-1399 -1406 1658 0
-1399 -1407 1659 0
-1399 -1408 1660 0
-1399 -1409 1661 0
-1400 -1402 1655 0
-1400 -1403 1656 0
-1400 -1404 1657 0
-1400 -1405 1658 0
-1400 -1406 1659 0
-1400 -1407 1660 0
-1400 -1408 1661 0
-1400 -1409 1662 0
-1401 -1402 1656 0
-1401 -1403 1657 0
-1401 -1404 1658 0
-1401 -1405 1659 0
-1401 -1406 1660 0
-1401 -1407 1661 0
-1401 -1408 1662 0
-1401 -1409 1663 0
-1418 1664 0
-1419 1665 0
-1420 1666 0
-1421 1667 0
-1422 1668 0
-1423 1669 0
-1424 1670 0
-1425 1671 0
-1410 1664 0
-1411 1665 0
-1412 1666 0
-1413 1667 0
-1414 1668 0
-1415 1669 0
-1416 1670 0
-1417 1671 0
-1410 -1418 1665 0
-1410 -1419 1666 0
-1410 -1420 1667 0
-1410 -1421 1668 0
-1410 -1422 1669 0
-1410 -1423 1670 0
-1410 -1424 1671 0
-1410 -1425 1672 0
-1411 -1418 1666 0
-1411 -1419 1667 0
-1411 -1420 1668 0
-1411 -1421 1669 0
-1411 -1422 1670 0
-1411 -1423 1671 0
-1411 -1424 1672 0
-1411 -1425 1673 0
-1412 -1418 1667 0
-1412 -1419 1668 0
-1412 -1420 1669 0
-1412 -1421 1670 0
-1412 -1422 1671 0
-1412 -1423 1672 0
-1412 -1424 1673 0
-1412 -1425 1674 0
-1413 -1418 1668 0
-1413 -1419 1669 0
-1413 -1420 1670 0
-1413 -1421 1671 0
-1413 -1422 1672 0
-1413 -1423 1673 0
-1413 -1424 1674 0
-1413 -1425 1675 0
-1414 -1418 1669 0
-1414 -1419 1670 0
-1414 -1420 1671 0
-1414 -1421 1672 0
-1414 -1422 1673 0
-1414 -1423 1674 0
-1414 -1424 1675 0
-1414 -1425 1676 0
-1415 -1418 1670 0
-1415 -1419 1671 0
-1415 -1420 1672 0
-1415 -1421 1673 0
-1415 -1422 1674 0
-1415 -1423 1675 0
-1415 -1424 1676 0
-1415 -1425 1677 0
-1416 -1418 1671 0
-1416 -1419 1672 0
-1416 -1420 1673 0
-1416 -1421 1674 0
-1416 -1422 1675 0
-1416 -1423 1676 0
-1416 -1424 1677 0
-1416 -1425 1678 0
-1417 -1418 1672 0
-1417 -1419 1673 0
-1417 -1420 1674 0
-1417 -1421 1675 0
-1417 -1422 1676 0
-1417 -1423 1677 0
-1417 -1424 1678 0
-1417 -1425 1679 0
-1434 1680 0
-1435 1681 0
-1436 1682 0
-1437 1683 0
-1438 1684 0
-1439 1685 0
-1440 1686 0
-1441 1687 0
-1426 1680 0
-1427 1681 0
-1428 1682 0
-1429 1683 0
-1430 1684 0
-1431 1685 0
-1432 1686 0
-1433 1687 0
-1426 -1434 1681 0
-1426 -1435 1682 0
-1426 -1436 1683 0
-1426 -1437 1684 0
-1426 -1438 1685 0
-1426 -1439 1686 0
-1426 -1440 1687 0
-1426 -1441 1688 0
-1427 -1434 1682 0
-1427 -1435 1683 0
-1427 -1436 1684 0
-1427 -1437 1685 0
-1427 -1438 1686 0
-1427 -1439 1687 0
-1427 -1440 1688 0
-1427 -1441 1689 0
-1428 -1434 1683 0
-1428 -1435 1684 0
-1428 -1436 1685 0
-1428 -1437 1686 0
-1428 -1438 1687 0
-1428 -1439 1688 0
-1428 -1440 1689 0
-1428 -1441 1690 0
-1429 -1434 1684 0
-1429 -1435 1685 0
-1429 -1436 1686 0
-1429 -1437 1687 0
-1429 -1438 1688 0
-1429 -1439 1689 0
-1429 -1440 1690 0
-1429 -1441 1691 0
-1430 -1434 1685 0
-1430 -1435 1686 0
-1430 -1436 1687 0
-1430 -1437 1688 0
-1430 -1438 1689 0
-1430 -1439 1690 0
-1430 -1440 1691 0
-1430 -1441 1692 0
-1431 -1434 1686 0
-1431 -1435 1687 0
-1431 -1436 1688 0
-1431 -1437 1689 0
-1431 -1438 1690 0
-1431 -1439 1691 0
-1431 -1440 1692 0
-1431 -1441 1693 0
-1432 -1434 1687 0
-1432 -1435 1688 0
-1432 -1436 1689 0
-1432 -1437 1690 0
-1432 -1438 1691 0
-1432 -1439 1692 0
-1432 -1440 1693 0
-1432 -1441 1694 0
-1433 -1434 1688 0
-1433 -1435 1689 0
-1433 -1436 1690 0
-1433 -1437 1691 0
-1433 -1438 1692 0
-1433 -1439 1693 0
-1433 -1440 1694 0
-1433 -1441 1695 0
-1450 1696 0
-1451 1697 0
-1452 1698 0
-1453 1699 0
-1454 1700 0
-1455 1701 0
-1456 1702 0
-1457 1703 0
-1442 1696 0
-1443 1697 0
-1444 1698 0
-1445 1699 0
-1446 1700 0
-1447 1701 0
-1448 1702 0
-1449 1703 0
-1442 -1450 1697 0
-1442 -1451 1698 0
-1442 -1452 1699 0
-1442 -1453 1700 0
-1442 -1454 1701 0
-1442 -1455 1702 0
-1442 -1456 1703 0
-1442 -1457 1704 0
-1443 -1450 1698 0
-1443 -1451 1699 0
-1443 -1452 1700 0
-1443 -1453 1701 0
-1443 -1454 1702 0
-1443 -1455 1703 0
-1443 -1456 1704 0
-1443 -1457 1705 0
-1444 -1450 1699 0
-1444 -1451 1700 0
-1444 -1452 1701 0
-1444 -1453 1702 0
-1444 -1454 1703 0
-1444 -1455 1704 0
-1444 -1456 1705 0
-1444 -1457 1706 0
-1445 -1450 1700 0
-1445 -1451 1701 0
-1445 -1452 1702 0
-1445 -1453 1703 0
-1445 -1454 1704 0
-1445 -1455 1705 0
-1445 -1456 1706 0
-1445 -1457 1707 0
-1446 -1450 1701 0
-1446 -1451 1702 0
-1446 -1452 1703 0
-1446 -1453 1704 0
-1446 -1454 1705 0
-1446 -1455 1706 0
-1446 -1456 1707 0
-1446 -1457 1708 0
-1447 -1450 1702 0
-1447 -1451 1703 0
-1447 -1452 1704 0
-1447 -1453 1705 0
-1447 -1454 1706 0
-1447 -1455 1707 0
-1447 -1456 1708 0
-1447 -1457 1709 0
-1448 -1450 1703 0
-1448 -1451 1704 0
-1448 -1452 1705 0
-1448 -1453 1706 0
-1448 -1454 1707 0
-1448 -1455 1708 0
-1448 -1456 1709 0
-1448 -1457 1710 0
-1449 -1450 1704 0
-1449 -1451 1705 0
-1449 -1452 1706 0
-1449 -1453 1707 0
-1449 -1454 1708 0
-1449 -1455 1709 0
-1449 -1456 1710 0
-1449 -1457 1711 0
-1466 1712 0
-1467 1713 0
-1468 1714 0
-1469 1715 0
-1470 1716 0
-1471 1717 0
-1472 1718 0
-1473 1719 0
-1458 1712 0
-1459 1713 0
-1460 1714 0
-1461 1715 0
-1462 1716 0
-1463 1717 0
-1464 1718 0
-1465 1719 0
-1458 -1466 1713 0
-1458 -1467 1714 0
-1458 -1468 1715 0
-1458 -1469 1716 0
-1458 -1470 1717 0
-1458 -1471 1718 0
-1458 -1472 1719 0
-1458 -1473 1720 0
-1459 -1466 1714 0
-1459 -1467 1715 0
-1459 -1468 1716 0
-1459 -1469 1717 0
-1459 -1470 1718 0
-1459 -1471 1719 0
-1459 -1472 1720 0
-1459 -1473 1721 0
-1460 -1466 1715 0
-1460 -1467 1716 0
-1460 -1468 1717 0
-1460 -1469 1718 0
-1460 -1470 1719 0
-1460 -1471 1720 0
-1460 -1472 1721 0
-1460 -1473 1722 0
-1461 -1466 1716 0
-1461 -1467 1717 0
-1461 -1468 1718 0
-1461 -1469 1719 0
-1461 -1470 1720 0
-1461 -1471 1721 0
-1461 -1472 1722 0
-1461 -1473 1723 0
-1462 -1466 1717 0
-1462 -1467 1718 0
-1462 -1468 1719 0
-1462 -1469 1720 0
-1462 -1470 1721 0
-1462 -1471 1722 0
-1462 -1472 1723 0
-1462 -1473 1724 0
-1463 -1466 1718 0
-1463 -1467 1719 0
-1463 -1468 1720 0
-1463 -1469 1721 0
-1463 -1470 1722 0
-1463 -1471 1723 0
-1463 -1472 1724 0
-1463 -1473 1725 0
-1464 -1466 1719 0
-1464 -1467 1720 0
-1464 -1468 1721 0
-1464 -1469 1722 0
-1464 -1470 1723 0
-1464 -1471 1724 0
-1464 -1472 1725 0
-1464 -1473 1726 0
-1465 -1466 1720 0
-1465 -1467 1721 0
-1465 -1468 1722 0
-1465 -1469 1723 0
-1465 -1470 1724 0
-1465 -1471 1725 0
-1465 -1472 1726 0
-1465 -1473 1727 0
-1482 1728 0
-1483 1729 0
-1484 1730 0
-1485 1731 0
-1486 1732 0
-1487 1733 0
-1488 1734 0
-1489 1735 0
-1474 1728 0
-1475 1729 0
-1476 1730 0
-1477 1731 0
-1478 1732 0
-1479 1733 0
-1480 1734 0
-1481 1735 0
-1474 -1482 1729 0
-1474 -1483 1730 0
-1474 -1484 1731 0
-1474 -1485 1732 0
-1474 -1486 1733 0
-1474 -1487 1734 0
-1474 -1488 1735 0
-1474 -1489 1736 0
-1475 -1482 1730 0
-1475 -1483 1731 0
-1475 -1484 1732 0
-1475 -1485 1733 0
-1475 -1486 1734 0
-1475 -1487 1735 0
-1475 -1488 1736 0
-1475 -1489 1737 0
-1476 -1482 1731 0
-1476 -1483 1732 0
-1476 -1484 1733 0
-1476 -1485 1734 0
-1476 -1486 1735 0
-1476 -1487 1736 0
-1476 -1488 1737 0
-1476 -1489 1738 0
-1477 -1482 1732 0
-1477 -1483 1733 0
-1477 -1484 1734 0
-1477 -1485 1735 0
-1477 -1486 1736 0
-1477 -1487 1737 0
-1477 -1488 1738 0
-1477 -1489 1739 0
-1478 -1482 1733 0
-1478 -1483 1734 0
-1478 -1484 1735 0
-1478 -1485 1736 0
-1478 -1486 1737 0
-1478 -1487 1738 0
-1478 -1488 1739 0
-1478 -1489 1740 0
-1479 -1482 1734 0
-1479 -1483 1735 0
-1479 -1484 1736 0
-1479 -1485 1737 0
-1479 -1486 1738 0
-1479 -1487 1739 0
-1479 -1488 1740 0
-1479 -1489 1741 0
-1480 -1482 1735 0
-1480 -1483 1736 0
-1480 -1484 1737 0
-1480 -1485 1738 0
-1480 -1486 1739 0
-1480 -1487 1740 0
-1480 -1488 1741 0
-1480 -1489 1742 0
-1481 -1482 1736 0
-1481 -1483 1737 0
-1481 -1484 1738 0
-1481 -1485 1739 0
-1481 -1486 1740 0
-1481 -1487 1741 0
-1481 -1488 1742 0
-1481 -1489 1743 0
-1498 1744 0
-1499 1745 0
-1500 1746 0
-1501 1747 0
-1502 1748 0
-1503 1749 0
-1504 1750 0
-1505 1751 0
-1490 1744 0
-1491 1745 0
-1492 1746 0
-1493 1747 0
-1494 1748 0
-1495 1749 0
-1496 1750 0
-1497 1751 0
-1490 -1498 1745 0
-1490 -1499 1746 0
-1490 -1500 1747 0
-1490 -1501 1748 0
-1490 -1502 1749 0
-1490 -1503 1750 0
-1490 -1504 1751 0
-1490 -1505 1752 0
-1491 -1498 1746 0
-1491 -1499 1747 0
-1491 -1500 1748 0
-1491 -1501 1749 0
-1491 -1502 1750 0
-1491 -1503 1751 0
-1491 -1504 1752 0
-1491 -1505 1753 0
-1492 -1498 1747 0
-1492 -1499 1748 0
-1492 -1500 1749 0
-1492 -1501 1750 0
-1492 -1502 1751 0
-1492 -1503 1752 0
-1492 -1504 1753 0
-1492 -1505 1754 0
-1493 -1498 1748 0
-1493 -1499 1749 0
-1493 -1500 1750 0
-1493 -1501 1751 0
-1493 -1502 1752 0
-1493 -1503 1753 0
-1493 -1504 1754 0
-1493 -1505 1755 0
-1494 -1498 1749 0
-1494 -1499 1750 0
-1494 -1500 1751 0
-1494 -1501 1752 0
-1494 -1502 1753 0
-1494 -1503 1754 0
-1494 -1504 1755 0
-1494 -1505 1756 0
-1495 -1498 1750 0
-1495 -1499 1751 0
-1495 -1500 1752 0
-1495 -1501 1753 0
-1495 -1502 1754 0
-1495 -1503 1755 0
-1495 -1504 1756 0
-1495 -1505 1757 0
-1496 -1498 1751 0
-1496 -1499 1752 0
-1496 -1500 1753 0
-1496 -1501 1754 0
-1496 -1502 1755 0
-1496 -1503 1756 0
-1496 -1504 1757 0
-1496 -1505 1758 0
-1497 -1498 1752 0
-1497 -1499 1753 0
-1497 -1500 1754 0
-1497 -1501 1755 0
-1497 -1502 1756 0
-1497 -1503 1757 0
-1497 -1504 1758 0
-1497 -1505 1759 0
-1520 1760 0
-1521 1761 0
-1522 1762 0
-1523 1763 0
-1524 1764 0
-1525 1765 0
-1526 1766 0
-1527 1767 0
-1528 1768 0
-1529 1769 0
-1530 1770 0
-1531 1771 0
-1532 1772 0
-1533 1773 0
-1534 1774 0
-1535 1775 0
-1506 1760 0
-1507 1761 0
-1508 1762 0
-1509 1763 0
-1510 1764 0
-1511 1765 0
-1512 1766 0
-1513 1767 0
-1514 1768 0
-1515 1769 0
-1516 1770 0
-1517 1771 0
-1518 1772 0
-1519 1773 0
-1506 -1520 1761 0
-1506 -1521 1762 0
-1506 -1522 1763 0
-1506 -1523 1764 0
-1506 -1524 1765 0
-1506 -1525 1766 0
-1506 -1526 1767 0
-1506 -1527 1768 0
-1506 -1528 1769 0
-1506 -1529 1770 0
-1506 -1530 1771 0
-1506 -1531 1772 0
-1506 -1532 1773 0
-1506 -1533 1774 0
-1506 -1534 1775 0
-1506 -1535 1776 0
-1507 -1520 1762 0
-1507 -1521 1763 0
-1507 -1522 1764 0
-1507 -1523 1765 0
-1507 -1524 1766 0
-1507 -1525 1767 0
-1507 -1526 1768 0
-1507 -1527 1769 0
-1507 -1528 1770 0
-1507 -1529 1771 0
-1507 -1530 1772 0
-1507 -1531 1773 0
-1507 -1532 1774 0
-1507 -1533 1775 0
-1507 -1534 1776 0
-1507 -1535 1777 0
-1508 -1520 1763 0
-1508 -1521 1764 0
-1508 -1522 1765 0
-1508 -1523 1766 0
-1508 -1524 1767 0
-1508 -1525 1768 0
-1508 -1526 1769 0
-1508 -1527 1770 0
-1508 -1528 1771 0
-1508 -1529 1772 0
-1508 -1530 1773 0
-1508 -1531 1774 0
-1508 -1532 1775 0
-1508 -1533 1776 0
-1508 -1534 1777 0
-1509 -1520 1764 0
-1509 -1521 1765 0
-1509 -1522 1766 0
-1509 -1523 1767 0
-1509 -1524 1768 0
-1509 -1525 1769 0
-1509 -1526 1770 0
-1509 -1527 1771 0
-1509 -1528 1772 0
-1509 -1529 1773 0
-1509 -1530 1774 0
-1509 -1531 1775 0
-1509 -1532 1776 0
-1509 -1533 1777 0
-1510 -1520 1765 0
-1510 -1521 1766 0
-1510 -1522 1767 0
-1510 -1523 1768 0
-1510 -1524 1769 0
-1510 -1525 1770 0
-1510 -1526 1771 0
-1510 -1527 1772 0
-1510 -1528 1773 0
-1510 -1529 1774 0
-1510 -1530 1775 0
-1510 -1531 1776 0
-1510 -1532 1777 0
-1511 -1520 1766 0
-1511 -1521 1767 0
-1511 -1522 1768 0
-1511 -1523 1769 0
-1511 -1524 1770 0
-1511 -1525 1771 0
-1511 -1526 1772 0
-1511 -1527 1773 0
-1511 -1528 1774 0
-1511 -1529 1775 0
-1511 -1530 1776 0
-1511 -1531 1777 0
-1512 -1520 1767 0
-1512 -1521 1768 0
-1512 -1522 1769 0
-1512 -1523 1770 0
-1512 -1524 1771 0
-1512 -1525 1772 0
-1512 -1526 1773 0
-1512 -1527 1774 0
-1512 -1528 1775 0
-1512 -1529 1776 0
-1512 -1530 1777 0
-1513 -1520 1768 0
-1513 -1521 1769 0
-1513 -1522 1770 0
-1513 -1523 1771 0
-1513 -1524 1772 0
-1513 -1525 1773 0
-1513 -1526 1774 0
-1513 -1527 1775 0
-1513 -1528 1776 0
-1513 -1529 1777 0
-1514 -1520 1769 0
-1514 -1521 1770 0
-1514 -1522 1771 0
-1514 -1523 1772 0
-1514 -1524 1773 0
-1514 -1525 1774 0
-1514 -1526 1775 0
-1514 -1527 1776 0
-1514 -1528 1777 0
-1515 -1520 1770 0
-1515 -1521 1771 0
-1515 -1522 1772 0
-1515 -1523 1773 0
-1515 -1524 1774 0
-1515 -1525 1775 0
-1515 -1526 1776 0
-1515 -1527 1777 0
-1516 -1520 1771 0
-1516 -1521 1772 0
-1516 -1522 1773 0
-1516 -1523 1774 0
-1516 -1524 1775 0
-1516 -1525 1776 0
-1516 -1526 1777 0
-1517 -1520 1772 0
-1517 -1521 1773 0
-1517 -1522 1774 0
-1517 -1523 1775 0
-1517 -1524 1776 0
-1517 -1525 1777 0
-1518 -1520 1773 0
-1518 -1521 1774 0
-1518 -1522 1775 0
-1518 -1523 1776 0
-1518 -1524 1777 0
-1519 -1520 1774 0
-1519 -1521 1775 0
-1519 -1522 1776 0
-1519 -1523 1777 0
-1552 1778 0
-1553 1779 0
-1554 1780 0
-1555 1781 0
-1556 1782 0
-1557 1783 0
-1558 1784 0
-1559 1785 0
-1560 1786 0
-1561 1787 0
-1562 1788 0
-1563 1789 0
-1564 1790 0
-1565 1791 0
-1566 1792 0
-1567 1793 0
-1536 1778 0
-1537 1779 0
-1538 1780 0
-1539 1781 0
-1540 1782 0
-1541 1783 0
-1542 1784 0
-1543 1785 0
-1544 1786 0
-1545 1787 0
-1546 1788 0
-1547 1789 0
-1548 1790 0
-1549 1791 0
-1550 1792 0
-1551 1793 0
-1536 -1552 1779 0
-1536 -1553 1780 0
-1536 -1554 1781 0
-1536 -1555 1782 0
-1536 -1556 1783 0
-1536 -1557 1784 0
-1536 -1558 1785 0
-1536 -1559 1786 0
-1536 -1560 1787 0
-1536 -1561 1788 0
-1536 -1562 1789 0
-1536 -1563 1790 0
-1536 -1564 1791 0
-1536 -1565 1792 0
-1536 -1566 1793 0
-1536 -1567 1794 0
-1537 -1552 1780 0
-1537 -1553 1781 0
-1537 -1554 1782 0
-1537 -1555 1783 0
-1537 -1556 1784 0
-1537 -1557 1785 0
-1537 -1558 1786 0
-1537 -1559 1787 0
-1537 -1560 1788 0
-1537 -1561 1789 0
-1537 -1562 1790 0
-1537 -1563 1791 0
-1537 -1564 1792 0
-1537 -1565 1793 0
-1537 -1566 1794 0
-1537 -1567 1795 0
-1538 -1552 1781 0
-1538 -1553 1782 0
-1538 -1554 1783 0
-1538 -1555 1784 0
-1538 -1556 1785 0
-1538 -1557 1786 0
-1538 -1558 1787 0
-1538 -1559 1788 0
-1538 -1560 1789 0
-1538 -1561 1790 0
-1538 -1562 1791 0
-1538 -1563 1792 0
-1538 -1564 1793 0
-1538 -1565 1794 0
-1538 -1566 1795 0
-1539 -1552 1782 0
-1539 -1553 1783 0
-1539 -1554 1784 0
-1539 -1555 1785 0
-1539 -1556 1786 0
-1539 -1557 1787 0
-1539 -1558 1788 0
-1539 -1559 1789 0
-1539 -1560 1790 0
-1539 -1561 1791 0
-1539 -1562 1792 0
-1539 -1563 1793 0
-1539 -1564 1794 0
-1539 -1565 1795 0
-1540 -1552 1783 0
-1540 -1553 1784 0
-1540 -1554 1785 0
-1540 -1555 1786 0
-1540 -1556 1787 0
-1540 -1557 1788 0
-1540 -1558 1789 0
-1540 -1559 1790 0
-1540 -1560 1791 0
-1540 -1561 1792 0
-1540 -1562 1793 0
-1540 -1563 1794 0
-1540 -1564 1795 0
-1541 -1552 1784 0
-1541 -1553 1785 0
-1541 -1554 1786 0
-1541 -1555 1787 0
-1541 -1556 1788 0
-1541 -1557 1789 0
-1541 -1558 1790 0
-1541 -1559 1791 0
-1541 -1560 1792 0
-1541 -1561 1793 0
-1541 -1562 1794 0
-1541 -1563 1795 0
-1542 -1552 1785 0
-1542 -1553 1786 0
-1542 -1554 1787 0
-1542 -1555 1788 0
-1542 -1556 1789 0
-1542 -1557 1790 0
-1542 -1558 1791 0
-1542 -1559 1792 0
-1542 -1560 1793 0
-1542 -1561 1794 0
-1542 -1562 1795 0
-1543 -1552 1786 0
-1543 -1553 1787 0
-1543 -1554 1788 0
-1543 -1555 1789 0
-1543 -1556 1790 0
-1543 -1557 1791 0
-1543 -1558 1792 0
-1543 -1559 1793 0
-1543 -1560 1794 0
-1543 -1561 1795 0
-1544 -1552 1787 0
-1544 -1553 1788 0
-1544 -1554 1789 0
-1544 -1555 1790 0
-1544 -1556 1791 0
-1544 -1557 1792 0
-1544 -1558 1793 0
-1544 -1559 1794 0
-1544 -1560 1795 0
-1545 -1552 1788 0
-1545 -1553 1789 0
-1545 -1554 1790 0
-1545 -1555 1791 0
-1545 -1556 1792 0
-1545 -1557 1793 0
-1545 -1558 1794 0
-1545 -1559 1795 0
-1546 -1552 1789 0
-1546 -1553 1790 0
-1546 -1554 1791 0
-1546 -1555 1792 0
-1546 -1556 1793 0
-1546 -1557 1794 0
-1546 -1558 1795 0
-1547 -1552 1790 0
-1547 -1553 1791 0
-1547 -1554 1792 0
-1547 -1555 1793 0
-1547 -1556 1794 0
-1547 -1557 1795 0
-1548 -1552 1791 0
-1548 -1553 1792 0
-1548 -1554 1793 0
-1548 -1555 1794 0
-1548 -1556 1795 0
-1549 -1552 1792 0
-1549 -1553 1793 0
-1549 -1554 1794 0
-1549 -1555 1795 0
-1550 -1552 1793 0
-1550 -1553 1794 0
-1550 -1554 1795 0
-1551 -1552 1794 0
-1551 -1553 1795 0
-1584 1796 0
-1585 1797 0
-1586 1798 0
-1587 1799 0
-1588 1800 0
-1589 1801 0
-1590 1802 0
-1591 1803 0
-1592 1804 0
-1593 1805 0
-1594 1806 0
-1595 1807 0
-1596 1808 0
-1597 1809 0
-1598 1810 0
-1599 1811 0
-1568 1796 0
-1569 1797 0
-1570 1798 0
-1571 1799 0
-1572 1800 0
-1573 1801 0
-1574 1802 0
-1575 1803 0
-1576 1804 0
-1577 1805 0
-1578 1806 0
-1579 1807 0
-1580 1808 0
-1581 1809 0
-1582 1810 0
-1583 1811 0
-1568 -1584 1797 0
-1568 -1585 1798 0
-1568 -1586 1799 0
-1568 -1587 1800 0
-1568 -1588 1801 0
-1568 -1589 1802 0
-1568 -1590 1803 0
-1568 -1591 1804 0
-1568 -1592 1805 0
-1568 -1593 1806 0
-1568 -1594 1807 0
-1568 -1595 1808 0
-1568 -1596 1809 0
-1568 -1597 1810 0
-1568 -1598 1811 0
-1568 -1599 1812 0
-1569 -1584 1798 0
-1569 -1585 1799 0
-1569 -1586 1800 0
-1569 -1587 1801 0
-1569 -1588 1802 0
-1569 -1589 1803 0
-1569 -1590 1804 0
-1569 -1591 1805 0
-1569 -1592 1806 0
-1569 -1593 1807 0
-1569 -1594 1808 0
-1569 -1595 1809 0
-1569 -1596 1810 0
-1569 -1597 1811 0
-1569 -1598 1812 0
-1569 -1599 1813 0
-1570 -1584 1799 0
-1570 -1585 1800 0
-1570 -1586 1801 0
-1570 -1587 1802 0
-1570 -1588 1803 0
-1570 -1589 1804 0
-1570 -1590 1805 0
-1570 -1591 1806 0
-1570 -1592 1807 0
-1570 -1593 1808 0
-1570 -1594 1809 0
-1570 -1595 1810 0
-1570 -1596 1811 0
-1570 -1597 1812 0
-1570 -1598 1813 0
-1571 -1584 1800 0
-1571 -1585 1801 0
-1571 -1586 1802 0
-1571 -1587 1803 0
-1571 -1588 1804 0
-1571 -1589 1805 0
-1571 -1590 1806 0
-1571 -1591 1807 0
-1571 -1592 1808 0
-1571 -1593 1809 0
-1571 -1594 1810 0
-1571 -1595 1811 0
-1571 -1596 1812 0
-1571 -1597 1813 0
-1572 -1584 1801 0
-1572 -1585 1802 0
-1572 -1586 1803 0
-1572 -1587 1804 0
-1572 -1588 1805 0
-1572 -1589 1806 0
-1572 -1590 1807 0
-1572 -1591 1808 0
-1572 -1592 1809 0
-1572 -1593 1810 0
-1572 -1594 1811 0
-1572 -1595 1812 0
-1572 -1596 1813 0
-1573 -1584 1802 0
-1573 -1585 1803 0
-1573 -1586 1804 0
-1573 -1587 1805 0
-1573 -1588 1806 0
-1573 -1589 1807 0
-1573 -1590 1808 0
-1573 -1591 1809 0
-1573 -1592 1810 0
-1573 -1593 1811 0
-1573 -1594 1812 0
-1573 -1595 1813 0
-1574 -1584 1803 0
-1574 -1585 1804 0
-1574 -1586 1805 0
-1574 -1587 1806 0
-1574 -1588 1807 0
-1574 -1589 1808 0
-1574 -1590 1809 0
-1574 -1591 1810 0
-1574 -1592 1811 0
-1574 -1593 1812 0
-1574 -1594 1813 0
-1575 -1584 1804 0
-1575 -1585 1805 0
-1575 -1586 1806 0
-1575 -1587 1807 0
-1575 -1588 1808 0
-1575 -1589 1809 0
-1575 -1590 1810 0
-1575 -1591 1811 0
-1575 -1592 1812 0
-1575 -1593 1813 0
-1576 -1584 1805 0
-1576 -1585 1806 0
-1576 -1586 1807 0
-1576 -1587 1808 0
-1576 -1588 1809 0
-1576 -1589 1810 0
-1576 -1590 1811 0
-1576 -1591 1812 0
-1576 -1592 1813 0
-1577 -1584 1806 0
-1577 -1585 1807 0
-1577 -1586 1808 0
-1577 -1587 1809 0
-1577 -1588 1810 0
-1577 -1589 1811 0
-1577 -1590 1812 0
-1577 -1591 1813 0
-1578 -1584 1807 0
-1578 -1585 1808 0
-1578 -1586 1809 0
-1578 -1587 1810 0
-1578 -1588 1811 0
-1578 -1589 1812 0
-1578 -1590 1813 0
-1579 -1584 1808 0
-1579 -1585 1809 0
-1579 -1586 1810 0
-1579 -1587 1811 0
-1579 -1588 1812 0
-1579 -1589 1813 0
-1580 -1584 1809 0
-1580 -1585 1810 0
-1580 -1586 1811 0
-1580 -1587 1812 0
-1580 -1588 1813 0
-1581 -1584 1810 0
-1581 -1585 1811 0
-1581 -1586 1812 0
-1581 -1587 1813 0
-1582 -1584 1811 0
-1582 -1585 1812 0
-1582 -1586 1813 0
-1583 -1584 1812 0
-1583 -1585 1813 0
-1616 1814 0
-1617 1815 0
-1618 1816 0
-1619 1817 0
-1620 1818 0
-1621 1819 0
-1622 1820 0
-1623 1821 0
-1624 1822 0
-1625 1823 0
-1626 1824 0
-1627 1825 0
-1628 1826 0
-1629 1827 0
-1630 1828 0
-1631 1829 0
-1600 1814 0
-1601 1815 0
-1602 1816 0
-1603 1817 0
-1604 1818 0
-1605 1819 0
-1606 1820 0
-1607 1821 0
-1608 1822 0
-1609 1823 0
-1610 1824 0
-1611 1825 0
-1612 1826 0
-1613 1827 0
-1614 1828 0
-1615 1829 0
-1600 -1616 1815 0
-1600 -1617 1816 0
-1600 -1618 1817 0
-1600 -1619 1818 0
-1600 -1620 1819 0
-1600 -1621 1820 0
-1600 -1622 1821 0
-1600 -1623 1822 0
-1600 -1624 1823 0
-1600 -1625 1824 0
-1600 -1626 1825 0
-1600 -1627 1826 0
-1600 -1628 1827 0
-1600 -1629 1828 0
-1600 -1630 1829 0
-1600 -1631 1830 0
-1601 -1616 1816 0
-1601 -1617 1817 0
-1601 -1618 1818 0
-1601 -1619 1819 0
-1601 -1620 1820 0
-1601 -1621 1821 0
-1601 -1622 1822 0
-1601 -1623 1823 0
-1601 -1624 1824 0
-1601 -1625 1825 0
-1601 -1626 1826 0
-1601 -1627 1827 0
-1601 -1628 1828 0
-1601 -1629 1829 0
-1601 -1630 1830 0
-1601 -1631 1831 0
-1602 -1616 1817 0
-1602 -1617 1818 0
-1602 -1618 1819 0
-1602 -1619 1820 0
-1602 -1620 1821 0
-1602 -1621 1822 0
-1602 -1622 1823 0
-1602 -1623 1824 0
-1602 -1624 1825 0
-1602 -1625 1826 0
-1602 -1626 1827 0
-1602 -1627 1828 0
-1602 -1628 1829 0
-1602 -1629 1830 0
-1602 -1630 1831 0
-1603 -1616 1818 0
-1603 -1617 1819 0
-1603 -1618 1820 0
-1603 -1619 1821 0
-1603 -1620 1822 0
-1603 -1621 1823 0
-1603 -1622 1824 0
-1603 -1623 1825 0
-1603 -1624 1826 0
-1603 -1625 1827 0
-1603 -1626 1828 0
-1603 -1627 1829 0
-1603 -1628 1830 0
-1603 -1629 1831 0
-1604 -1616 1819 0
-1604 -1617 1820 0
-1604 -1618 1821 0
-1604 -1619 1822 0
-1604 -1620 1823 0
-1604 -1621 1824 0
-1604 -1622 1825 0
-1604 -1623 1826 0
-1604 -1624 1827 0
-1604 -1625 1828 0
-1604 -1626 1829 0
-1604 -1627 1830 0
-1604 -1628 1831 0
-1605 -1616 1820 0
-1605 -1617 1821 0
-1605 -1618 1822 0
-1605 -1619 1823 0
-1605 -1620 1824 0
-1605 -1621 1825 0
-1605 -1622 1826 0
-1605 -1623 1827 0
-1605 -1624 1828 0
-1605 -1625 1829 0
-1605 -1626 1830 0
-1605 -1627 1831 0
-1606 -1616 1821 0
-1606 -1617 1822 0
-1606 -1618 1823 0
-1606 -1619 1824 0
-1606 -1620 1825 0
-1606 -1621 1826 0
-1606 -1622 1827 0
-1606 -1623 1828 0
-1606 -1624 1829 0
-1606 -1625 1830 0
-1606 -1626 1831 0
-1607 -1616 1822 0
-1607 -1617 1823 0
-1607 -1618 1824 0
-1607 -1619 1825 0
-1607 -1620 1826 0
-1607 -1621 1827 0
-1607 -1622 1828 0
-1607 -1623 1829 0
-1607 -1624 1830 0
-1607 -1625 1831 0
-1608 -1616 1823 0
-1608 -1617 1824 0
-1608 -1618 1825 0
-1608 -1619 1826 0
-1608 -1620 1827 0
-1608 -1621 1828 0
-1608 -1622 1829 0
-1608 -1623 1830 0
-1608 -1624 1831 0
-1609 -1616 1824 0
-1609 -1617 1825 0
-1609 -1618 1826 0
-1609 -1619 1827 0
-1609 -1620 1828 0
-1609 -1621 1829 0
-1609 -1622 1830 0
-1609 -1623 1831 0
-1610 -1616 1825 0
-1610 -1617 1826 0
-1610 -1618 1827 0
-1610 -1619 1828 0
-1610 -1620 1829 0
-1610 -1621 1830 0
-1610 -1622 1831 0
-1611 -1616 1826 0
-1611 -1617 1827 0
-1611 -1618 1828 0
-1611 -1619 1829 0
-1611 -1620 1830 0
-1611 -1621 1831 0
-1612 -1616 1827 0
-1612 -1617 1828 0
-1612 -1618 1829 0
-1612 -1619 1830 0
-1612 -1620 1831 0
-1613 -1616 1828 0
-1613 -1617 1829 0
-1613 -1618 1830 0
-1613 -1619 1831 0
-1614 -1616 1829 0
-1614 -1617 1830 0
-1614 -1618 1831 0
-1615 -1616 1830 0
-1615 -1617 1831 0
-1648 1832 0
-1649 1833 0
-1650 1834 0
-1651 1835 0
-1652 1836 0
-1653 1837 0
-1654 1838 0
-1655 1839 0
-1656 1840 0
-1657 1841 0
-1658 1842 0
-1659 1843 0
-1660 1844 0
-1661 1845 0
-1662 1846 0
-1663 1847 0
-1632 1832 0
-1633 1833 0
-1634 1834 0
-1635 1835 0
-1636 1836 0
-1637 1837 0
-1638 1838 0
-1639 1839 0
-1640 1840 0
-1641 1841 0
-1642 1842 0
-1643 1843 0
-1644 1844 0
-1645 1845 0
-1646 1846 0
-1647 1847 0
-1632 -1648 1833 0
-1632 -1649 1834 0
-1632 -1650 1835 0
-1632 -1651 1836 0
-1632 -1652 1837 0
-1632 -1653 1838 0
-1632 -1654 1839 0
-1632 -1655 1840 0
-1632 -1656 1841 0
-1632 -1657 1842 0
-1632 -1658 1843 0
-1632 -1659 1844 0
-1632 -1660 1845 0
-1632 -1661 1846 0
-1632 -1662 1847 0
-1632 -1663 1848 0
-1633 -1648 1834 0
-1633 -1649 1835 0
-1633 -1650 1836 0
-1633 -1651 1837 0
-1633 -1652 1838 0
-1633 -1653 1839 0
-1633 -1654 1840 0
-1633 -1655 1841 0
-1633 -1656 1842 0
-1633 -1657 1843 0
-1633 -1658 1844 0
-1633 -1659 1845 0
-1633 -1660 1846 0
-1633 -1661 1847 0
-1633 -1662 1848 0
-1633 -1663 1849 0
-1634 -1648 1835 0
-1634 -1649 1836 0
-1634 -1650 1837 0
-1634 -1651 1838 0
-1634 -1652 1839 0
-1634 -1653 1840 0
-1634 -1654 1841 0
-1634 -1655 1842 0
-1634 -1656 1843 0
-1634 -1657 1844 0
-1634 -1658 1845 0
-1634 -1659 1846 0
-1634 -1660 1847 0
-1634 -1661 1848 0
-1634 -1662 1849 0
-1635 -1648 1836 0
-1635 -1649 1837 0
-1635 -1650 1838 0
-1635 -1651 1839 0
-1635 -1652 1840 0
-1635 -1653 1841 0
-1635 -1654 1842 0
-1635 -1655 1843 0
-1635 -1656 1844 0
-1635 -1657 1845 0
-1635 -1658 1846 0
-1635 -1659 1847 0
-1635 -1660 1848 0
-1635 -1661 1849 0
-1636 -1648 1837 0
-1636 -1649 1838 0
-1636 -1650 1839 0
-1636 -1651 1840 0
-1636 -1652 1841 0
-1636 -1653 1842 0
-1636 -1654 1843 0
-1636 -1655 1844 0
-1636 -1656 1845 0
-1636 -1657 1846 0
-1636 -1658 1847 0
-1636 -1659 1848 0
-1636 -1660 1849 0
-1637 -1648 1838 0
-1637 -1649 1839 0
-1637 -1650 1840 0
-1637 -1651 1841 0
-1637 -1652 1842 0
-1637 -1653 1843 0
-1637 -1654 1844 0
-1637 -1655 1845 0
-1637 -1656 1846 0
-1637 -1657 1847 0
-1637 -1658 1848 0
-1637 -1659 1849 0
-1638 -1648 1839 0
-1638 -1649 1840 0
-1638 -1650 1841 0
-1638 -1651 1842 0
-1638 -1652 1843 0
-1638 -1653 1844 0
-1638 -1654 1845 0
-1638 -1655 1846 0
-1638 -1656 1847 0
-1638 -1657 1848 0
-1638 -1658 1849 0
-1639 -1648 1840 0
-1639 -1649 1841 0
-1639 -1650 1842 0
-1639 -1651 1843 0
-1639 -1652 1844 0
-1639 -1653 1845 0
-1639 -1654 1846 0
-1639 -1655 1847 0
-1639 -1656 1848 0
-1639 -1657 1849 0
-1640 -1648 1841 0
-1640 -1649 1842 0
-1640 -1650 1843 0
-1640 -1651 1844 0
-1640 -1652 1845 0
-1640 -1653 1846 0
-1640 -1654 1847 0
-1640 -1655 1848 0
-1640 -1656 1849 0
-1641 -1648 1842 0
-1641 -1649 1843 0
-1641 -1650 1844 0
-1641 -1651 1845 0
-1641 -1652 1846 0
-1641 -1653 1847 0
-1641 -1654 1848 0
-1641 -1655 1849 0
-1642 -1648 1843 0
-1642 -1649 1844 0
-1642 -1650 1845 0
-1642 -1651 1846 0
-1642 -1652 1847 0
-1642 -1653 1848 0
-1642 -1654 1849 0
-1643 -1648 1844 0
-1643 -1649 1845 0
-1643 -1650 1846 0
-1643 -1651 1847 0
-1643 -1652 1848 0
-1643 -1653 1849 0
-1644 -1648 1845 0
-1644 -1649 1846 0
-1644 -1650 1847 0
-1644 -1651 1848 0
-1644 -1652 1849 0
-1645 -1648 1846 0
-1645 -1649 1847 0
-1645 -1650 1848 0
-1645 -1651 1849 0
-1646 -1648 1847 0
-1646 -1649 1848 0
-1646 -1650 1849 0
-1647 -1648 1848 0
-1647 -1649 1849 0
-1680 1850 0
-1681 1851 0
-1682 1852 0
-1683 1853 0
-1684 1854 0
-1685 1855 0
-1686 1856 0
-1687 1857 0
-1688 1858 0
-1689 1859 0
-1690 1860 0
-1691 1861 0
-1692 1862 0
-1693 1863 0
-1694 1864 0
-1695 1865 0
-1664 1850 0
-1665 1851 0
-1666 1852 0
-1667 1853 0
-1668 1854 0
-1669 1855 0
-1670 1856 0
-1671 1857 0
-1672 1858 0
-1673 1859 0
-1674 1860 0
-1675 1861 0
-1676 1862 0
-1677 1863 0
-1678 1864 0
-1679 1865 0
-1664 -1680 1851 0
-1664 -1681 1852 0
-1664 -1682 1853 0
-1664 -1683 1854 0
-1664 -1684 1855 0
-1664 -1685 1856 0
-1664 -1686 1857 0
-1664 -1687 1858 0
-1664 -1688 1859 0
-1664 -1689 1860 0
-1664 -1690 1861 0
-1664 -1691 1862 0
-1664 -1692 1863 0
-1664 -1693 1864 0
-1664 -1694 1865 0
-1664 -1695 1866 0
-1665 -1680 1852 0
-1665 -1681 1853 0
-1665 -1682 1854 0
-1665 -1683 1855 0
-1665 -1684 1856 0
-1665 -1685 1857 0
-1665 -1686 1858 0
-1665 -1687 1859 0
-1665 -1688 1860 0
-1665 -1689 1861 0
-1665 -1690 1862 0
-1665 -1691 1863 0
-1665 -1692 1864 0
-1665 -1693 1865 0
-1665 -1694 1866 0
-1665 -1695 1867 0
-1666 -1680 1853 0
-1666 -1681 1854 0
-1666 -1682 1855 0
-1666 -1683 1856 0
-1666 -1684 1857 0
-1666 -1685 1858 0
-1666 -1686 1859 0
-1666 -1687 1860 0
-1666 -1688 1861 0
-1666 -1689 1862 0
-1666 -1690 1863 0
-1666 -1691 1864 0
-1666 -1692 1865 0
-1666 -1693 1866 0
-1666 -1694 1867 0
-1667 -1680 1854 0
-1667 -1681 1855 0
-1667 -1682 1856 0
-1667 -1683 1857 0
-1667 -1684 1858 0
-1667 -1685 1859 0
-1667 -1686 1860 0
-1667 -1687 1861 0
-1667 -1688 1862 0
-1667 -1689 1863 0
-1667 -1690 1864 0
-1667 -1691 1865 0
-1667 -1692 1866 0
-1667 -1693 1867 0
-1668 -1680 1855 0
-1668 -1681 1856 0
-1668 -1682 1857 0
-1668 -1683 1858 0
-1668 -1684 1859 0
-1668 -1685 1860 0
-1668 -1686 1861 0
-1668 -1687 1862 0
-1668 -1688 1863 0
-1668 -1689 1864 0
-1668 -1690 1865 0
-1668 -1691 1866 0
-1668 -1692 1867 0
-1669 -1680 1856 0
-1669 -1681 1857 0
-1669 -1682 1858 0
-1669 -1683 1859 0
-1669 -1684 1860 0
-1669 -1685 1861 0
-1669 -1686 1862 0
-1669 -1687 1863 0
-1669 -1688 1864 0
-1669 -1689 1865 0
-1669 -1690 1866 0
-1669 -1691 1867 0
-1670 -1680 1857 0
-1670 -1681 1858 0
-1670 -1682 1859 0
-1670 -1683 1860 0
-1670 -1684 1861 0
-1670 -1685 1862 0
-1670 -1686 1863 0
-1670 -1687 1864 0
-1670 -1688 1865 0
-1670 -1689 1866 0
-1670 -1690 1867 0
-1671 -1680 1858 0
-1671 -1681 1859 0
-1671 -1682 1860 0
-1671 -1683 1861 0
-1671 -1684 1862 0
-1671 -1685 1863 0
-1671 -1686 1864 0
-1671 -1687 1865 0
-1671 -1688 1866 0
-1671 -1689 1867 0
-1672 -1680 1859 0
-1672 -1681 1860 0
-1672 -1682 1861 0
-1672 -1683 1862 0
-1672 -1684 1863 0
-1672 -1685 1864 0
-1672 -1686 1865 0
-1672 -1687 1866 0
-1672 -1688 1867 0
-1673 -1680 1860 0
-1673 -1681 1861 0
-1673 -1682 1862 0
-1673 -1683 1863 0
-1673 -1684 1864 0
-1673 -1685 1865 0
-1673 -1686 1866 0
-1673 -1687 1867 0
-1674 -1680 1861 0
-1674 -1681 1862 0
-1674 -1682 1863 0
-1674 -1683 1864 0
-1674 -1684 1865 0
-1674 -1685 1866 0
-1674 -1686 1867 0
-1675 -1680 1862 0
-1675 -1681 1863 0
-1675 -1682 1864 0
-1675 -1683 1865 0
-1675 -1684 1866 0
-1675 -1685 1867 0
-1676 -1680 1863 0
-1676 -1681 1864 0
-1676 -1682 1865 0
-1676 -1683 1866 0
-1676 -1684 1867 0
-1677 -1680 1864 0
-1677 -1681 1865 0
-1677 -1682 1866 0
-1677 -1683 1867 0
-1678 -1680 1865 0
-1678 -1681 1866 0
-1678 -1682 1867 0
-1679 -1680 1866 0
-1679 -1681 1867 0
-1712 1868 0
-1713 1869 0
-1714 1870 0
-1715 1871 0
-1716 1872 0
-1717 1873 0
-1718 1874 0
-1719 1875 0
-1720 1876 0
-1721 1877 0
-1722 1878 0
-1723 1879 0
-1724 1880 0
-1725 1881 0
-1726 1882 0
-1727 1883 0
-1696 1868 0
-1697 1869 0
-1698 1870 0
-1699 1871 0
-1700 1872 0
-1701 1873 0
-1702 1874 0
-1703 1875 0
-1704 1876 0
-1705 1877 0
-1706 1878 0
-1707 1879 0
-1708 1880 0
-1709 1881 0
-1710 1882 0
-1711 1883 0
-1696 -1712 1869 0
-1696 -1713 1870 0
-1696 -1714 1871 0
-1696 -1715 1872 0
-1696 -1716 1873 0
-1696 -1717 1874 0
-1696 -1718 1875 0
-1696 -1719 1876 0
-1696 -1720 1877 0
-1696 -1721 1878 0
-1696 -1722 1879 0
-1696 -1723 1880 0
-1696 -1724 1881 0
-1696 -1725 1882 0
-1696 -1726 1883 0
-1696 -1727 1884 0
-1697 -1712 1870 0
-1697 -1713 1871 0
-1697 -1714 1872 0
-1697 -1715 1873 0
-1697 -1716 1874 0
-1697 -1717 1875 0
-1697 -1718 1876 0
-1697 -1719 1877 0
-1697 -1720 1878 0
-1697 -1721 1879 0
-1697 -1722 1880 0
-1697 -1723 1881 0
-1697 -1724 1882 0
-1697 -1725 1883 0
-1697 -1726 1884 0
-1697 -1727 1885 0
-1698 -1712 1871 0
-1698 -1713 1872 0
-1698 -1714 1873 0
-1698 -1715 1874 0
-1698 -1716 1875 0
-1698 -1717 1876 0
-1698 -1718 1877 0
-1698 -1719 1878 0
-1698 -1720 1879 0
-1698 -1721 1880 0
-1698 -1722 1881 0
-1698 -1723 1882 0
-1698 -1724 1883 0
-1698 -1725 1884 0
-1698 -1726 1885 0
-1699 -1712 1872 0
-1699 -1713 1873 0
-1699 -1714 1874 0
-1699 -1715 1875 0
-1699 -1716 1876 0
-1699 -1717 1877 0
-1699 -1718 1878 0
-1699 -1719 1879 0
-1699 -1720 1880 0
-1699 -1721 1881 0
-1699 -1722 1882 0
-1699 -1723 1883 0
-1699 -1724 1884 0
-1699 -1725 1885 0
-1700 -1712 1873 0
-1700 -1713 1874 0
-1700 -1714 1875 0
-1700 -1715 1876 0
-1700 -1716 1877 0
-1700 -1717 1878 0
-1700 -1718 1879 0
-1700 -1719 1880 0
-1700 -1720 1881 0
-1700 -1721 1882 0
-1700 -1722 1883 0
-1700 -1723 1884 0
-1700 -1724 1885 0
-1701 -1712 1874 0
-1701 -1713 1875 0
-1701 -1714 1876 0
-1701 -1715 1877 0
-1701 -1716 1878 0
-1701 -1717 1879 0
-1701 -1718 1880 0
-1701 -1719 1881 0
-1701 -1720 1882 0
-1701 -1721 1883 0
-1701 -1722 1884 0
-1701 -1723 1885 0
-1702 -1712 1875 0
-1702 -1713 1876 0
-1702 -1714 1877 0
-1702 -1715 1878 0
-1702 -1716 1879 0
-1702 -1717 1880 0
-1702 -1718 1881 0
-1702 -1719 1882 0
-1702 -1720 1883 0
-1702 -1721 1884 0
-1702 -1722 1885 0
-1703 -1712 1876 0
-1703 -1713 1877 0
-1703 -1714 1878 0
-1703 -1715 1879 0
-1703 -1716 1880 0
-1703 -1717 1881 0
-1703 -1718 1882 0
-1703 -1719 1883 0
-1703 -1720 1884 0
-1703 -1721 1885 0
-1704 -1712 1877 0
-1704 -1713 1878 0
-1704 -1714 1879 0
-1704 -1715 1880 0
-1704 -1716 1881 0
-1704 -1717 1882 0
-1704 -1718 1883 0
-1704 -1719 1884 0
-1704 -1720 1885 0
-1705 -1712 1878 0
-1705 -1713 1879 0
-1705 -1714 1880 0
-1705 -1715 1881 0
-1705 -1716 1882 0
-1705 -1717 1883 0
-1705 -1718 1884 0
-1705 -1719 1885 0
-1706 -1712 1879 0
-1706 -1713 1880 0
-1706 -1714 1881 0
-1706 -1715 1882 0
-1706 -1716 1883 0
-1706 -1717 1884 0
-1706 -1718 1885 0
-1707 -1712 1880 0
-1707 -1713 1881 0
-1707 -1714 1882 0
-1707 -1715 1883 0
-1707 -1716 1884 0
-1707 -1717 1885 0
-1708 -1712 1881 0
-1708 -1713 1882 0
-1708 -1714 1883 0
-1708 -1715 1884 0
-1708 -1716 1885 0
-1709 -1712 1882 0
-1709 -1713 1883 0
-1709 -1714 1884 0
-1709 -1715 1885 0
-1710 -1712 1883 0
-1710 -1713 1884 0
-1710 -1714 1885 0
-1711 -1712 1884 0
-1711 -1713 1885 0
-1744 1886 0
-1745 1887 0
-1746 1888 0
-1747 1889 0
-1748 1890 0
-1749 1891 0
-1750 1892 0
-1751 1893 0
-1752 1894 0
-1753 1895 0
-1754 1896 0
-1755 1897 0
-1756 1898 0
-1757 1899 0
-1758 1900 0
-1759 1901 0
-1728 1886 0
-1729 1887 0
-1730 1888 0
-1731 1889 0
-1732 1890 0
-1733 1891 0
-1734 1892 0
-1735 1893 0
-1736 1894 0
-1737 1895 0
-1738 1896 0
-1739 1897 0
-1740 1898 0
-1741 1899 0
-1742 1900 0
-1743 1901 0
-1728 -1744 1887 0
-1728 -1745 1888 0
-1728 -1746 1889 0
-1728 -1747 1890 0
-1728 -1748 1891 0
-1728 -1749 1892 0
-1728 -1750 1893 0
-1728 -1751 1894 0
-1728 -1752 1895 0
-1728 -1753 1896 0
-1728 -1754 1897 0
-1728 -1755 1898 0
-1728 -1756 1899 0
-1728 -1757 1900 0
-1728 -1758 1901 0
-1728 -1759 1902 0
-1729 -1744 1888 0
-1729 -1745 1889 0
-1729 -1746 1890 0
-1729 -1747 1891 0
-1729 -1748 1892 0
-1729 -1749 1893 0
-1729 -1750 1894 0
-1729 -1751 1895 0
-1729 -1752 1896 0
-1729 -1753 1897 0
-1729 -1754 1898 0
-1729 -1755 1899 0
-1729 -1756 1900 0
-1729 -1757 1901 0
-1729 -1758 1902 0
-1729 -1759 1903 0
-1730 -1744 1889 0
-1730 -1745 1890 0
-1730 -1746 1891 0
-1730 -1747 1892 0
-1730 -1748 1893 0
-1730 -1749 1894 0
-1730 -1750 1895 0
-1730 -1751 1896 0
-1730 -1752 1897 0
-1730 -1753 1898 0
-1730 -1754 1899 0
-1730 -1755 1900 0
-1730 -1756 1901 0
-1730 -1757 1902 0
-1730 -1758 1903 0
-1731 -1744 1890 0
-1731 -1745 1891 0
-1731 -1746 1892 0
-1731 -1747 1893 0
-1731 -1748 1894 0
-1731 -1749 1895 0
-1731 -1750 1896 0
-1731 -1751 1897 0
-1731 -1752 1898 0
-1731 -1753 1899 0
-1731 -1754 1900 0
-1731 -1755 1901 0
-1731 -1756 1902 0
-1731 -1757 1903 0
-1732 -1744 1891 0
-1732 -1745 1892 0
-1732 -1746 1893 0
-1732 -1747 1894 0
-1732 -1748 1895 0
-1732 -1749 1896 0
-1732 -1750 1897 0
-1732 -1751 1898 0
-1732 -1752 1899 0
-1732 -1753 1900 0
-1732 -1754 1901 0
-1732 -1755 1902 0
-1732 -1756 1903 0
-1733 -1744 1892 0
-1733 -1745 1893 0
-1733 -1746 1894 0
-1733 -1747 1895 0
-1733 -1748 1896 0
-1733 -1749 1897 0
-1733 -1750 1898 0
-1733 -1751 1899 0
-1733 -1752 1900 0
-1733 -1753 1901 0
-1733 -1754 1902 0
-1733 -1755 1903 0
-1734 -1744 1893 0
-1734 -1745 1894 0
-1734 -1746 1895 0
-1734 -1747 1896 0
-1734 -1748 1897 0
-1734 -1749 1898 0
-1734 -1750 1899 0
-1734 -1751 1900 0
-1734 -1752 1901 0
-1734 -1753 1902 0
-1734 -1754 1903 0
-1735 -1744 1894 0
-1735 -1745 1895 0
-1735 -1746 1896 0
-1735 -1747 1897 0
-1735 -1748 1898 0
-1735 -1749 1899 0
-1735 -1750 1900 0
-1735 -1751 1901 0
-1735 -1752 1902 0
-1735 -1753 1903 0
-1736 -1744 1895 0
-1736 -1745 1896 0
-1736 -1746 1897 0
-1736 -1747 1898 0
-1736 -1748 1899 0
-1736 -1749 1900 0
-1736 -1750 1901 0
-1736 -1751 1902 0
-1736 -1752 1903 0
-1737 -1744 1896 0
-1737 -1745 1897 0
-1737 -1746 1898 0
-1737 -1747 1899 0
-1737 -1748 1900 0
-1737 -1749 1901 0
-1737 -1750 1902 0
-1737 -1751 1903 0
-1738 -1744 1897 0
-1738 -1745 1898 0
-1738 -1746 1899 0
-1738 -1747 1900 0
-1738 -1748 1901 0
-1738 -1749 1902 0
-1738 -1750 1903 0
-1739 -1744 1898 0
-1739 -1745 1899 0
-1739 -1746 1900 0
-1739 -1747 1901 0
-1739 -1748 1902 0
-1739 -1749 1903 0
-1740 -1744 1899 0
-1740 -1745 1900 0
-1740 -1746 1901 0
-1740 -1747 1902 0
-1740 -1748 1903 0
-1741 -1744 1900 0
-1741 -1745 1901 0
-1741 -1746 1902 0
-1741 -1747 1903 0
-1742 -1744 1901 0
-1742 -1745 1902 0
-1742 -1746 1903 0
-1743 -1744 1902 0
-1743 -1745 1903 0
-1778 1904 0
-1779 1905 0
-1780 1906 0
-1781 1907 0
-1782 1908 0
-1783 1909 0
-1784 1910 0
-1785 1911 0
-1786 1912 0
-1787 1913 0
-1788 1914 0
-1789 1915 0
-1790 1916 0
-1791 1917 0
-1792 1918 0
-1793 1919 0
-1794 1920 0
-1795 1921 0
-1760 1904 0
-1761 1905 0
-1762 1906 0
-1763 1907 0
-1764 1908 0
-1765 1909 0
-1766 1910 0
-1767 1911 0
-1768 1912 0
-1769 1913 0
-1770 1914 0
-1771 1915 0
-1772 1916 0
-1773 1917 0
-1774 1918 0
-1775 1919 0
-1776 1920 0
-1777 1921 0
-1760 -1778 1905 0
-1760 -1779 1906 0
-1760 -1780 1907 0
-1760 -1781 1908 0
-1760 -1782 1909 0
-1760 -1783 1910 0
-1760 -1784 1911 0
-1760 -1785 1912 0
-1760 -1786 1913 0
-1760 -1787 1914 0
-1760 -1788 1915 0
-1760 -1789 1916 0
-1760 -1790 1917 0
-1760 -1791 1918 0
-1760 -1792 1919 0
-1760 -1793 1920 0
-1760 -1794 1921 0
-1761 -1778 1906 0
-1761 -1779 1907 0
-1761 -1780 1908 0
-1761 -1781 1909 0
-1761 -1782 1910 0
-1761 -1783 1911 0
-1761 -1784 1912 0
-1761 -1785 1913 0
-1761 -1786 1914 0
-1761 -1787 1915 0
-1761 -1788 1916 0
-1761 -1789 1917 0
-1761 -1790 1918 0
-1761 -1791 1919 0
-1761 -1792 1920 0
-1761 -1793 1921 0
-1762 -1778 1907 0
-1762 -1779 1908 0
-1762 -1780 1909 0
-1762 -1781 1910 0
-1762 -1782 1911 0
-1762 -1783 1912 0
-1762 -1784 1913 0
-1762 -1785 1914 0
-1762 -1786 1915 0
-1762 -1787 1916 0
-1762 -1788 1917 0
-1762 -1789 1918 0
-1762 -1790 1919 0
-1762 -1791 1920 0
-1762 -1792 1921 0
-1763 -1778 1908 0
-1763 -1779 1909 0
-1763 -1780 1910 0
-1763 -1781 1911 0
-1763 -1782 1912 0
-1763 -1783 1913 0
-1763 -1784 1914 0
-1763 -1785 1915 0
-1763 -1786 1916 0
-1763 -1787 1917 0
-1763 -1788 1918 0
-1763 -1789 1919 0
-1763 -1790 1920 0
-1763 -1791 1921 0
-1764 -1778 1909 0
-1764 -1779 1910 0
-1764 -1780 1911 0
-1764 -1781 1912 0
-1764 -1782 1913 0
-1764 -1783 1914 0
-1764 -1784 1915 0
-1764 -1785 1916 0
-1764 -1786 1917 0
-1764 -1787 1918 0
-1764 -1788 1919 0
-1764 -1789 1920 0
-1764 -1790 1921 0
-1765 -1778 1910 0
-1765 -1779 1911 0
-1765 -1780 1912 0
-1765 -1781 1913 0
-1765 -1782 1914 0
-1765 -1783 1915 0
-1765 -1784 1916 0
-1765 -1785 1917 0
-1765 -1786 1918 0
-1765 -1787 1919 0
-1765 -1788 1920 0
-1765 -1789 1921 0
-1766 -1778 1911 0
-1766 -1779 1912 0
-1766 -1780 1913 0
-1766 -1781 1914 0
-1766 -1782 1915 0
-1766 -1783 1916 0
-1766 -1784 1917 0
-1766 -1785 1918 0
-1766 -1786 1919 0
-1766 -1787 1920 0
-1766 -1788 1921 0
-1767 -1778 1912 0
-1767 -1779 1913 0
-1767 -1780 1914 0
-1767 -1781 1915 0
-1767 -1782 1916 0
-1767 -1783 1917 0
-1767 -1784 1918 0
-1767 -1785 1919 0
-1767 -1786 1920 0
-1767 -1787 1921 0
-1768 -1778 1913 0
-1768 -1779 1914 0
-1768 -1780 1915 0
-1768 -1781 1916 0
-1768 -1782 1917 0
-1768 -1783 1918 0
-1768 -1784 1919 0
-1768 -1785 1920 0
-1768 -1786 1921 0
-1769 -1778 1914 0
-1769 -1779 1915 0
-1769 -1780 1916 0
-1769 -1781 1917 0
-1769 -1782 1918 0
-1769 -1783 1919 0
-1769 -1784 1920 0
-1769 -1785 1921 0
-1770 -1778 1915 0
-1770 -1779 1916 0
-1770 -1780 1917 0
-1770 -1781 1918 0
-1770 -1782 1919 0
-1770 -1783 1920 0
-1770 -1784 1921 0
-1771 -1778 1916 0
-1771 -1779 1917 0
-1771 -1780 1918 0
-1771 -1781 1919 0
-1771 -1782 1920 0
-1771 -1783 1921 0
-1772 -1778 1917 0
-1772 -1779 1918 0
-1772 -1780 1919 0
-1772 -1781 1920 0
-1772 -1782 1921 0
-1773 -1778 1918 0
-1773 -1779 1919 0
-1773 -1780 1920 0
-1773 -1781 1921 0
-1774 -1778 1919 0
-1774 -1779 1920 0
-1774 -1780 1921 0
-1775 -1778 1920 0
-1775 -1779 1921 0
-1776 -1778 1921 0
-1814 1922 0
-1815 1923 0
-1816 1924 0
-1817 1925 0
-1818 1926 0
-1819 1927 0
-1820 1928 0
-1821 1929 0
-1822 1930 0
-1823 1931 0
-1824 1932 0
-1825 1933 0
-1826 1934 0
-1827 1935 0
-1828 1936 0
-1829 1937 0
-1830 1938 0
-1831 1939 0
-1796 1922 0
-1797 1923 0
-1798 1924 0
-1799 1925 0
-1800 1926 0
-1801 1927 0
-1802 1928 0
-1803 1929 0
-1804 1930 0
-1805 1931 0
-1806 1932 0
-1807 1933 0
-1808 1934 0
-1809 1935 0
-1810 1936 0
-1811 1937 0
-1812 1938 0
-1813 1939 0
-1796 -1814 1923 0
-1796 -1815 1924 0
-1796 -1816 1925 0
-1796 -1817 1926 0
-1796 -1818 1927 0
-1796 -1819 1928 0
-1796 -1820 1929 0
-1796 -1821 1930 0
-1796 -1822 1931 0
-1796 -1823 1932 0
-1796 -1824 1933 0
-1796 -1825 1934 0
-1796 -1826 1935 0
-1796 -1827 1936 0
-1796 -1828 1937 0
-1796 -1829 1938 0
-1796 -1830 1939 0
-1797 -1814 1924 0
-1797 -1815 1925 0
-1797 -1816 1926 0
-1797 -1817 1927 0
-1797 -1818 1928 0
-1797 -1819 1929 0
-1797 -1820 1930 0
-1797 -1821 1931 0
-1797 -1822 1932 0
-1797 -1823 1933 0
-1797 -1824 1934 0
-1797 -1825 1935 0
-1797 -1826 1936 0
-1797 -1827 1937 0
-1797 -1828 1938 0
-1797 -1829 1939 0
-1798 -1814 1925 0
-1798 -1815 1926 0
-1798 -1816 1927 0
-1798 -1817 1928 0
-1798 -1818 1929 0
-1798 -1819 1930 0
-1798 -1820 1931 0
-1798 -1821 1932 0
-1798 -1822 1933 0
-1798 -1823 1934 0
-1798 -1824 1935 0
-1798 -1825 1936 0
-1798 -1826 1937 0
-1798 -1827 1938 0
-1798 -1828 1939 0
-1799 -1814 1926 0
-1799 -1815 1927 0
-1799 -1816 1928 0
-1799 -1817 1929 0
-1799 -1818 1930 0
-1799 -1819 1931 0
-1799 -1820 1932 0
-1799 -1821 1933 0
-1799 -1822 1934 0
-1799 -1823 1935 0
-1799 -1824 1936 0
-1799 -1825 1937 0
-1799 -1826 1938 0
-1799 -1827 1939 0
-1800 -1814 1927 0
-1800 -1815 1928 0
-1800 -1816 1929 0
-1800 -1817 1930 0
-1800 -1818 1931 0
-1800 -1819 1932 0
-1800 -1820 1933 0
-1800 -1821 1934 0
-1800 -1822 1935 0
-1800 -1823 1936 0
-1800 -1824 1937 0
-1800 -1825 1938 0
-1800 -1826 1939 0
-1801 -1814 1928 0
-1801 -1815 1929 0
-1801 -1816 1930 0
-1801 -1817 1931 0
-1801 -1818 1932 0
-1801 -1819 1933 0
-1801 -1820 1934 0
-1801 -1821 1935 0
-1801 -1822 1936 0
-1801 -1823 1937 0
-1801 -1824 1938 0
-1801 -1825 1939 0
-1802 -1814 1929 0
-1802 -1815 1930 0
-1802 -1816 1931 0
-1802 -1817 1932 0
-1802 -1818 1933 0
-1802 -1819 1934 0
-1802 -1820 1935 0
-1802 -1821 1936 0
-1802 -1822 1937 0
-1802 -1823 1938 0
-1802 -1824 1939 0
-1803 -1814 1930 0
-1803 -1815 1931 0
-1803 -1816 1932 0
-1803 -1817 1933 0
-1803 -1818 1934 0
-1803 -1819 1935 0
-1803 -1820 1936 0
-1803 -1821 1937 0
-1803 -1822 1938 0
-1803 -1823 1939 0
-1804 -1814 1931 0
-1804 -1815 1932 0
-1804 -1816 1933 0
-1804 -1817 1934 0
-1804 -1818 1935 0
-1804 -1819 1936 0
-1804 -1820 1937 0
-1804 -1821 1938 0
-1804 -1822 1939 0
-1805 -1814 1932 0
-1805 -1815 1933 0
-1805 -1816 1934 0
-1805 -1817 1935 0
-1805 -1818 1936 0
-1805 -1819 1937 0
-1805 -1820 1938 0
-1805 -1821 1939 0
-1806 -1814 1933 0
-1806 -1815 1934 0
-1806 -1816 1935 0
-1806 -1817 1936 0
-1806 -1818 1937 0
-1806 -1819 1938 0
-1806 -1820 1939 0
-1807 -1814 1934 0
-1807 -1815 1935 0
-1807 -1816 1936 0
-1807 -1817 1937 0
-1807 -1818 1938 0
-1807 -1819 1939 0
-1808 -1814 1935 0
-1808 -1815 1936 0
-1808 -1816 1937 0
-1808 -1817 1938 0
-1808 -1818 1939 0
-1809 -1814 1936 0
-1809 -1815 1937 0
-1809 -1816 1938 0
-1809 -1817 1939 0
-1810 -1814 1937 0
-1810 -1815 1938 0
-1810 -1816 1939 0
-1811 -1814 1938 0
-1811 -1815 1939 0
-1812 -1814 1939 0
-1850 1940 0
-1851 1941 0
-1852 1942 0
-1853 1943 0
-1854 1944 0
-1855 1945 0
-1856 1946 0
-1857 1947 0
-1858 1948 0
-1859 1949 0
-1860 1950 0
-1861 1951 0
-1862 1952 0
-1863 1953 0
-1864 1954 0
-1865 1955 0
-1866 1956 0
-1867 1957 0
-1832 1940 0
-1833 1941 0
-1834 1942 0
-1835 1943 0
-1836 1944 0
-1837 1945 0
-1838 1946 0
-1839 1947 0
-1840 1948 0
-1841 1949 0
-1842 1950 0
-1843 1951 0
-1844 1952 0
-1845 1953 0
-1846 1954 0
-1847 1955 0
-1848 1956 0
-1849 1957 0
-1832 -1850 1941 0
-1832 -1851 1942 0
-1832 -1852 1943 0
-1832 -1853 1944 0
-1832 -1854 1945 0
-1832 -1855 1946 0
-1832 -1856 1947 0
-1832 -1857 1948 0
-1832 -1858 1949 0
-1832 -1859 1950 0
-1832 -1860 1951 0
-1832 -1861 1952 0
-1832 -1862 1953 0
-1832 -1863 1954 0
-1832 -1864 1955 0
-1832 -1865 1956 0
-1832 -1866 1957 0
-1833 -1850 1942 0
-1833 -1851 1943 0
-1833 -1852 1944 0
-1833 -1853 1945 0
-1833 -1854 1946 0
-1833 -1855 1947 0
-1833 -1856 1948 0
-1833 -1857 1949 0
-1833 -1858 1950 0
-1833 -1859 1951 0
-1833 -1860 1952 0
-1833 -1861 1953 0
-1833 -1862 1954 0
-1833 -1863 1955 0
-1833 -1864 1956 0
-1833 -1865 1957 0
-1834 -1850 1943 0
-1834 -1851 1944 0
-1834 -1852 1945 0
-1834 -1853 1946 0
-1834 -1854 1947 0
-1834 -1855 1948 0
-1834 -1856 1949 0
-1834 -1857 1950 0
-1834 -1858 1951 0
-1834 -1859 1952 0
-1834 -1860 1953 0
-1834 -1861 1954 0
-1834 -1862 1955 0
-1834 -1863 1956 0
-1834 -1864 1957 0
-1835 -1850 1944 0
-1835 -1851 1945 0
-1835 -1852 1946 0
-1835 -1853 1947 0
-1835 -1854 1948 0
-1835 -1855 1949 0
-1835 -1856 1950 0
-1835 -1857 1951 0
-1835 -1858 1952 0
-1835 -1859 1953 0
-1835 -1860 1954 0
-1835 -1861 1955 0
-1835 -1862 1956 0
-1835 -1863 1957 0
-1836 -1850 1945 0
-1836 -1851 1946 0
-1836 -1852 1947 0
-1836 -1853 1948 0
-1836 -1854 1949 0
-1836 -1855 1950 0
-1836 -1856 1951 0
-1836 -1857 1952 0
-1836 -1858 1953 0
-1836 -1859 1954 0
-1836 -1860 1955 0
-1836 -1861 1956 0
-1836 -1862 1957 0
-1837 -1850 1946 0
-1837 -1851 1947 0
-1837 -1852 1948 0
-1837 -1853 1949 0
-1837 -1854 1950 0
-1837 -1855 1951 0
-1837 -1856 1952 0
-1837 -1857 1953 0
-1837 -1858 1954 0
-1837 -1859 1955 0
-1837 -1860 1956 0
-1837 -1861 1957 0
-1838 -1850 1947 0
-1838 -1851 1948 0
-1838 -1852 1949 0
-1838 -1853 1950 0
-1838 -1854 1951 0
-1838 -1855 1952 0
-1838 -1856 1953 0
-1838 -1857 1954 0
-1838 -1858 1955 0
-1838 -1859 1956 0
-1838 -1860 1957 0
-1839 -1850 1948 0
-1839 -1851 1949 0
-1839 -1852 1950 0
-1839 -1853 1951 0
-1839 -1854 1952 0
-1839 -1855 1953 0
-1839 -1856 1954 0
-1839 -1857 1955 0
-1839 -1858 1956 0
-1839 -1859 1957 0
-1840 -1850 1949 0
-1840 -1851 1950 0
-1840 -1852 1951 0
-1840 -1853 1952 0
-1840 -1854 1953 0
-1840 -1855 1954 0
-1840 -1856 1955 0
-1840 -1857 1956 0
-1840 -1858 1957 0
-1841 -1850 1950 0
-1841 -1851 1951 0
-1841 -1852 1952 0
-1841 -1853 1953 0
-1841 -1854 1954 0
-1841 -1855 1955 0
-1841 -1856 1956 0
-1841 -1857 1957 0
-1842 -1850 1951 0
-1842 -1851 1952 0
-1842 -1852 1953 0
-1842 -1853 1954 0
-1842 -1854 1955 0
-1842 -1855 1956 0
-1842 -1856 1957 0
-1843 -1850 1952 0
-1843 -1851 1953 0
-1843 -1852 1954 0
-1843 -1853 1955 0
-1843 -1854 1956 0
-1843 -1855 1957 0
-1844 -1850 1953 0
-1844 -1851 1954 0
-1844 -1852 1955 0
-1844 -1853 1956 0
-1844 -1854 1957 0
-1845 -1850 1954 0
-1845 -1851 1955 0
-1845 -1852 1956 0
-1845 -1853 1957 0
-1846 -1850 1955 0
-1846 -1851 1956 0
-1846 -1852 1957 0
-1847 -1850 1956 0
-1847 -1851 1957 0
-1848 -1850 1957 0
-1886 1958 0
-1887 1959 0
-1888 1960 0
-1889 1961 0
-1890 1962 0
-1891 1963 0
-1892 1964 0
-1893 1965 0
-1894 1966 0
-1895 1967 0
-1896 1968 0
-1897 1969 0
-1898 1970 0
-1899 1971 0
-1900 1972 0
-1901 1973 0
-1902 1974 0
-1903 1975 0
-1868 1958 0
-1869 1959 0
-1870 1960 0
-1871 1961 0
-1872 1962 0
-1873 1963 0
-1874 1964 0
-1875 1965 0
-1876 1966 0
-1877 1967 0
-1878 1968 0
-1879 1969 0
-1880 1970 0
-1881 1971 0
-1882 1972 0
-1883 1973 0
-1884 1974 0
-1885 1975 0
-1868 -1886 1959 0
-1868 -1887 1960 0
-1868 -1888 1961 0
-1868 -1889 1962 0
-1868 -1890 1963 0
-1868 -1891 1964 0
-1868 -1892 1965 0
-1868 -1893 1966 0
-1868 -1894 1967 0
-1868 -1895 1968 0
-1868 -1896 1969 0
-1868 -1897 1970 0
-1868 -1898 1971 0
-1868 -1899 1972 0
-1868 -1900 1973 0
-1868 -1901 1974 0
-1868 -1902 1975 0
-1869 -1886 1960 0
-1869 -1887 1961 0
-1869 -1888 1962 0
-1869 -1889 1963 0
-1869 -1890 1964 0
-1869 -1891 1965 0
-1869 -1892 1966 0
-1869 -1893 1967 0
-1869 -1894 1968 0
-1869 -1895 1969 0
-1869 -1896 1970 0
-1869 -1897 1971 0
-1869 -1898 1972 0
-1869 -1899 1973 0
-1869 -1900 1974 0
-1869 -1901 1975 0
-1870 -1886 1961 0
-1870 -1887 1962 0
-1870 -1888 1963 0
-1870 -1889 1964 0
-1870 -1890 1965 0
-1870 -1891 1966 0
-1870 -1892 1967 0
-1870 -1893 1968 0
-1870 -1894 1969 0
-1870 -1895 1970 0
-1870 -1896 1971 0
-1870 -1897 1972 0
-1870 -1898 1973 0
-1870 -1899 1974 0
-1870 -1900 1975 0
-1871 -1886 1962 0
-1871 -1887 1963 0
-1871 -1888 1964 0
-1871 -1889 1965 0
-1871 -1890 1966 0
-1871 -1891 1967 0
-1871 -1892 1968 0
-1871 -1893 1969 0
-1871 -1894 1970 0
-1871 -1895 1971 0
-1871 -1896 1972 0
-1871 -1897 1973 0
-1871 -1898 1974 0
-1871 -1899 1975 0
-1872 -1886 1963 0
-1872 -1887 1964 0
-1872 -1888 1965 0
-1872 -1889 1966 0
-1872 -1890 1967 0
-1872 -1891 1968 0
-1872 -1892 1969 0
-1872 -1893 1970 0
-1872 -1894 1971 0
-1872 -1895 1972 0
-1872 -1896 1973 0
-1872 -1897 1974 0
-1872 -1898 1975 0
-1873 -1886 1964 0
-1873 -1887 1965 0
-1873 -1888 1966 0
-1873 -1889 1967 0
-1873 -1890 1968 0
-1873 -1891 1969 0
-1873 -1892 1970 0
-1873 -1893 1971 0
-1873 -1894 1972 0
-1873 -1895 1973 0
-1873 -1896 1974 0
-1873 -1897 1975 0
-1874 -1886 1965 0
-1874 -1887 1966 0
-1874 -1888 1967 0
-1874 -1889 1968 0
-1874 -1890 1969 0
-1874 -1891 1970 0
-1874 -1892 1971 0
-1874 -1893 1972 0
-1874 -1894 1973 0
-1874 -1895 1974 0
-1874 -1896 1975 0
-1875 -1886 1966 0
-1875 -1887 1967 0
-1875 -1888 1968 0
-1875 -1889 1969 0
-1875 -1890 1970 0
-1875 -1891 1971 0
-1875 -1892 1972 0
-1875 -1893 1973 0
-1875 -1894 1974 0
-1875 -1895 1975 0
-1876 -1886 1967 0
-1876 -1887 1968 0
-1876 -1888 1969 0
-1876 -1889 1970 0
-1876 -1890 1971 0
-1876 -1891 1972 0
-1876 -1892 1973 0
-1876 -1893 1974 0
-1876 -1894 1975 0
-1877 -1886 1968 0
-1877 -1887 1969 0
-1877 -1888 1970 0
-1877 -1889 1971 0
-1877 -1890 1972 0
-1877 -1891 1973 0
-1877 -1892 1974 0
-1877 -1893 1975 0
-1878 -1886 1969 0
-1878 -1887 1970 0
-1878 -1888 1971 0
-1878 -1889 1972 0
-1878 -1890 1973 0
-1878 -1891 1974 0
-1878 -1892 1975 0
-1879 -1886 1970 0
-1879 -1887 1971 0
-1879 -1888 1972 0
-1879 -1889 1973 0
-1879 -1890 1974 0
-1879 -1891 1975 0
-1880 -1886 1971 0
-1880 -1887 1972 0
-1880 -1888 1973 0
-1880 -1889 1974 0
-1880 -1890 1975 0
-1881 -1886 1972 0
-1881 -1887 1973 0
-1881 -1888 1974 0
-1881 -1889 1975 0
-1882 -1886 1973 0
-1882 -1887 1974 0
-1882 -1888 1975 0
-1883 -1886 1974 0
-1883 -1887 1975 0
-1884 -1886 1975 0
-1922 1976 0
-1923 1977 0
-1924 1978 0
-1925 1979 0
-1926 1980 0
-1927 1981 0
-1928 1982 0
-1929 1983 0
-1930 1984 0
-1931 1985 0
-1932 1986 0
-1933 1987 0
-1934 1988 0
-1935 1989 0
-1936 1990 0
-1937 1991 0
-1938 1992 0
-1939 1993 0
-1904 1976 0
-1905 1977 0
-1906 1978 0
-1907 1979 0
-1908 1980 0
-1909 1981 0
-1910 1982 0
-1911 1983 0
-1912 1984 0
-1913 1985 0
-1914 1986 0
-1915 1987 0
-1916 1988 0
-1917 1989 0
-1918 1990 0
-1919 1991 0
-1920 1992 0
-1921 1993 0
-1904 -1922 1977 0
-1904 -1923 1978 0
-1904 -1924 1979 0
-1904 -1925 1980 0
-1904 -1926 1981 0
-1904 -1927 1982 0
-1904 -1928 1983 0
-1904 -1929 1984 0
-1904 -1930 1985 0
-1904 -1931 1986 0
-1904 -1932 1987 0
-1904 -1933 1988 0
-1904 -1934 1989 0
-1904 -1935 1990 0
-1904 -1936 1991 0
-1904 -1937 1992 0
-1904 -1938 1993 0
-1905 -1922 1978 0
-1905 -1923 1979 0
-1905 -1924 1980 0
-1905 -1925 1981 0
-1905 -1926 1982 0
-1905 -1927 1983 0
-1905 -1928 1984 0
-1905 -1929 1985 0
-1905 -1930 1986 0
-1905 -1931 1987 0
-1905 -1932 1988 0
-1905 -1933 1989 0
-1905 -1934 1990 0
-1905 -1935 1991 0
-1905 -1936 1992 0
-1905 -1937 1993 0
-1906 -1922 1979 0
-1906 -1923 1980 0
-1906 -1924 1981 0
-1906 -1925 1982 0
-1906 -1926 1983 0
-1906 -1927 1984 0
-1906 -1928 1985 0
-1906 -1929 1986 0
-1906 -1930 1987 0
-1906 -1931 1988 0
-1906 -1932 1989 0
-1906 -1933 1990 0
-1906 -1934 1991 0
-1906 -1935 1992 0
-1906 -1936 1993 0
-1907 -1922 1980 0
-1907 -1923 1981 0
-1907 -1924 1982 0
-1907 -1925 1983 0
-1907 -1926 1984 0
-1907 -1927 1985 0
-1907 -1928 1986 0
-1907 -1929 1987 0
-1907 -1930 1988 0
-1907 -1931 1989 0
-1907 -1932 1990 0
-1907 -1933 1991 0
-1907 -1934 1992 0
-1907 -1935 1993 0
-1908 -1922 1981 0
-1908 -1923 1982 0
-1908 -1924 1983 0
-1908 -1925 1984 0
-1908 -1926 1985 0
-1908 -1927 1986 0
-1908 -1928 1987 0
-1908 -1929 1988 0
-1908 -1930 1989 0
-1908 -1931 1990 0
-1908 -1932 1991 0
-1908 -1933 1992 0
-1908 -1934 1993 0
-1909 -1922 1982 0
-1909 -1923 1983 0
-1909 -1924 1984 0
-1909 -1925 1985 0
-1909 -1926 1986 0
-1909 -1927 1987 0
-1909 -1928 1988 0
-1909 -1929 1989 0
-1909 -1930 1990 0
-1909 -1931 1991 0
-1909 -1932 1992 0
-1909 -1933 1993 0
-1910 -1922 1983 0
-1910 -1923 1984 0
-1910 -1924 1985 0
-1910 -1925 1986 0
-1910 -1926 1987 0
-1910 -1927 1988 0
-1910 -1928 1989 0
-1910 -1929 1990 0
-1910 -1930 1991 0
-1910 -1931 1992 0
-1910 -1932 1993 0
-1911 -1922 1984 0
-1911 -1923 1985 0
-1911 -1924 1986 0
-1911 -1925 1987 0
-1911 -1926 1988 0
-1911 -1927 1989 0
-1911 -1928 1990 0
-1911 -1929 1991 0
-1911 -1930 1992 0
-1911 -1931 1993 0
-1912 -1922 1985 0
-1912 -1923 1986 0
-1912 -1924 1987 0
-1912 -1925 1988 0
-1912 -1926 1989 0
-1912 -1927 1990 0
-1912 -1928 1991 0
-1912 -1929 1992 0
-1912 -1930 1993 0
-1913 -1922 1986 0
-1913 -1923 1987 0
-1913 -1924 1988 0
-1913 -1925 1989 0
-1913 -1926 1990 0
-1913 -1927 1991 0
-1913 -1928 1992 0
-1913 -1929 1993 0
-1914 -1922 1987 0
-1914 -1923 1988 0
-1914 -1924 1989 0
-1914 -1925 1990 0
-1914 -1926 1991 0
-1914 -1927 1992 0
-1914 -1928 1993 0
-1915 -1922 1988 0
-1915 -1923 1989 0
-1915 -1924 1990 0
-1915 -1925 1991 0
-1915 -1926 1992 0
-1915 -1927 1993 0
-1916 -1922 1989 0
-1916 -1923 1990 0
-1916 -1924 1991 0
-1916 -1925 1992 0
-1916 -1926 1993 0
-1917 -1922 1990 0
-1917 -1923 1991 0
-1917 -1924 1992 0
-1917 -1925 1993 0
-1918 -1922 1991 0
-1918 -1923 1992 0
-1918 -1924 1993 0
-1919 -1922 1992 0
-1919 -1923 1993 0
-1920 -1922 1993 0
-1958 1994 0
-1959 1995 0
-1960 1996 0
-1961 1997 0
-1962 1998 0
-1963 1999 0
-1964 2000 0
-1965 2001 0
-1966 2002 0
-1967 2003 0
-1968 2004 0
-1969 2005 0
-1970 2006 0
-1971 2007 0
-1972 2008 0
-1973 2009 0
-1974 2010 0
-1975 2011 0
-1940 1994 0
-1941 1995 0
-1942 1996 0
-1943 1997 0
-1944 1998 0
-1945 1999 0
-1946 2000 0
-1947 2001 0
-1948 2002 0
-1949 2003 0
-1950 2004 0
-1951 2005 0
-1952 2006 0
-1953 2007 0
-1954 2008 0
-1955 2009 0
-1956 2010 0
-1957 2011 0
-1940 -1958 1995 0
-1940 -1959 1996 0
-1940 -1960 1997 0
-1940 -1961 1998 0
-1940 -1962 1999 0
-1940 -1963 2000 0
-1940 -1964 2001 0
-1940 -1965 2002 0
-1940 -1966 2003 0
-1940 -1967 2004 0
-1940 -1968 2005 0
-1940 -1969 2006 0
-1940 -1970 2007 0
-1940 -1971 2008 0
-1940 -1972 2009 0
-1940 -1973 2010 0
-1940 -1974 2011 0
-1941 -1958 1996 0
-1941 -1959 1997 0
-1941 -1960 1998 0
-1941 -1961 1999 0
-1941 -1962 2000 0
-1941 -1963 2001 0
-1941 -1964 2002 0
-1941 -1965 2003 0
-1941 -1966 2004 0
-1941 -1967 2005 0
-1941 -1968 2006 0
-1941 -1969 2007 0
-1941 -1970 2008 0
-1941 -1971 2009 0
-1941 -1972 2010 0
-1941 -1973 2011 0
-1942 -1958 1997 0
-1942 -1959 1998 0
-1942 -1960 1999 0
-1942 -1961 2000 0
-1942 -1962 2001 0
-1942 -1963 2002 0
-1942 -1964 2003 0
-1942 -1965 2004 0
-1942 -1966 2005 0
-1942 -1967 2006 0
-1942 -1968 2007 0
-1942 -1969 2008 0
-1942 -1970 2009 0
-1942 -1971 2010 0
-1942 -1972 2011 0
-1943 -1958 1998 0
-1943 -1959 1999 0
-1943 -1960 2000 0
-1943 -1961 2001 0
-1943 -1962 2002 0
-1943 -1963 2003 0
-1943 -1964 2004 0
-1943 -1965 2005 0
-1943 -1966 2006 0
-1943 -1967 2007 0
-1943 -1968 2008 0
-1943 -1969 2009 0
-1943 -1970 2010 0
-1943 -1971 2011 0
-1944 -1958 1999 0
-1944 -1959 2000 0
-1944 -1960 2001 0
-1944 -1961 2002 0
-1944 -1962 2003 0
-1944 -1963 2004 0
-1944 -1964 2005 0
-1944 -1965 2006 0
-1944 -1966 2007 0
-1944 -1967 2008 0
-1944 -1968 2009 0
-1944 -1969 2010 0
-1944 -1970 2011 0
-1945 -1958 2000 0
-1945 -1959 2001 0
-1945 -1960 2002 0
-1945 -1961 2003 0
-1945 -1962 2004 0
-1945 -1963 2005 0
-1945 -1964 2006 0
-1945 -1965 2007 0
-1945 -1966 2008 0
-1945 -1967 2009 0
-1945 -1968 2010 0
-1945 -1969 2011 0
-1946 -1958 2001 0
-1946 -1959 2002 0
-1946 -1960 2003 0
-1946 -1961 2004 0
-1946 -1962 2005 0
-1946 -1963 2006 0
-1946 -1964 2007 0
-1946 -1965 2008 0
-1946 -1966 2009 0
-1946 -1967 2010 0
-1946 -1968 2011 0
-1947 -1958 2002 0
-1947 -1959 2003 0
-1947 -1960 2004 0
-1947 -1961 2005 0
-1947 -1962 2006 0
-1947 -1963 2007 0
-1947 -1964 2008 0
-1947 -1965 2009 0
-1947 -1966 2010 0
-1947 -1967 2011 0
-1948 -1958 2003 0
-1948 -1959 2004 0
-1948 -1960 2005 0
-1948 -1961 2006 0
-1948 -1962 2007 0
-1948 -1963 2008 0
-1948 -1964 2009 0
-1948 -1965 2010 0
-1948 -1966 2011 0
-1949 -1958 2004 0
-1949 -1959 2005 0
-1949 -1960 2006 0
-1949 -1961 2007 0
-1949 -1962 2008 0
-1949 -1963 2009 0
-1949 -1964 2010 0
-1949 -1965 2011 0
-1950 -1958 2005 0
-1950 -1959 2006 0
-1950 -1960 2007 0
-1950 -1961 2008 0
-1950 -1962 2009 0
-1950 -1963 2010 0
-1950 -1964 2011 0
-1951 -1958 2006 0
-1951 -1959 2007 0
-1951 -1960 2008 0
-1951 -1961 2009 0
-1951 -1962 2010 0
-1951 -1963 2011 0
-1952 -1958 2007 0
-1952 -1959 2008 0
-1952 -1960 2009 0
-1952 -1961 2010 0
-1952 -1962 2011 0
-1953 -1958 2008 0
-1953 -1959 2009 0
-1953 -1960 2010 0
-1953 -1961 2011 0
-1954 -1958 2009 0
-1954 -1959 2010 0
-1954 -1960 2011 0
-1955 -1958 2010 0
-1955 -1959 2011 0
-1956 -1958 2011 0
-1994 2012 0
-1995 2013 0
-1996 2014 0
-1997 2015 0
-1998 2016 0
-1999 2017 0
-2000 2018 0
-2001 2019 0
-2002 2020 0
-2003 2021 0
-2004 2022 0
-2005 2023 0
-2006 2024 0
-2007 2025 0
-2008 2026 0
-2009 2027 0
-2010 2028 0
-2011 2029 0
-1976 2012 0
-1977 2013 0
-1978 2014 0
-1979 2015 0
-1980 2016 0
-1981 2017 0
-1982 2018 0
-1983 2019 0
-1984 2020 0
-1985 2021 0
-1986 2022 0
-1987 2023 0
-1988 2024 0
-1989 2025 0
-1990 2026 0
-1991 2027 0
-1992 2028 0
-1993 2029 0
-1976 -1994 2013 0
-1976 -1995 2014 0
-1976 -1996 2015 0
-1976 -1997 2016 0
-1976 -1998 2017 0
-1976 -1999 2018 0
-1976 -2000 2019 0
-1976 -2001 2020 0
-1976 -2002 2021 0
-1976 -2003 2022 0
-1976 -2004 2023 0
-1976 -2005 2024 0
-1976 -2006 2025 0
-1976 -2007 2026 0
-1976 -2008 2027 0
-1976 -2009 2028 0
-1976 -2010 2029 0
-1977 -1994 2014 0
-1977 -1995 2015 0
-1977 -1996 2016 0
-1977 -1997 2017 0
-1977 -1998 2018 0
-1977 -1999 2019 0
-1977 -2000 2020 0
-1977 -2001 2021 0
-1977 -2002 2022 0
-1977 -2003 2023 0
-1977 -2004 2024 0
-1977 -2005 2025 0
-1977 -2006 2026 0
-1977 -2007 2027 0
-1977 -2008 2028 0
-1977 -2009 2029 0
-1978 -1994 2015 0
-1978 -1995 2016 0
-1978 -1996 2017 0
-1978 -1997 2018 0
-1978 -1998 2019 0
-1978 -1999 2020 0
-1978 -2000 2021 0
-1978 -2001 2022 0
-1978 -2002 2023 0
-1978 -2003 2024 0
-1978 -2004 2025 0
-1978 -2005 2026 0
-1978 -2006 2027 0
-1978 -2007 2028 0
-1978 -2008 2029 0
-1979 -1994 2016 0
-1979 -1995 2017 0
-1979 -1996 2018 0
-1979 -1997 2019 0
-1979 -1998 2020 0
-1979 -1999 2021 0
-1979 -2000 2022 0
-1979 -2001 2023 0
-1979 -2002 2024 0
-1979 -2003 2025 0
-1979 -2004 2026 0
-1979 -2005 2027 0
-1979 -2006 2028 0
-1979 -2007 2029 0
-1980 -1994 2017 0
-1980 -1995 2018 0
-1980 -1996 2019 0
-1980 -1997 2020 0
-1980 -1998 2021 0
-1980 -1999 2022 0
-1980 -2000 2023 0
-1980 -2001 2024 0
-1980 -2002 2025 0
-1980 -2003 2026 0
-1980 -2004 2027 0
-1980 -2005 2028 0
-1980 -2006 2029 0
-1981 -1994 2018 0
-1981 -1995 2019 0
-1981 -1996 2020 0
-1981 -1997 2021 0
-1981 -1998 2022 0
-1981 -1999 2023 0
-1981 -2000 2024 0
-1981 -2001 2025 0
-1981 -2002 2026 0
-1981 -2003 2027 0
-1981 -2004 2028 0
-1981 -2005 2029 0
-1982 -1994 2019 0
-1982 -1995 2020 0
-1982 -1996 2021 0
-1982 -1997 2022 0
-1982 -1998 2023 0
-1982 -1999 2024 0
-1982 -2000 2025 0
-1982 -2001 2026 0
-1982 -2002 2027 0
-1982 -2003 2028 0
-1982 -2004 2029 0
-1983 -1994 2020 0
-1983 -1995 2021 0
-1983 -1996 2022 0
-1983 -1997 2023 0
-1983 -1998 2024 0
-1983 -1999 2025 0
-1983 -2000 2026 0
-1983 -2001 2027 0
-1983 -2002 2028 0
-1983 -2003 2029 0
-1984 -1994 2021 0
-1984 -1995 2022 0
-1984 -1996 2023 0
-1984 -1997 2024 0
-1984 -1998 2025 0
-1984 -1999 2026 0
-1984 -2000 2027 0
-1984 -2001 2028 0
-1984 -2002 2029 0
-1985 -1994 2022 0
-1985 -1995 2023 0
-1985 -1996 2024 0
-1985 -1997 2025 0
-1985 -1998 2026 0
-1985 -1999 2027 0
-1985 -2000 2028 0
-1985 -2001 2029 0
-1986 -1994 2023 0
-1986 -1995 2024 0
-1986 -1996 2025 0
-1986 -1997 2026 0
-1986 -1998 2027 0
-1986 -1999 2028 0
-1986 -2000 2029 0
-1987 -1994 2024 0
-1987 -1995 2025 0
-1987 -1996 2026 0
-1987 -1997 2027 0
-1987 -1998 2028 0
-1987 -1999 2029 0
-1988 -1994 2025 0
-1988 -1995 2026 0
-1988 -1996 2027 0
-1988 -1997 2028 0
-1988 -1998 2029 0
-1989 -1994 2026 0
-1989 -1995 2027 0
-1989 -1996 2028 0
-1989 -1997 2029 0
-1990 -1994 2027 0
-1990 -1995 2028 0
-1990 -1996 2029 0
-1991 -1994 2028 0
-1991 -1995 2029 0
-1992 -1994 2029 0
-2030 20 0
-2030 515 0
-2031 52 0
-2031 653 0
-2032 57 0
-2032 612 0
-2033 79 0
-2033 637 0
-2034 100 0
-2034 669 0
-2035 140 0
-2035 598 0
-2036 154 0
-2036 632 0
-2037 154 0
-2037 634 0
-2038 155 0
-2038 633 0
-2039 189 0
-2039 589 0
-2040 206 0
-2040 508 0
-2041 218 0
-2041 535 0
-2042 268 0
-2042 654 0
-2043 352 0
-2043 635 0
-2044 362 0
-2044 540 0
-2045 383 0
-2045 720 0
-2046 414 0
-2046 687 0
-2047 445 0
-2047 690 0
-2048 465 0
-2048 689 0
-2049 471 0
-2049 734 0
-2050 533 0
-2050 604 0
-2051 539 0
-2051 629 0
-2052 576 0
-2052 583 0
-2053 611 0
-2053 655 0
-2054 688 0
-2054 712 0
2030 2031 2032 2033 2034 2035 2036 2037 2038 2039 2040 2041 2042 2043 2044 2045 2046 2047 2048 2049 2050 2051 2052 2053 2054 0
-2055 181 0
-2055 506 0
-2056 378 0
-2056 701 0
-2057 407 0
-2057 717 0
-2058 410 0
-2058 696 0
-2059 420 0
-2059 683 0
-2060 429 0
-2060 713 0
-2061 435 0
-2061 697 0
-2062 439 0
-2062 736 0
-2063 442 0
-2063 732 0
-2064 444 0
-2064 681 0
-2065 463 0
-2065 692 0
-2066 481 0
-2066 685 0
-2067 490 0
-2067 706 0
-2068 680 0
-2068 693 0
-2069 712 0
-2069 740 0
2055 2056 2057 2058 2059 2060 2061 2062 2063 2064 2065 2066 2067 2068 2069 0
696 717 713 506 692 685 706 701 697 681 740 693 736 683 0
-2070 435 0
-2070 703 0
-2071 435 0
-2071 704 0
-2072 449 0
-2072 698 0
-2073 453 0
-2073 743 0
-2074 456 0
-2074 700 0
2070 2071 2072 2073 2074 0
-2075 58 0
-2075 506 0
-2076 125 0
-2076 529 0
-2077 278 0
-2077 538 0
-2078 281 0
-2078 538 0
-2079 288 0
-2079 586 0
-2080 323 0
-2080 595 0
-2081 452 0
-2081 733 0
-2082 536 0
-2082 644 0
-2083 694 0
-2083 743 0
-2084 695 0
-2084 700 0
2050 2075 2076 2077 2078 2079 2080 2081 2082 2083 2084 0
2050 2075 2076 2077 2078 2079 2080 2081 2082 0
694 0
-2085 378 0
-2085 702 0
-2086 439 0
-2086 690 0
-2087 474 0
-2087 721 0
2085 2086 2087 0
-2088 19 0
-2088 533 0
-2089 21 0
-2089 578 0
-2090 76 0
-2090 571 0
-2091 235 0
-2091 542 0
-2092 261 0
-2092 590 0
-2093 272 0
-2093 555 0
-2094 272 0
-2094 576 0
-2095 294 0
-2095 569 0
-2096 302 0
-2096 561 0
-2097 357 0
-2097 561 0
-2098 580 0
-2098 593 0
2088 2089 2090 2091 2092 2093 2094 2095 2096 2097 2098 0
555 576 571 569 561 0
-2099 59 0
-2099 577 0
-2100 185 0
-2100 498 0
-2101 376 0
-2101 713 0
-2102 380 0
-2102 710 0
-2103 380 0
-2103 740 0
-2104 387 0
-2104 682 0
-2105 387 0
-2105 709 0
-2106 459 0
-2106 696 0
-2107 465 0
-2107 712 0
-2108 470 0
-2108 711 0
-2109 487 0
-2109 504 0
2064 2099 2100 2101 2102 2103 2104 2105 2106 2107 2108 2109 0
-2110 22 0
-2110 640 0
-2111 33 0
-2111 503 0
-2112 68 0
-2112 608 0
-2113 129 0
-2113 585 0
-2114 138 0
-2114 618 0
-2115 153 0
-2115 675 0
-2116 255 0
-2116 655 0
-2117 509 0
-2117 576 0
2032 2041 2051 2110 2111 2112 2113 2114 2115 2116 2117 0
2032 2041 2051 2110 2111 2112 2113 2114 2115 2116 0
539 655 640 586 618 0
-2118 57 0
-2118 594 0
-2119 401 0
-2119 695 0
-2120 418 0
-2120 706 0
-2121 448 0
-2121 739 0
-2122 453 0
-2122 742 0
2118 2119 2120 2121 2122 0
-2123 25 0
-2123 551 0
-2124 32 0
-2124 634 0
-2125 57 0
-2125 597 0
-2126 66 0
-2126 495 0
-2127 66 0
-2127 610 0
-2128 75 0
-2128 587 0
-2129 88 0
-2129 649 0
-2130 97 0
-2130 538 0
-2131 104 0
-2131 600 0
-2132 109 0
-2132 609 0
-2133 134 0
-2133 570 0
-2134 144 0
-2134 514 0
-2135 160 0
-2135 656 0
-2136 188 0
-2136 648 0
-2137 191 0
-2137 595 0
-2138 204 0
-2138 630 0
-2139 221 0
-2139 613 0
-2140 234 0
-2140 563 0
-2141 234 0
-2141 565 0
-2142 248 0
-2142 629 0
-2143 262 0
-2143 651 0
-2144 272 0
-2144 553 0
-2145 292 0
-2145 559 0
-2146 292 0
-2146 571 0
-2147 336 0
-2147 499 0
-2148 337 0
-2148 580 0
-2149 383 0
-2149 735 0
-2150 432 0
-2150 685 0
-2151 455 0
-2151 723 0
-2152 487 0
-2152 737 0
-2153 517 0
-2153 668 0
-2154 525 0
-2154 590 0
-2155 569 0
-2155 606 0
-2156 596 0
-2156 622 0
-2157 602 0
-2157 664 0
-2158 684 0
-2158 711 0
-2159 720 0
-2159 722 0
2046 2123 2124 2125 2126 2127 2128 2129 2130 2131 2132 2133 2134 2135 2136 2137 2138 2139 2140 2141 2142 2143 2144 2145 2146 2147 2148 2149 2150 2151 2152 2153 2154 2155 2156 2157 2158 2159 0
563 587 559 609 553 570 538 649 499 565 571 569 0
-2160 185 0
-2160 641 0
-2161 699 0
-2161 744 0
2137 2160 2161 0
-2162 466 0
-2162 742 0
2137 2162 0
742 0
2073 0
-2163 12 0
-2163 550 0
-2164 12 0
-2164 554 0
-2165 121 0
-2165 532 0
-2166 135 0
-2166 537 0
-2167 151 0
-2167 565 0
-2168 230 0
-2168 539 0
2151 2163 2164 2165 2166 2167 2168 0
565 532 550 537 554 0
-2169 19 0
-2169 558 0
-2170 19 0
-2170 562 0
-2171 29 0
-2171 652 0
-2172 33 0
-2172 501 0
-2173 62 0
-2173 651 0
-2174 80 0
-2174 650 0
-2175 233 0
-2175 513 0
-2176 236 0
-2176 655 0
-2177 278 0
-2177 591 0
-2178 308 0
-2178 494 0
-2179 310 0
-2179 623 0
-2180 323 0
-2180 551 0
-2181 331 0
-2181 528 0
-2182 437 0
-2182 685 0
-2183 452 0
-2183 727 0
-2184 463 0
-2184 723 0
-2185 486 0
-2185 500 0
-2186 510 0
-2186 554 0
-2187 586 0
-2187 612 0
-2188 625 0
-2188 626 0
-2189 694 0
-2189 733 0
2107 2125 2142 2169 2170 2171 2172 2173 2174 2175 2176 2177 2178 2179 2180 2181 2182 2183 2184 2185 2186 2187 2188 2189 0
2107 2125 2142 2169 2170 2171 2172 2173 2174 2175 2176 2177 2178 2179 2180 2181 2182 2183 2184 2185 2187 2188 2189 0
-2190 45 0
-2190 511 0
-2191 45 0
-2191 673 0
-2192 73 0
-2192 652 0
-2193 103 0
-2193 634 0
-2194 139 0
-2194 598 0
-2195 139 0
-2195 599 0
-2196 177 0
-2196 590 0
-2197 188 0
-2197 651 0
-2198 201 0
-2198 499 0
-2199 207 0
-2199 630 0
-2200 219 0
-2200 523 0
-2201 219 0
-2201 539 0
-2202 277 0
-2202 609 0
-2203 316 0
-2203 499 0
-2204 332 0
-2204 668 0
-2205 336 0
-2205 563 0
-2206 354 0
-2206 649 0
-2207 359 0
-2207 635 0
-2208 373 0
-2208 606 0
-2209 410 0
-2209 688 0
-2210 550 0
-2210 559 0
-2211 587 0
-2211 645 0
-2212 601 0
-2212 603 0
-2213 607 0
-2213 608 0
-2214 648 0
-2214 650 0
2103 2109 2135 2139 2142 2148 2157 2190 2191 2192 2193 2194 2195 2196 2197 2198 2199 2200 2201 2202 2203 2204 2205 2206 2207 2208 2209 2210 2211 2212 2213 2214 0
608 649 587 609 668 606 0
-2215 191 0
-2215 498 0
-2216 374 0
-2216 722 0
-2217 390 0
-2217 682 0
-2218 406 0
-2218 716 0
-2219 409 0
-2219 735 0
-2220 418 0
-2220 737 0
-2221 433 0
-2221 684 0
-2222 433 0
-2222 688 0
-2223 446 0
-2223 683 0
-2224 446 0
-2224 708 0
-2225 450 0
-2225 697 0
-2226 455 0
-2226 728 0
-2227 471 0
-2227 723 0
-2228 478 0
-2228 496 0
-2229 483 0
-2229 683 0
-2230 511 0
-2230 612 0
-2231 689 0
-2231 721 0
2047 2070 2086 2185 2215 2216 2217 2218 2219 2220 2221 2222 2223 2224 2225 2226 2227 2228 2229 2230 2231 0
2047 2070 2086 2185 2215 2216 2217 2218 2219 2220 2221 2222 2223 2224 2225 2226 2227 2228 2229 2231 0
-2232 177 0
-2232 538 0
-2233 307 0
-2233 512 0
-2234 330 0
-2234 531 0
2128 2232 2233 2234 0
587 531 512 0
-2235 384 0
-2235 726 0
-2236 412 0
-2236 718 0
-2237 445 0
-2237 706 0
-2238 690 0
-2238 736 0
-2239 692 0
-2239 731 0
2056 2058 2085 2183 2235 2236 2237 2238 2239 0
-2240 46 0
-2240 509 0
-2241 46 0
-2241 623 0
-2242 113 0
-2242 674 0
-2243 127 0
-2243 511 0
-2244 146 0
-2244 570 0
-2245 157 0
-2245 659 0
-2246 168 0
-2246 540 0
-2247 197 0
-2247 561 0
-2248 230 0
-2248 586 0
-2249 252 0
-2249 648 0
-2250 252 0
-2250 653 0
-2251 317 0
-2251 624 0
-2252 321 0
-2252 658 0
-2253 482 0
-2253 681 0
-2254 486 0
-2254 686 0
2104 2131 2240 2241 2242 2243 2244 2245 2246 2247 2248 2249 2250 2251 2252 2253 2254 0
561 540 586 624 511 658 0
-2255 78 0
-2255 504 0
-2256 377 0
-2256 709 0
-2257 391 0
-2257 686 0
-2258 439 0
-2258 692 0
-2259 442 0
-2259 733 0
-2260 457 0
-2260 723 0
2255 2256 2257 2258 2259 2260 0
-2261 77 0
-2261 553 0
-2262 263 0
-2262 662 0
-2263 409 0
-2263 685 0
-2264 411 0
-2264 722 0
-2265 481 0
-2265 720 0
-2266 681 0
-2266 709 0
2261 2262 2263 2264 2265 2266 0
720 685 722 0
-2267 474 0
-2267 703 0
-2268 482 0
-2268 745 0
2267 2268 0
-2269 466 0
-2269 699 0
2063 2109 2267 2269 0
744 0
-2270 742 0
-2270 745 0
2270 0
-2271 405 0
-2271 707 0
-2272 689 0
-2272 745 0
2271 2272 0
2270 0
689 707 0
-2273 18 0
-2273 591 0
-2274 239 0
-2274 494 0
-2275 242 0
-2275 654 0
-2276 286 0
-2276 609 0
-2277 310 0
-2277 597 0
-2278 310 0
-2278 625 0
-2279 363 0
-2279 493 0
-2280 369 0
-2280 606 0
-2281 375 0
-2281 718 0
-2282 394 0
-2282 682 0
-2283 400 0
-2283 686 0
-2284 404 0
-2284 729 0
-2285 416 0
-2285 701 0
-2286 589 0
-2286 590 0
2044 2115 2116 2142 2171 2179 2186 2187 2194 2206 2212 2273 2274 2275 2276 2277 2278 2279 2280 2281 2282 2283 2284 2285 2286 0
-2287 32 0
-2287 668 0
-2288 95 0
-2288 649 0
-2289 132 0
-2289 609 0
-2290 142 0
-2290 654 0
-2291 150 0
-2291 665 0
-2292 176 0
-2292 675 0
-2293 179 0
-2293 597 0
-2294 187 0
-2294 601 0
-2295 404 0
-2295 686 0
2035 2051 2053 2056 2171 2177 2179 2186 2187 2217 2236 2274 2278 2280 2284 2287 2288 2289 2290 2291 2292 2293 2294 2295 0
2035 2051 2053 2056 2171 2177 2179 2187 2217 2236 2274 2278 2280 2284 2287 2288 2289 2290 2291 2292 2293 2294 2295 0
668 612 649 609 591 629 494 665 0
-2296 20 0
-2296 513 0
-2297 150 0
-2297 668 0
2142 2177 2187 2274 2296 2297 0
-2298 206 0
-2298 675 0
-2299 655 0
-2299 657 0
2142 2175 2177 2187 2274 2298 2299 0
586 513 494 591 657 629 675 0
-2300 62 0
-2300 577 0
-2301 381 0
-2301 730 0
-2302 417 0
-2302 731 0
-2303 424 0
-2303 687 0
-2304 464 0
-2304 740 0
2054 2300 2301 2302 2303 2304 0
-2305 199 0
-2305 641 0
2056 2080 2151 2185 2236 2305 0
718 701 500 0
-2306 180 0
-2306 498 0
-2307 217 0
-2307 554 0
-2308 227 0
-2308 536 0
-2309 229 0
-2309 630 0
-2310 318 0
-2310 507 0
-2311 333 0
-2311 533 0
-2312 347 0
-2312 550 0
2091 2095 2253 2258 2306 2307 2308 2309 2310 2311 2312 0
-2313 91 0
-2313 559 0
-2314 134 0
-2314 533 0
-2315 217 0
-2315 550 0
-2316 228 0
-2316 542 0
-2317 235 0
-2317 533 0
-2318 428 0
-2318 712 0
2062 2253 2306 2307 2308 2309 2313 2314 2315 2316 2317 2318 0
554 536 533 542 550 0
-2319 381 0
-2319 712 0
-2320 415 0
-2320 720 0
-2321 427 0
-2321 688 0
-2322 484 0
-2322 506 0
2065 2109 2149 2185 2216 2319 2320 2321 2322 0
-2323 18 0
-2323 505 0
-2324 19 0
-2324 532 0
-2325 35 0
-2325 564 0
-2326 35 0
-2326 569 0
-2327 62 0
-2327 549 0
-2328 84 0
-2328 536 0
-2329 88 0
-2329 669 0
-2330 123 0
-2330 619 0
-2331 136 0
-2331 607 0
-2332 145 0
-2332 507 0
-2333 170 0
-2333 497 0
-2334 174 0
-2334 562 0
-2335 184 0
-2335 603 0
-2336 196 0
-2336 541 0
-2337 212 0
-2337 523 0
-2338 228 0
-2338 520 0
-2339 232 0
-2339 618 0
-2340 245 0
-2340 665 0
-2341 288 0
-2341 560 0
-2342 288 0
-2342 580 0
-2343 296 0
-2343 577 0
-2344 332 0
-2344 640 0
-2345 333 0
-2345 531 0
-2346 334 0
-2346 654 0
-2347 505 0
-2347 649 0
-2348 586 0
-2348 624 0
-2349 620 0
-2349 621 0
2101 2108 2195 2226 2227 2314 2323 2324 2325 2326 2327 2328 2329 2330 2331 2332 2333 2334 2335 2336 2337 2338 2339 2340 2341 2342 2343 2344 2345 2346 2347 2348 2349 0
665 640 619 618 536 607 0
-2350 72 0
-2350 516 0
-2351 536 0
-2351 642 0
-2352 601 0
-2352 607 0
-2353 650 0
-2353 665 0
2330 2350 2351 2352 2353 0
-2029 0
