p cnf 3078 5030
1 0
2 0
3 0
4 0
5 0
6 0
7 0
8 0
9 0
10 0
11 0
12 0
13 0
14 0
15 0
16 0
17 0
18 0
19 0
20 0
21 0
22 0
23 0
24 0
25 0
26 0
27 0
28 0
29 0
30 0
31 0
32 0
33 0
34 0
35 0
36 0
37 0
38 0
39 0
40 0
41 0
42 0
43 0
44 0
45 0
46 0
47 0
48 0
49 0
50 0
51 0
52 0
53 0
54 0
55 0
56 0
57 0
58 0
59 0
60 0
61 0
62 0
63 0
64 0
65 0
66 0
67 0
68 0
69 0
70 0
71 0
72 0
73 0
74 0
75 0
76 0
77 0
78 0
79 0
80 0
81 0
82 0
83 0
84 0
85 0
86 0
87 0
88 0
89 0
90 0
91 0
92 0
93 0
94 0
95 0
96 0
97 0
98 0
99 0
100 0
101 0
102 0
103 0
104 0
105 0
106 0
107 0
108 0
109 0
110 0
111 0
112 0
113 0
114 0
115 0
116 0
117 0
118 0
119 0
120 0
121 0
122 0
123 0
124 0
125 0
126 0
127 0
128 0
129 0
130 0
131 0
132 0
133 0
134 0
135 0
136 0
137 0
138 0
139 0
140 0
141 0
142 0
143 0
144 0
145 0
146 0
147 0
148 0
149 0
150 0
151 0
152 0
153 0
154 0
155 0
156 0
157 0
158 0
159 0
160 0
161 0
162 0
163 0
164 0
165 0
166 0
167 0
168 0
169 0
170 0
171 0
172 0
173 0
174 0
175 0
176 0
177 0
178 0
179 0
180 0
181 0
182 0
183 0
184 0
185 0
186 0
187 0
188 0
189 0
190 0
191 0
192 0
193 0
194 0
195 0
196 0
197 0
198 0
199 0
200 0
201 0
202 0
203 0
204 0
205 0
206 0
207 0
208 0
209 0
210 0
211 0
212 0
213 0
214 0
215 0
216 0
217 0
218 0
219 0
220 0
221 0
222 0
223 0
224 0
225 0
226 0
227 0
228 0
229 0
230 0
231 0
232 0
233 0
234 0
235 0
236 0
237 0
238 0
239 0
240 0
241 0
242 0
243 0
244 0
245 0
246 0
247 0
248 0
249 0
250 0
251 0
252 0
253 0
254 0
255 0
256 0
257 0
258 0
259 0
260 0
261 0
262 0
263 0
264 0
265 0
266 0
267 0
268 0
269 0
270 0
271 0
272 0
273 0
274 0
275 0
276 0
277 0
278 0
279 0
280 0
281 0
282 0
283 0
284 0
285 0
286 0
287 0
288 0
289 0
290 0
291 0
292 0
293 0
294 0
295 0
296 0
297 0
298 0
299 0
300 0
301 0
302 0
303 0
304 0
305 0
306 0
307 0
308 0
309 0
310 0
311 0
312 0
313 0
314 0
315 0
316 0
317 0
318 0
319 0
320 0
321 0
322 0
323 0
324 0
325 0
326 0
327 0
328 0
329 0
330 0
331 0
332 0
333 0
334 0
335 0
336 0
337 0
338 0
339 0
340 0
341 0
342 0
343 0
344 0
345 0
346 0
347 0
348 0
349 0
350 0
351 0
352 0
353 0
354 0
355 0
356 0
357 0
358 0
359 0
360 0
361 0
362 0
363 0
364 0
365 0
366 0
367 0
368 0
369 0
370 0
371 0
372 0
373 0
374 0
375 0
376 0
377 0
378 0
379 0
380 0
381 0
382 0
383 0
384 0
385 0
386 0
387 0
388 0
389 0
390 0
391 0
392 0
393 0
394 0
395 0
396 0
397 0
398 0
399 0
400 0
401 0
402 0
403 0
404 0
405 0
406 0
407 0
408 0
409 0
410 0
411 0
412 0
413 0
414 0
415 0
416 0
417 0
418 0
419 0
420 0
421 0
422 0
423 0
424 0
425 0
426 0
427 0
428 0
429 0
430 0
431 0
432 0
433 0
434 0
435 0
436 0
437 0
438 0
439 0
440 0
441 0
442 0
443 0
444 0
445 0
446 0
447 0
448 0
449 0
450 0
451 0
452 0
453 0
454 0
455 0
456 0
457 0
458 0
459 0
460 0
461 0
462 0
463 0
464 0
465 0
466 0
467 0
468 0
469 0
470 0
471 0
472 0
473 0
474 0
475 0
476 0
477 0
478 0
479 0
480 0
481 0
482 0
483 0
484 0
485 0
486 0
487 0
488 0
489 0
490 0
491 0
492 0
493 0
494 0
495 0
496 0
497 0
498 0
499 0
500 0
501 0
502 0
503 0
504 0
505 0
-507 1136 0
-506 1136 0
-506 -507 1137 0
-509 1138 0
-508 1138 0
-508 -509 1139 0
-511 1140 0
-510 1140 0
-510 -511 1141 0
-513 1142 0
-512 1142 0
-512 -513 1143 0
-515 1144 0
-514 1144 0
-514 -515 1145 0
-517 1146 0
-516 1146 0
-516 -517 1147 0
-519 1148 0
-518 1148 0
-518 -519 1149 0
-521 1150 0
-520 1150 0
-520 -521 1151 0
-523 1152 0
-522 1152 0
-522 -523 1153 0
-525 1154 0
-524 1154 0
-524 -525 1155 0
-527 1156 0
-526 1156 0
-526 -527 1157 0
-529 1158 0
-528 1158 0
-528 -529 1159 0
-531 1160 0
-530 1160 0
-530 -531 1161 0
-533 1162 0
-532 1162 0
-532 -533 1163 0
-535 1164 0
-534 1164 0
-534 -535 1165 0
-537 1166 0
-536 1166 0
-536 -537 1167 0
-539 1168 0
-538 1168 0
-538 -539 1169 0
-541 1170 0
-540 1170 0
-540 -541 1171 0
-543 1172 0
-542 1172 0
-542 -543 1173 0
-545 1174 0
-544 1174 0
-544 -545 1175 0
-547 1176 0
-546 1176 0
-546 -547 1177 0
-549 1178 0
-548 1178 0
-548 -549 1179 0
-551 1180 0
-550 1180 0
-550 -551 1181 0
-553 1182 0
-552 1182 0
-552 -553 1183 0
-555 1184 0
-554 1184 0
-554 -555 1185 0
-557 1186 0
-556 1186 0
-556 -557 1187 0
-559 1188 0
-558 1188 0
-558 -559 1189 0
-561 1190 0
-560 1190 0
-560 -561 1191 0
-563 1192 0
-562 1192 0
-562 -563 1193 0
-565 1194 0
-564 1194 0
-564 -565 1195 0
-567 1196 0
-566 1196 0
-566 -567 1197 0
-569 1198 0
-568 1198 0
-568 -569 1199 0
-571 1200 0
-570 1200 0
-570 -571 1201 0
-573 1202 0
-572 1202 0
-572 -573 1203 0
-575 1204 0
-574 1204 0
-574 -575 1205 0
-577 1206 0
-576 1206 0
-576 -577 1207 0
-579 1208 0
-578 1208 0
-578 -579 1209 0
-581 1210 0
-580 1210 0
-580 -581 1211 0
-583 1212 0
-582 1212 0
-582 -583 1213 0
-585 1214 0
-584 1214 0
-584 -585 1215 0
-587 1216 0
-586 1216 0
-586 -587 1217 0
-589 1218 0
-588 1218 0
-588 -589 1219 0
-591 1220 0
-590 1220 0
-590 -591 1221 0
-593 1222 0
-592 1222 0
-592 -593 1223 0
-595 1224 0
-594 1224 0
-594 -595 1225 0
-597 1226 0
-596 1226 0
-596 -597 1227 0
-599 1228 0
-598 1228 0
-598 -599 1229 0
-601 1230 0
-600 1230 0
-600 -601 1231 0
-603 1232 0
-602 1232 0
-602 -603 1233 0
-605 1234 0
-604 1234 0
-604 -605 1235 0
-607 1236 0
-606 1236 0
-606 -607 1237 0
-609 1238 0
-608 1238 0
-608 -609 1239 0
-611 1240 0
-610 1240 0
-610 -611 1241 0
-613 1242 0
-612 1242 0
-612 -613 1243 0
-615 1244 0
-614 1244 0
-614 -615 1245 0
-617 1246 0
-616 1246 0
-616 -617 1247 0
-619 1248 0
-618 1248 0
-618 -619 1249 0
-621 1250 0
-620 1250 0
-620 -621 1251 0
-623 1252 0
-622 1252 0
-622 -623 1253 0
-625 1254 0
-624 1254 0
-624 -625 1255 0
-627 1256 0
-626 1256 0
-626 -627 1257 0
-629 1258 0
-628 1258 0
-628 -629 1259 0
-631 1260 0
-630 1260 0
-630 -631 1261 0
-633 1262 0
-632 1262 0
-632 -633 1263 0
-635 1264 0
-634 1264 0
-634 -635 1265 0
-637 1266 0
-636 1266 0
-636 -637 1267 0
-639 1268 0
-638 1268 0
-638 -639 1269 0
-641 1270 0
-640 1270 0
-640 -641 1271 0
-643 1272 0
-642 1272 0
-642 -643 1273 0
-645 1274 0
-644 1274 0
-644 -645 1275 0
-647 1276 0
-646 1276 0
-646 -647 1277 0
-649 1278 0
-648 1278 0
-648 -649 1279 0
-651 1280 0
-650 1280 0
-650 -651 1281 0
-653 1282 0
-652 1282 0
-652 -653 1283 0
-655 1284 0
-654 1284 0
-654 -655 1285 0
-657 1286 0
-656 1286 0
-656 -657 1287 0
-659 1288 0
-658 1288 0
-658 -659 1289 0
-661 1290 0
-660 1290 0
-660 -661 1291 0
-663 1292 0
-662 1292 0
-662 -663 1293 0
-665 1294 0
-664 1294 0
-664 -665 1295 0
-667 1296 0
-666 1296 0
-666 -667 1297 0
-669 1298 0
-668 1298 0
-668 -669 1299 0
-671 1300 0
-670 1300 0
-670 -671 1301 0
-673 1302 0
-672 1302 0
-672 -673 1303 0
-675 1304 0
-674 1304 0
-674 -675 1305 0
-677 1306 0
-676 1306 0
-676 -677 1307 0
-679 1308 0
-678 1308 0
-678 -679 1309 0
-681 1310 0
-680 1310 0
-680 -681 1311 0
-683 1312 0
-682 1312 0
-682 -683 1313 0
-685 1314 0
-684 1314 0
-684 -685 1315 0
-687 1316 0
-686 1316 0
-686 -687 1317 0
-689 1318 0
-688 1318 0
-688 -689 1319 0
-691 1320 0
-690 1320 0
-690 -691 1321 0
-693 1322 0
-692 1322 0
-692 -693 1323 0
-695 1324 0
-694 1324 0
-694 -695 1325 0
-697 1326 0
-696 1326 0
-696 -697 1327 0
-699 1328 0
-698 1328 0
-698 -699 1329 0
-701 1330 0
-700 1330 0
-700 -701 1331 0
-703 1332 0
-702 1332 0
-702 -703 1333 0
-705 1334 0
-704 1334 0
-704 -705 1335 0
-707 1336 0
-706 1336 0
-706 -707 1337 0
-709 1338 0
-708 1338 0
-708 -709 1339 0
-711 1340 0
-710 1340 0
-710 -711 1341 0
-713 1342 0
-712 1342 0
-712 -713 1343 0
-715 1344 0
-714 1344 0
-714 -715 1345 0
-717 1346 0
-716 1346 0
-716 -717 1347 0
-719 1348 0
-718 1348 0
-718 -719 1349 0
-721 1350 0
-720 1350 0
-720 -721 1351 0
-723 1352 0
-722 1352 0
-722 -723 1353 0
-725 1354 0
-724 1354 0
-724 -725 1355 0
-727 1356 0
-726 1356 0
-726 -727 1357 0
-729 1358 0
-728 1358 0
-728 -729 1359 0
-731 1360 0
-730 1360 0
-730 -731 1361 0
-733 1362 0
-732 1362 0
-732 -733 1363 0
-735 1364 0
-734 1364 0
-734 -735 1365 0
-737 1366 0
-736 1366 0
-736 -737 1367 0
-739 1368 0
-738 1368 0
-738 -739 1369 0
-741 1370 0
-740 1370 0
-740 -741 1371 0
-743 1372 0
-742 1372 0
-742 -743 1373 0
-745 1374 0
-744 1374 0
-744 -745 1375 0
-747 1376 0
-746 1376 0
-746 -747 1377 0
-749 1378 0
-748 1378 0
-748 -749 1379 0
-751 1380 0
-750 1380 0
-750 -751 1381 0
-753 1382 0
-752 1382 0
-752 -753 1383 0
-755 1384 0
-754 1384 0
-754 -755 1385 0
-757 1386 0
-756 1386 0
-756 -757 1387 0
-759 1388 0
-758 1388 0
-758 -759 1389 0
-761 1390 0
-760 1390 0
-760 -761 1391 0
-763 1392 0
-762 1392 0
-762 -763 1393 0
-765 1394 0
-764 1394 0
-764 -765 1395 0
-767 1396 0
-766 1396 0
-766 -767 1397 0
-769 1398 0
-768 1398 0
-768 -769 1399 0
-771 1400 0
-770 1400 0
-770 -771 1401 0
-773 1402 0
-772 1402 0
-772 -773 1403 0
-775 1404 0
-774 1404 0
-774 -775 1405 0
-777 1406 0
-776 1406 0
-776 -777 1407 0
-779 1408 0
-778 1408 0
-778 -779 1409 0
-781 1410 0
-780 1410 0
-780 -781 1411 0
-783 1412 0
-782 1412 0
-782 -783 1413 0
-785 1414 0
-784 1414 0
-784 -785 1415 0
-787 1416 0
-786 1416 0
-786 -787 1417 0
-789 1418 0
-788 1418 0
-788 -789 1419 0
-791 1420 0
-790 1420 0
-790 -791 1421 0
-793 1422 0
-792 1422 0
-792 -793 1423 0
-795 1424 0
-794 1424 0
-794 -795 1425 0
-797 1426 0
-796 1426 0
-796 -797 1427 0
-799 1428 0
-798 1428 0
-798 -799 1429 0
-801 1430 0
-800 1430 0
-800 -801 1431 0
-803 1432 0
-802 1432 0
-802 -803 1433 0
-805 1434 0
-804 1434 0
-804 -805 1435 0
-807 1436 0
-806 1436 0
-806 -807 1437 0
-809 1438 0
-808 1438 0
-808 -809 1439 0
-811 1440 0
-810 1440 0
-810 -811 1441 0
-813 1442 0
-812 1442 0
-812 -813 1443 0
-815 1444 0
-814 1444 0
-814 -815 1445 0
-817 1446 0
-816 1446 0
-816 -817 1447 0
-819 1448 0
-818 1448 0
-818 -819 1449 0
-821 1450 0
-820 1450 0
-820 -821 1451 0
-823 1452 0
-822 1452 0
-822 -823 1453 0
-825 1454 0
-824 1454 0
-824 -825 1455 0
-827 1456 0
-826 1456 0
-826 -827 1457 0
-829 1458 0
-828 1458 0
-828 -829 1459 0
-831 1460 0
-830 1460 0
-830 -831 1461 0
-833 1462 0
-832 1462 0
-832 -833 1463 0
-835 1464 0
-834 1464 0
-834 -835 1465 0
-837 1466 0
-836 1466 0
-836 -837 1467 0
-839 1468 0
-838 1468 0
-838 -839 1469 0
-841 1470 0
-840 1470 0
-840 -841 1471 0
-843 1472 0
-842 1472 0
-842 -843 1473 0
-845 1474 0
-844 1474 0
-844 -845 1475 0
-847 1476 0
-846 1476 0
-846 -847 1477 0
-849 1478 0
-848 1478 0
-848 -849 1479 0
-851 1480 0
-850 1480 0
-850 -851 1481 0
-853 1482 0
-852 1482 0
-852 -853 1483 0
-855 1484 0
-854 1484 0
-854 -855 1485 0
-857 1486 0
-856 1486 0
-856 -857 1487 0
-859 1488 0
-858 1488 0
-858 -859 1489 0
-861 1490 0
-860 1490 0
-860 -861 1491 0
-863 1492 0
-862 1492 0
-862 -863 1493 0
-865 1494 0
-864 1494 0
-864 -865 1495 0
-867 1496 0
-866 1496 0
-866 -867 1497 0
-869 1498 0
-868 1498 0
-868 -869 1499 0
-871 1500 0
-870 1500 0
-870 -871 1501 0
-873 1502 0
-872 1502 0
-872 -873 1503 0
-875 1504 0
-874 1504 0
-874 -875 1505 0
-877 1506 0
-876 1506 0
-876 -877 1507 0
-879 1508 0
-878 1508 0
-878 -879 1509 0
-881 1510 0
-880 1510 0
-880 -881 1511 0
-883 1512 0
-882 1512 0
-882 -883 1513 0
-885 1514 0
-884 1514 0
-884 -885 1515 0
-887 1516 0
-886 1516 0
-886 -887 1517 0
-889 1518 0
-888 1518 0
-888 -889 1519 0
-891 1520 0
-890 1520 0
-890 -891 1521 0
-893 1522 0
-892 1522 0
-892 -893 1523 0
-895 1524 0
-894 1524 0
-894 -895 1525 0
-897 1526 0
-896 1526 0
-896 -897 1527 0
-899 1528 0
-898 1528 0
-898 -899 1529 0
-901 1530 0
-900 1530 0
-900 -901 1531 0
-903 1532 0
-902 1532 0
-902 -903 1533 0
-905 1534 0
-904 1534 0
-904 -905 1535 0
-907 1536 0
-906 1536 0
-906 -907 1537 0
-909 1538 0
-908 1538 0
-908 -909 1539 0
-911 1540 0
-910 1540 0
-910 -911 1541 0
-913 1542 0
-912 1542 0
-912 -913 1543 0
-915 1544 0
-914 1544 0
-914 -915 1545 0
-917 1546 0
-916 1546 0
-916 -917 1547 0
-919 1548 0
-918 1548 0
-918 -919 1549 0
-921 1550 0
-920 1550 0
-920 -921 1551 0
-923 1552 0
-922 1552 0
-922 -923 1553 0
-925 1554 0
-924 1554 0
-924 -925 1555 0
-927 1556 0
-926 1556 0
-926 -927 1557 0
-929 1558 0
-928 1558 0
-928 -929 1559 0
-931 1560 0
-930 1560 0
-930 -931 1561 0
-933 1562 0
-932 1562 0
-932 -933 1563 0
-935 1564 0
-934 1564 0
-934 -935 1565 0
-937 1566 0
-936 1566 0
-936 -937 1567 0
-939 1568 0
-938 1568 0
-938 -939 1569 0
-941 1570 0
-940 1570 0
-940 -941 1571 0
-943 1572 0
-942 1572 0
-942 -943 1573 0
-945 1574 0
-944 1574 0
-944 -945 1575 0
-947 1576 0
-946 1576 0
-946 -947 1577 0
-949 1578 0
-948 1578 0
-948 -949 1579 0
-951 1580 0
-950 1580 0
-950 -951 1581 0
-953 1582 0
-952 1582 0
-952 -953 1583 0
-955 1584 0
-954 1584 0
-954 -955 1585 0
-957 1586 0
-956 1586 0
-956 -957 1587 0
-959 1588 0
-958 1588 0
-958 -959 1589 0
-961 1590 0
-960 1590 0
-960 -961 1591 0
-963 1592 0
-962 1592 0
-962 -963 1593 0
-965 1594 0
-964 1594 0
-964 -965 1595 0
-967 1596 0
-966 1596 0
-966 -967 1597 0
-969 1598 0
-968 1598 0
-968 -969 1599 0
-971 1600 0
-970 1600 0
-970 -971 1601 0
-973 1602 0
-972 1602 0
-972 -973 1603 0
-975 1604 0
-974 1604 0
-974 -975 1605 0
-977 1606 0
-976 1606 0
-976 -977 1607 0
-979 1608 0
-978 1608 0
-978 -979 1609 0
-981 1610 0
-980 1610 0
-980 -981 1611 0
-983 1612 0
-982 1612 0
-982 -983 1613 0
-985 1614 0
-984 1614 0
-984 -985 1615 0
-987 1616 0
-986 1616 0
-986 -987 1617 0
-989 1618 0
-988 1618 0
-988 -989 1619 0
-991 1620 0
-990 1620 0
-990 -991 1621 0
-993 1622 0
-992 1622 0
-992 -993 1623 0
-995 1624 0
-994 1624 0
-994 -995 1625 0
-997 1626 0
-996 1626 0
-996 -997 1627 0
-999 1628 0
-998 1628 0
-998 -999 1629 0
-1001 1630 0
-1000 1630 0
-1000 -1001 1631 0
-1003 1632 0
-1002 1632 0
-1002 -1003 1633 0
-1005 1634 0
-1004 1634 0
-1004 -1005 1635 0
-1007 1636 0
-1006 1636 0
-1006 -1007 1637 0
-1009 1638 0
-1008 1638 0
-1008 -1009 1639 0
-1011 1640 0
-1010 1640 0
-1010 -1011 1641 0
-1013 1642 0
-1012 1642 0
-1012 -1013 1643 0
-1015 1644 0
-1014 1644 0
-1014 -1015 1645 0
-1017 1646 0
-1016 1646 0
-1016 -1017 1647 0
-1019 1648 0
-1018 1648 0
-1018 -1019 1649 0
-1021 1650 0
-1020 1650 0
-1020 -1021 1651 0
-1023 1652 0
-1022 1652 0
-1022 -1023 1653 0
-1025 1654 0
-1024 1654 0
-1024 -1025 1655 0
-1027 1656 0
-1026 1656 0
-1026 -1027 1657 0
-1029 1658 0
-1028 1658 0
-1028 -1029 1659 0
-1031 1660 0
-1030 1660 0
-1030 -1031 1661 0
-1033 1662 0
-1032 1662 0
-1032 -1033 1663 0
-1035 1664 0
-1034 1664 0
-1034 -1035 1665 0
-1037 1666 0
-1036 1666 0
-1036 -1037 1667 0
-1039 1668 0
-1038 1668 0
-1038 -1039 1669 0
-1041 1670 0
-1040 1670 0
-1040 -1041 1671 0
-1043 1672 0
-1042 1672 0
-1042 -1043 1673 0
-1045 1674 0
-1044 1674 0
-1044 -1045 1675 0
-1047 1676 0
-1046 1676 0
-1046 -1047 1677 0
-1049 1678 0
-1048 1678 0
-1048 -1049 1679 0
-1051 1680 0
-1050 1680 0
-1050 -1051 1681 0
-1053 1682 0
-1052 1682 0
-1052 -1053 1683 0
-1055 1684 0
-1054 1684 0
-1054 -1055 1685 0
-1057 1686 0
-1056 1686 0
-1056 -1057 1687 0
-1059 1688 0
-1058 1688 0
-1058 -1059 1689 0
-1061 1690 0
-1060 1690 0
-1060 -1061 1691 0
-1063 1692 0
-1062 1692 0
-1062 -1063 1693 0
-1065 1694 0
-1064 1694 0
-1064 -1065 1695 0
-1067 1696 0
-1066 1696 0
-1066 -1067 1697 0
-1069 1698 0
-1068 1698 0
-1068 -1069 1699 0
-1071 1700 0
-1070 1700 0
-1070 -1071 1701 0
-1073 1702 0
-1072 1702 0
-1072 -1073 1703 0
-1075 1704 0
-1074 1704 0
-1074 -1075 1705 0
-1077 1706 0
-1076 1706 0
-1076 -1077 1707 0
-1079 1708 0
-1078 1708 0
-1078 -1079 1709 0
-1081 1710 0
-1080 1710 0
-1080 -1081 1711 0
-1083 1712 0
-1082 1712 0
-1082 -1083 1713 0
-1085 1714 0
-1084 1714 0
-1084 -1085 1715 0
-1087 1716 0
-1086 1716 0
-1086 -1087 1717 0
-1089 1718 0
-1088 1718 0
-1088 -1089 1719 0
-1091 1720 0
-1090 1720 0
-1090 -1091 1721 0
-1093 1722 0
-1092 1722 0
-1092 -1093 1723 0
-1095 1724 0
-1094 1724 0
-1094 -1095 1725 0
-1097 1726 0
-1096 1726 0
-1096 -1097 1727 0
-1099 1728 0
-1098 1728 0
-1098 -1099 1729 0
-1101 1730 0
-1100 1730 0
-1100 -1101 1731 0
-1103 1732 0
-1102 1732 0
-1102 -1103 1733 0
-1105 1734 0
-1104 1734 0
-1104 -1105 1735 0
-1107 1736 0
-1106 1736 0
-1106 -1107 1737 0
-1109 1738 0
-1108 1738 0
-1108 -1109 1739 0
-1111 1740 0
-1110 1740 0
-1110 -1111 1741 0
-1113 1742 0
-1112 1742 0
-1112 -1113 1743 0
-1115 1744 0
-1114 1744 0
-1114 -1115 1745 0
-1117 1746 0
-1116 1746 0
-1116 -1117 1747 0
-1119 1748 0
-1118 1748 0
-1118 -1119 1749 0
-1121 1750 0
-1120 1750 0
-1120 -1121 1751 0
-1123 1752 0
-1122 1752 0
-1122 -1123 1753 0
-1125 1754 0
-1124 1754 0
-1124 -1125 1755 0
-1127 1756 0
-1126 1756 0
-1126 -1127 1757 0
-1129 1758 0
-1128 1758 0
-1128 -1129 1759 0
-1131 1760 0
-1130 1760 0
-1130 -1131 1761 0
-1133 1762 0
-1132 1762 0
-1132 -1133 1763 0
-1135 1764 0
-1134 1764 0
-1134 -1135 1765 0
-1138 1766 0
-1139 1767 0
-1136 1766 0
-1137 1767 0
-1136 -1138 1767 0
-1136 -1139 1768 0
-1137 -1138 1768 0
-1137 -1139 1769 0
-1142 1770 0
-1143 1771 0
-1140 1770 0
-1141 1771 0
-1140 -1142 1771 0
-1140 -1143 1772 0
-1141 -1142 1772 0
-1141 -1143 1773 0
-1146 1774 0
-1147 1775 0
-1144 1774 0
-1145 1775 0
-1144 -1146 1775 0
-1144 -1147 1776 0
-1145 -1146 1776 0
-1145 -1147 1777 0
-1150 1778 0
-1151 1779 0
-1148 1778 0
-1149 1779 0
-1148 -1150 1779 0
-1148 -1151 1780 0
-1149 -1150 1780 0
-1149 -1151 1781 0
-1154 1782 0
-1155 1783 0
-1152 1782 0
-1153 1783 0
-1152 -1154 1783 0
-1152 -1155 1784 0
-1153 -1154 1784 0
-1153 -1155 1785 0
-1158 1786 0
-1159 1787 0
-1156 1786 0
-1157 1787 0
-1156 -1158 1787 0
-1156 -1159 1788 0
-1157 -1158 1788 0
-1157 -1159 1789 0
-1162 1790 0
-1163 1791 0
-1160 1790 0
-1161 1791 0
-1160 -1162 1791 0
-1160 -1163 1792 0
-1161 -1162 1792 0
-1161 -1163 1793 0
-1166 1794 0
-1167 1795 0
-1164 1794 0
-1165 1795 0
-1164 -1166 1795 0
-1164 -1167 1796 0
-1165 -1166 1796 0
-1165 -1167 1797 0
-1170 1798 0
-1171 1799 0
-1168 1798 0
-1169 1799 0
-1168 -1170 1799 0
-1168 -1171 1800 0
-1169 -1170 1800 0
-1169 -1171 1801 0
-1174 1802 0
-1175 1803 0
-1172 1802 0
-1173 1803 0
-1172 -1174 1803 0
-1172 -1175 1804 0
-1173 -1174 1804 0
-1173 -1175 1805 0
-1178 1806 0
-1179 1807 0
-1176 1806 0
-1177 1807 0
-1176 -1178 1807 0
-1176 -1179 1808 0
-1177 -1178 1808 0
-1177 -1179 1809 0
-1182 1810 0
-1183 1811 0
-1180 1810 0
-1181 1811 0
-1180 -1182 1811 0
-1180 -1183 1812 0
-1181 -1182 1812 0
-1181 -1183 1813 0
-1186 1814 0
-1187 1815 0
-1184 1814 0
-1185 1815 0
-1184 -1186 1815 0
-1184 -1187 1816 0
-1185 -1186 1816 0
-1185 -1187 1817 0
-1190 1818 0
-1191 1819 0
-1188 1818 0
-1189 1819 0
-1188 -1190 1819 0
-1188 -1191 1820 0
-1189 -1190 1820 0
-1189 -1191 1821 0
-1194 1822 0
-1195 1823 0
-1192 1822 0
-1193 1823 0
-1192 -1194 1823 0
-1192 -1195 1824 0
-1193 -1194 1824 0
-1193 -1195 1825 0
-1198 1826 0
-1199 1827 0
-1196 1826 0
-1197 1827 0
-1196 -1198 1827 0
-1196 -1199 1828 0
-1197 -1198 1828 0
-1197 -1199 1829 0
-1202 1830 0
-1203 1831 0
-1200 1830 0
-1201 1831 0
-1200 -1202 1831 0
-1200 -1203 1832 0
-1201 -1202 1832 0
-1201 -1203 1833 0
-1206 1834 0
-1207 1835 0
-1204 1834 0
-1205 1835 0
-1204 -1206 1835 0
-1204 -1207 1836 0
-1205 -1206 1836 0
-1205 -1207 1837 0
-1210 1838 0
-1211 1839 0
-1208 1838 0
-1209 1839 0
-1208 -1210 1839 0
-1208 -1211 1840 0
-1209 -1210 1840 0
-1209 -1211 1841 0
-1214 1842 0
-1215 1843 0
-1212 1842 0
-1213 1843 0
-1212 -1214 1843 0
-1212 -1215 1844 0
-1213 -1214 1844 0
-1213 -1215 1845 0
-1218 1846 0
-1219 1847 0
-1216 1846 0
-1217 1847 0
-1216 -1218 1847 0
-1216 -1219 1848 0
-1217 -1218 1848 0
-1217 -1219 1849 0
-1222 1850 0
-1223 1851 0
-1220 1850 0
-1221 1851 0
-1220 -1222 1851 0
-1220 -1223 1852 0
-1221 -1222 1852 0
-1221 -1223 1853 0
-1226 1854 0
-1227 1855 0
-1224 1854 0
-1225 1855 0
-1224 -1226 1855 0
-1224 -1227 1856 0
-1225 -1226 1856 0
-1225 -1227 1857 0
-1230 1858 0
-1231 1859 0
-1228 1858 0
-1229 1859 0
-1228 -1230 1859 0
-1228 -1231 1860 0
-1229 -1230 1860 0
-1229 -1231 1861 0
-1234 1862 0
-1235 1863 0
-1232 1862 0
-1233 1863 0
-1232 -1234 1863 0
-1232 -1235 1864 0
-1233 -1234 1864 0
-1233 -1235 1865 0
-1238 1866 0
-1239 1867 0
-1236 1866 0
-1237 1867 0
-1236 -1238 1867 0
-1236 -1239 1868 0
-1237 -1238 1868 0
-1237 -1239 1869 0
-1242 1870 0
-1243 1871 0
-1240 1870 0
-1241 1871 0
-1240 -1242 1871 0
-1240 -1243 1872 0
-1241 -1242 1872 0
-1241 -1243 1873 0
-1246 1874 0
-1247 1875 0
-1244 1874 0
-1245 1875 0
-1244 -1246 1875 0
-1244 -1247 1876 0
-1245 -1246 1876 0
-1245 -1247 1877 0
-1250 1878 0
-1251 1879 0
-1248 1878 0
-1249 1879 0
-1248 -1250 1879 0
-1248 -1251 1880 0
-1249 -1250 1880 0
-1249 -1251 1881 0
-1254 1882 0
-1255 1883 0
-1252 1882 0
-1253 1883 0
-1252 -1254 1883 0
-1252 -1255 1884 0
-1253 -1254 1884 0
-1253 -1255 1885 0
-1258 1886 0
-1259 1887 0
-1256 1886 0
-1257 1887 0
-1256 -1258 1887 0
-1256 -1259 1888 0
-1257 -1258 1888 0
-1257 -1259 1889 0
-1262 1890 0
-1263 1891 0
-1260 1890 0
-1261 1891 0
-1260 -1262 1891 0
-1260 -1263 1892 0
-1261 -1262 1892 0
-1261 -1263 1893 0
-1266 1894 0
-1267 1895 0
-1264 1894 0
-1265 1895 0
-1264 -1266 1895 0
-1264 -1267 1896 0
-1265 -1266 1896 0
-1265 -1267 1897 0
-1270 1898 0
-1271 1899 0
-1268 1898 0
-1269 1899 0
-1268 -1270 1899 0
-1268 -1271 1900 0
-1269 -1270 1900 0
-1269 -1271 1901 0
-1274 1902 0
-1275 1903 0
-1272 1902 0
-1273 1903 0
-1272 -1274 1903 0
-1272 -1275 1904 0
-1273 -1274 1904 0
-1273 -1275 1905 0
-1278 1906 0
-1279 1907 0
-1276 1906 0
-1277 1907 0
-1276 -1278 1907 0
-1276 -1279 1908 0
-1277 -1278 1908 0
-1277 -1279 1909 0
-1282 1910 0
-1283 1911 0
-1280 1910 0
-1281 1911 0
-1280 -1282 1911 0
-1280 -1283 1912 0
-1281 -1282 1912 0
-1281 -1283 1913 0
-1286 1914 0
-1287 1915 0
-1284 1914 0
-1285 1915 0
-1284 -1286 1915 0
-1284 -1287 1916 0
-1285 -1286 1916 0
-1285 -1287 1917 0
-1290 1918 0
-1291 1919 0
-1288 1918 0
-1289 1919 0
-1288 -1290 1919 0
-1288 -1291 1920 0
-1289 -1290 1920 0
-1289 -1291 1921 0
-1294 1922 0
-1295 1923 0
-1292 1922 0
-1293 1923 0
-1292 -1294 1923 0
-1292 -1295 1924 0
-1293 -1294 1924 0
-1293 -1295 1925 0
-1298 1926 0
-1299 1927 0
-1296 1926 0
-1297 1927 0
-1296 -1298 1927 0
-1296 -1299 1928 0
-1297 -1298 1928 0
-1297 -1299 1929 0
-1302 1930 0
-1303 1931 0
-1300 1930 0
-1301 1931 0
-1300 -1302 1931 0
-1300 -1303 1932 0
-1301 -1302 1932 0
-1301 -1303 1933 0
-1306 1934 0
-1307 1935 0
-1304 1934 0
-1305 1935 0
-1304 -1306 1935 0
-1304 -1307 1936 0
-1305 -1306 1936 0
-1305 -1307 1937 0
-1310 1938 0
-1311 1939 0
-1308 1938 0
-1309 1939 0
-1308 -1310 1939 0
-1308 -1311 1940 0
-1309 -1310 1940 0
-1309 -1311 1941 0
-1314 1942 0
-1315 1943 0
-1312 1942 0
-1313 1943 0
-1312 -1314 1943 0
-1312 -1315 1944 0
-1313 -1314 1944 0
-1313 -1315 1945 0
-1318 1946 0
-1319 1947 0
-1316 1946 0
-1317 1947 0
-1316 -1318 1947 0
-1316 -1319 1948 0
-1317 -1318 1948 0
-1317 -1319 1949 0
-1322 1950 0
-1323 1951 0
-1320 1950 0
-1321 1951 0
-1320 -1322 1951 0
-1320 -1323 1952 0
-1321 -1322 1952 0
-1321 -1323 1953 0
-1326 1954 0
-1327 1955 0
-1324 1954 0
-1325 1955 0
-1324 -1326 1955 0
-1324 -1327 1956 0
-1325 -1326 1956 0
-1325 -1327 1957 0
-1330 1958 0
-1331 1959 0
-1328 1958 0
-1329 1959 0
-1328 -1330 1959 0
-1328 -1331 1960 0
-1329 -1330 1960 0
-1329 -1331 1961 0
-1334 1962 0
-1335 1963 0
-1332 1962 0
-1333 1963 0
-1332 -1334 1963 0
-1332 -1335 1964 0
-1333 -1334 1964 0
-1333 -1335 1965 0
-1338 1966 0
-1339 1967 0
-1336 1966 0
-1337 1967 0
-1336 -1338 1967 0
-1336 -1339 1968 0
-1337 -1338 1968 0
-1337 -1339 1969 0
-1342 1970 0
-1343 1971 0
-1340 1970 0
-1341 1971 0
-1340 -1342 1971 0
-1340 -1343 1972 0
-1341 -1342 1972 0
-1341 -1343 1973 0
-1346 1974 0
-1347 1975 0
-1344 1974 0
-1345 1975 0
-1344 -1346 1975 0
-1344 -1347 1976 0
-1345 -1346 1976 0
-1345 -1347 1977 0
-1350 1978 0
-1351 1979 0
-1348 1978 0
-1349 1979 0
-1348 -1350 1979 0
-1348 -1351 1980 0
-1349 -1350 1980 0
-1349 -1351 1981 0
-1354 1982 0
-1355 1983 0
-1352 1982 0
-1353 1983 0
-1352 -1354 1983 0
-1352 -1355 1984 0
-1353 -1354 1984 0
-1353 -1355 1985 0
-1358 1986 0
-1359 1987 0
-1356 1986 0
-1357 1987 0
-1356 -1358 1987 0
-1356 -1359 1988 0
-1357 -1358 1988 0
-1357 -1359 1989 0
-1362 1990 0
-1363 1991 0
-1360 1990 0
-1361 1991 0
-1360 -1362 1991 0
-1360 -1363 1992 0
-1361 -1362 1992 0
-1361 -1363 1993 0
-1366 1994 0
-1367 1995 0
-1364 1994 0
-1365 1995 0
-1364 -1366 1995 0
-1364 -1367 1996 0
-1365 -1366 1996 0
-1365 -1367 1997 0
-1370 1998 0
-1371 1999 0
-1368 1998 0
-1369 1999 0
-1368 -1370 1999 0
-1368 -1371 2000 0
-1369 -1370 2000 0
-1369 -1371 2001 0
-1374 2002 0
-1375 2003 0
-1372 2002 0
-1373 2003 0
-1372 -1374 2003 0
-1372 -1375 2004 0
-1373 -1374 2004 0
-1373 -1375 2005 0
-1378 2006 0
-1379 2007 0
-1376 2006 0
-1377 2007 0
-1376 -1378 2007 0
-1376 -1379 2008 0
-1377 -1378 2008 0
-1377 -1379 2009 0
-1382 2010 0
-1383 2011 0
-1380 2010 0
-1381 2011 0
-1380 -1382 2011 0
-1380 -1383 2012 0
-1381 -1382 2012 0
-1381 -1383 2013 0
-1386 2014 0
-1387 2015 0
-1384 2014 0
-1385 2015 0
-1384 -1386 2015 0
-1384 -1387 2016 0
-1385 -1386 2016 0
-1385 -1387 2017 0
-1390 2018 0
-1391 2019 0
-1388 2018 0
-1389 2019 0
-1388 -1390 2019 0
-1388 -1391 2020 0
-1389 -1390 2020 0
-1389 -1391 2021 0
-1394 2022 0
-1395 2023 0
-1392 2022 0
-1393 2023 0
-1392 -1394 2023 0
-1392 -1395 2024 0
-1393 -1394 2024 0
-1393 -1395 2025 0
-1398 2026 0
-1399 2027 0
-1396 2026 0
-1397 2027 0
-1396 -1398 2027 0
-1396 -1399 2028 0
-1397 -1398 2028 0
-1397 -1399 2029 0
-1402 2030 0
-1403 2031 0
-1400 2030 0
-1401 2031 0
-1400 -1402 2031 0
-1400 -1403 2032 0
-1401 -1402 2032 0
-1401 -1403 2033 0
-1406 2034 0
-1407 2035 0
-1404 2034 0
-1405 2035 0
-1404 -1406 2035 0
-1404 -1407 2036 0
-1405 -1406 2036 0
-1405 -1407 2037 0
-1410 2038 0
-1411 2039 0
-1408 2038 0
-1409 2039 0
-1408 -1410 2039 0
-1408 -1411 2040 0
-1409 -1410 2040 0
-1409 -1411 2041 0
-1414 2042 0
-1415 2043 0
-1412 2042 0
-1413 2043 0
-1412 -1414 2043 0
-1412 -1415 2044 0
-1413 -1414 2044 0
-1413 -1415 2045 0
-1418 2046 0
-1419 2047 0
-1416 2046 0
-1417 2047 0
-1416 -1418 2047 0
-1416 -1419 2048 0
-1417 -1418 2048 0
-1417 -1419 2049 0
-1422 2050 0
-1423 2051 0
-1420 2050 0
-1421 2051 0
-1420 -1422 2051 0
-1420 -1423 2052 0
-1421 -1422 2052 0
-1421 -1423 2053 0
-1426 2054 0
-1427 2055 0
-1424 2054 0
-1425 2055 0
-1424 -1426 2055 0
-1424 -1427 2056 0
-1425 -1426 2056 0
-1425 -1427 2057 0
-1430 2058 0
-1431 2059 0
-1428 2058 0
-1429 2059 0
-1428 -1430 2059 0
-1428 -1431 2060 0
-1429 -1430 2060 0
-1429 -1431 2061 0
-1434 2062 0
-1435 2063 0
-1432 2062 0
-1433 2063 0
-1432 -1434 2063 0
-1432 -1435 2064 0
-1433 -1434 2064 0
-1433 -1435 2065 0
-1438 2066 0
-1439 2067 0
-1436 2066 0
-1437 2067 0
-1436 -1438 2067 0
-1436 -1439 2068 0
-1437 -1438 2068 0
-1437 -1439 2069 0
-1442 2070 0
-1443 2071 0
-1440 2070 0
-1441 2071 0
-1440 -1442 2071 0
-1440 -1443 2072 0
-1441 -1442 2072 0
-1441 -1443 2073 0
-1446 2074 0
-1447 2075 0
-1444 2074 0
-1445 2075 0
-1444 -1446 2075 0
-1444 -1447 2076 0
-1445 -1446 2076 0
-1445 -1447 2077 0
-1450 2078 0
-1451 2079 0
-1448 2078 0
-1449 2079 0
-1448 -1450 2079 0
-1448 -1451 2080 0
-1449 -1450 2080 0
-1449 -1451 2081 0
-1454 2082 0
-1455 2083 0
-1452 2082 0
-1453 2083 0
-1452 -1454 2083 0
-1452 -1455 2084 0
-1453 -1454 2084 0
-1453 -1455 2085 0
-1458 2086 0
-1459 2087 0
-1456 2086 0
-1457 2087 0
-1456 -1458 2087 0
-1456 -1459 2088 0
-1457 -1458 2088 0
-1457 -1459 2089 0
-1462 2090 0
-1463 2091 0
-1460 2090 0
-1461 2091 0
-1460 -1462 2091 0
-1460 -1463 2092 0
-1461 -1462 2092 0
-1461 -1463 2093 0
-1466 2094 0
-1467 2095 0
-1464 2094 0
-1465 2095 0
-1464 -1466 2095 0
-1464 -1467 2096 0
-1465 -1466 2096 0
-1465 -1467 2097 0
-1470 2098 0
-1471 2099 0
-1468 2098 0
-1469 2099 0
-1468 -1470 2099 0
-1468 -1471 2100 0
-1469 -1470 2100 0
-1469 -1471 2101 0
-1474 2102 0
-1475 2103 0
-1472 2102 0
-1473 2103 0
-1472 -1474 2103 0
-1472 -1475 2104 0
-1473 -1474 2104 0
-1473 -1475 2105 0
-1478 2106 0
-1479 2107 0
-1476 2106 0
-1477 2107 0
-1476 -1478 2107 0
-1476 -1479 2108 0
-1477 -1478 2108 0
-1477 -1479 2109 0
-1482 2110 0
-1483 2111 0
-1480 2110 0
-1481 2111 0
-1480 -1482 2111 0
-1480 -1483 2112 0
-1481 -1482 2112 0
-1481 -1483 2113 0
-1486 2114 0
-1487 2115 0
-1484 2114 0
-1485 2115 0
-1484 -1486 2115 0
-1484 -1487 2116 0
-1485 -1486 2116 0
-1485 -1487 2117 0
-1490 2118 0
-1491 2119 0
-1488 2118 0
-1489 2119 0
-1488 -1490 2119 0
-1488 -1491 2120 0
-1489 -1490 2120 0
-1489 -1491 2121 0
-1494 2122 0
-1495 2123 0
-1492 2122 0
-1493 2123 0
-1492 -1494 2123 0
-1492 -1495 2124 0
-1493 -1494 2124 0
-1493 -1495 2125 0
-1498 2126 0
-1499 2127 0
-1496 2126 0
-1497 2127 0
-1496 -1498 2127 0
-1496 -1499 2128 0
-1497 -1498 2128 0
-1497 -1499 2129 0
-1502 2130 0
-1503 2131 0
-1500 2130 0
-1501 2131 0
-1500 -1502 2131 0
-1500 -1503 2132 0
-1501 -1502 2132 0
-1501 -1503 2133 0
-1506 2134 0
-1507 2135 0
-1504 2134 0
-1505 2135 0
-1504 -1506 2135 0
-1504 -1507 2136 0
-1505 -1506 2136 0
-1505 -1507 2137 0
-1510 2138 0
-1511 2139 0
-1508 2138 0
-1509 2139 0
-1508 -1510 2139 0
-1508 -1511 2140 0
-1509 -1510 2140 0
-1509 -1511 2141 0
-1514 2142 0
-1515 2143 0
-1512 2142 0
-1513 2143 0
-1512 -1514 2143 0
-1512 -1515 2144 0
-1513 -1514 2144 0
-1513 -1515 2145 0
-1518 2146 0
-1519 2147 0
-1516 2146 0
-1517 2147 0
-1516 -1518 2147 0
-1516 -1519 2148 0
-1517 -1518 2148 0
-1517 -1519 2149 0
-1522 2150 0
-1523 2151 0
-1520 2150 0
-1521 2151 0
-1520 -1522 2151 0
-1520 -1523 2152 0
-1521 -1522 2152 0
-1521 -1523 2153 0
-1526 2154 0
-1527 2155 0
-1524 2154 0
-1525 2155 0
-1524 -1526 2155 0
-1524 -1527 2156 0
-1525 -1526 2156 0
-1525 -1527 2157 0
-1530 2158 0
-1531 2159 0
-1528 2158 0
-1529 2159 0
-1528 -1530 2159 0
-1528 -1531 2160 0
-1529 -1530 2160 0
-1529 -1531 2161 0
-1534 2162 0
-1535 2163 0
-1532 2162 0
-1533 2163 0
-1532 -1534 2163 0
-1532 -1535 2164 0
-1533 -1534 2164 0
-1533 -1535 2165 0
-1538 2166 0
-1539 2167 0
-1536 2166 0
-1537 2167 0
-1536 -1538 2167 0
-1536 -1539 2168 0
-1537 -1538 2168 0
-1537 -1539 2169 0
-1542 2170 0
-1543 2171 0
-1540 2170 0
-1541 2171 0
-1540 -1542 2171 0
-1540 -1543 2172 0
-1541 -1542 2172 0
-1541 -1543 2173 0
-1546 2174 0
-1547 2175 0
-1544 2174 0
-1545 2175 0
-1544 -1546 2175 0
-1544 -1547 2176 0
-1545 -1546 2176 0
-1545 -1547 2177 0
-1550 2178 0
-1551 2179 0
-1548 2178 0
-1549 2179 0
-1548 -1550 2179 0
-1548 -1551 2180 0
-1549 -1550 2180 0
-1549 -1551 2181 0
-1554 2182 0
-1555 2183 0
-1552 2182 0
-1553 2183 0
-1552 -1554 2183 0
-1552 -1555 2184 0
-1553 -1554 2184 0
-1553 -1555 2185 0
-1558 2186 0
-1559 2187 0
-1556 2186 0
-1557 2187 0
-1556 -1558 2187 0
-1556 -1559 2188 0
-1557 -1558 2188 0
-1557 -1559 2189 0
-1562 2190 0
-1563 2191 0
-1560 2190 0
-1561 2191 0
-1560 -1562 2191 0
-1560 -1563 2192 0
-1561 -1562 2192 0
-1561 -1563 2193 0
-1566 2194 0
-1567 2195 0
-1564 2194 0
-1565 2195 0
-1564 -1566 2195 0
-1564 -1567 2196 0
-1565 -1566 2196 0
-1565 -1567 2197 0
-1570 2198 0
-1571 2199 0
-1568 2198 0
-1569 2199 0
-1568 -1570 2199 0
-1568 -1571 2200 0
-1569 -1570 2200 0
-1569 -1571 2201 0
-1574 2202 0
-1575 2203 0
-1572 2202 0
-1573 2203 0
-1572 -1574 2203 0
-1572 -1575 2204 0
-1573 -1574 2204 0
-1573 -1575 2205 0
-1578 2206 0
-1579 2207 0
-1576 2206 0
-1577 2207 0
-1576 -1578 2207 0
-1576 -1579 2208 0
-1577 -1578 2208 0
-1577 -1579 2209 0
-1582 2210 0
-1583 2211 0
-1580 2210 0
-1581 2211 0
-1580 -1582 2211 0
-1580 -1583 2212 0
-1581 -1582 2212 0
-1581 -1583 2213 0
-1586 2214 0
-1587 2215 0
-1584 2214 0
-1585 2215 0
-1584 -1586 2215 0
-1584 -1587 2216 0
-1585 -1586 2216 0
-1585 -1587 2217 0
-1590 2218 0
-1591 2219 0
-1588 2218 0
-1589 2219 0
-1588 -1590 2219 0
-1588 -1591 2220 0
-1589 -1590 2220 0
-1589 -1591 2221 0
-1594 2222 0
-1595 2223 0
-1592 2222 0
-1593 2223 0
-1592 -1594 2223 0
-1592 -1595 2224 0
-1593 -1594 2224 0
-1593 -1595 2225 0
-1598 2226 0
-1599 2227 0
-1596 2226 0
-1597 2227 0
-1596 -1598 2227 0
-1596 -1599 2228 0
-1597 -1598 2228 0
-1597 -1599 2229 0
-1602 2230 0
-1603 2231 0
-1600 2230 0
-1601 2231 0
-1600 -1602 2231 0
-1600 -1603 2232 0
-1601 -1602 2232 0
-1601 -1603 2233 0
-1606 2234 0
-1607 2235 0
-1604 2234 0
-1605 2235 0
-1604 -1606 2235 0
-1604 -1607 2236 0
-1605 -1606 2236 0
-1605 -1607 2237 0
-1610 2238 0
-1611 2239 0
-1608 2238 0
-1609 2239 0
-1608 -1610 2239 0
-1608 -1611 2240 0
-1609 -1610 2240 0
-1609 -1611 2241 0
-1614 2242 0
-1615 2243 0
-1612 2242 0
-1613 2243 0
-1612 -1614 2243 0
-1612 -1615 2244 0
-1613 -1614 2244 0
-1613 -1615 2245 0
-1618 2246 0
-1619 2247 0
-1616 2246 0
-1617 2247 0
-1616 -1618 2247 0
-1616 -1619 2248 0
-1617 -1618 2248 0
-1617 -1619 2249 0
-1622 2250 0
-1623 2251 0
-1620 2250 0
-1621 2251 0
-1620 -1622 2251 0
-1620 -1623 2252 0
-1621 -1622 2252 0
-1621 -1623 2253 0
-1626 2254 0
-1627 2255 0
-1624 2254 0
-1625 2255 0
-1624 -1626 2255 0
-1624 -1627 2256 0
-1625 -1626 2256 0
-1625 -1627 2257 0
-1630 2258 0
-1631 2259 0
-1628 2258 0
-1629 2259 0
-1628 -1630 2259 0
-1628 -1631 2260 0
-1629 -1630 2260 0
-1629 -1631 2261 0
-1634 2262 0
-1635 2263 0
-1632 2262 0
-1633 2263 0
-1632 -1634 2263 0
-1632 -1635 2264 0
-1633 -1634 2264 0
-1633 -1635 2265 0
-1638 2266 0
-1639 2267 0
-1636 2266 0
-1637 2267 0
-1636 -1638 2267 0
-1636 -1639 2268 0
-1637 -1638 2268 0
-1637 -1639 2269 0
-1642 2270 0
-1643 2271 0
-1640 2270 0
-1641 2271 0
-1640 -1642 2271 0
-1640 -1643 2272 0
-1641 -1642 2272 0
-1641 -1643 2273 0
-1646 2274 0
-1647 2275 0
-1644 2274 0
-1645 2275 0
-1644 -1646 2275 0
-1644 -1647 2276 0
-1645 -1646 2276 0
-1645 -1647 2277 0
-1650 2278 0
-1651 2279 0
-1648 2278 0
-1649 2279 0
-1648 -1650 2279 0
-1648 -1651 2280 0
-1649 -1650 2280 0
-1649 -1651 2281 0
-1654 2282 0
-1655 2283 0
-1652 2282 0
-1653 2283 0
-1652 -1654 2283 0
-1652 -1655 2284 0
-1653 -1654 2284 0
-1653 -1655 2285 0
-1658 2286 0
-1659 2287 0
-1656 2286 0
-1657 2287 0
-1656 -1658 2287 0
-1656 -1659 2288 0
-1657 -1658 2288 0
-1657 -1659 2289 0
-1662 2290 0
-1663 2291 0
-1660 2290 0
-1661 2291 0
-1660 -1662 2291 0
-1660 -1663 2292 0
-1661 -1662 2292 0
-1661 -1663 2293 0
-1666 2294 0
-1667 2295 0
-1664 2294 0
-1665 2295 0
-1664 -1666 2295 0
-1664 -1667 2296 0
-1665 -1666 2296 0
-1665 -1667 2297 0
-1670 2298 0
-1671 2299 0
-1668 2298 0
-1669 2299 0
-1668 -1670 2299 0
-1668 -1671 2300 0
-1669 -1670 2300 0
-1669 -1671 2301 0
-1674 2302 0
-1675 2303 0
-1672 2302 0
-1673 2303 0
-1672 -1674 2303 0
-1672 -1675 2304 0
-1673 -1674 2304 0
-1673 -1675 2305 0
-1678 2306 0
-1679 2307 0
-1676 2306 0
-1677 2307 0
-1676 -1678 2307 0
-1676 -1679 2308 0
-1677 -1678 2308 0
-1677 -1679 2309 0
-1682 2310 0
-1683 2311 0
-1680 2310 0
-1681 2311 0
-1680 -1682 2311 0
-1680 -1683 2312 0
-1681 -1682 2312 0
-1681 -1683 2313 0
-1686 2314 0
-1687 2315 0
-1684 2314 0
-1685 2315 0
-1684 -1686 2315 0
-1684 -1687 2316 0
-1685 -1686 2316 0
-1685 -1687 2317 0
-1690 2318 0
-1691 2319 0
-1688 2318 0
-1689 2319 0
-1688 -1690 2319 0
-1688 -1691 2320 0
-1689 -1690 2320 0
-1689 -1691 2321 0
-1694 2322 0
-1695 2323 0
-1692 2322 0
-1693 2323 0
-1692 -1694 2323 0
-1692 -1695 2324 0
-1693 -1694 2324 0
-1693 -1695 2325 0
-1698 2326 0
-1699 2327 0
-1696 2326 0
-1697 2327 0
-1696 -1698 2327 0
-1696 -1699 2328 0
-1697 -1698 2328 0
-1697 -1699 2329 0
-1702 2330 0
-1703 2331 0
-1700 2330 0
-1701 2331 0
-1700 -1702 2331 0
-1700 -1703 2332 0
-1701 -1702 2332 0
-1701 -1703 2333 0
-1706 2334 0
-1707 2335 0
-1704 2334 0
-1705 2335 0
-1704 -1706 2335 0
-1704 -1707 2336 0
-1705 -1706 2336 0
-1705 -1707 2337 0
-1710 2338 0
-1711 2339 0
-1708 2338 0
-1709 2339 0
-1708 -1710 2339 0
-1708 -1711 2340 0
-1709 -1710 2340 0
-1709 -1711 2341 0
-1714 2342 0
-1715 2343 0
-1712 2342 0
-1713 2343 0
-1712 -1714 2343 0
-1712 -1715 2344 0
-1713 -1714 2344 0
-1713 -1715 2345 0
-1718 2346 0
-1719 2347 0
-1716 2346 0
-1717 2347 0
-1716 -1718 2347 0
-1716 -1719 2348 0
-1717 -1718 2348 0
-1717 -1719 2349 0
-1722 2350 0
-1723 2351 0
-1720 2350 0
-1721 2351 0
-1720 -1722 2351 0
-1720 -1723 2352 0
-1721 -1722 2352 0
-1721 -1723 2353 0
-1726 2354 0
-1727 2355 0
-1724 2354 0
-1725 2355 0
-1724 -1726 2355 0
-1724 -1727 2356 0
-1725 -1726 2356 0
-1725 -1727 2357 0
-1730 2358 0
-1731 2359 0
-1728 2358 0
-1729 2359 0
-1728 -1730 2359 0
-1728 -1731 2360 0
-1729 -1730 2360 0
-1729 -1731 2361 0
-1734 2362 0
-1735 2363 0
-1732 2362 0
-1733 2363 0
-1732 -1734 2363 0
-1732 -1735 2364 0
-1733 -1734 2364 0
-1733 -1735 2365 0
-1738 2366 0
-1739 2367 0
-1736 2366 0
-1737 2367 0
-1736 -1738 2367 0
-1736 -1739 2368 0
-1737 -1738 2368 0
-1737 -1739 2369 0
-1742 2370 0
-1743 2371 0
-1740 2370 0
-1741 2371 0
-1740 -1742 2371 0
-1740 -1743 2372 0
-1741 -1742 2372 0
-1741 -1743 2373 0
-1746 2374 0
-1747 2375 0
-1744 2374 0
-1745 2375 0
-1744 -1746 2375 0
-1744 -1747 2376 0
-1745 -1746 2376 0
-1745 -1747 2377 0
-1750 2378 0
-1751 2379 0
-1748 2378 0
-1749 2379 0
-1748 -1750 2379 0
-1748 -1751 2380 0
-1749 -1750 2380 0
-1749 -1751 2381 0
-1754 2382 0
-1755 2383 0
-1752 2382 0
-1753 2383 0
-1752 -1754 2383 0
-1752 -1755 2384 0
-1753 -1754 2384 0
-1753 -1755 2385 0
-1758 2386 0
-1759 2387 0
-1756 2386 0
-1757 2387 0
-1756 -1758 2387 0
-1756 -1759 2388 0
-1757 -1758 2388 0
-1757 -1759 2389 0
-1762 2390 0
-1763 2391 0
-1760 2390 0
-1761 2391 0
-1760 -1762 2391 0
-1760 -1763 2392 0
-1761 -1762 2392 0
-1761 -1763 2393 0
-1766 2394 0
-1767 2395 0
-1768 2396 0
-1769 2397 0
-1764 2394 0
-1765 2395 0
-1764 -1766 2395 0
-1764 -1767 2396 0
-1764 -1768 2397 0
-1765 -1766 2396 0
-1765 -1767 2397 0
-1774 2398 0
-1775 2399 0
-1776 2400 0
-1777 2401 0
-1770 2398 0
-1771 2399 0
-1772 2400 0
-1773 2401 0
-1770 -1774 2399 0
-1770 -1775 2400 0
-1770 -1776 2401 0
-1771 -1774 2400 0
-1771 -1775 2401 0
-1772 -1774 2401 0
-1782 2402 0
-1783 2403 0
-1784 2404 0
-1785 2405 0
-1778 2402 0
-1779 2403 0
-1780 2404 0
-1781 2405 0
-1778 -1782 2403 0
-1778 -1783 2404 0
-1778 -1784 2405 0
-1779 -1782 2404 0
-1779 -1783 2405 0
-1780 -1782 2405 0
-1790 2406 0
-1791 2407 0
-1792 2408 0
-1793 2409 0
-1786 2406 0
-1787 2407 0
-1788 2408 0
-1789 2409 0
-1786 -1790 2407 0
-1786 -1791 2408 0
-1786 -1792 2409 0
-1787 -1790 2408 0
-1787 -1791 2409 0
-1788 -1790 2409 0
-1798 2410 0
-1799 2411 0
-1800 2412 0
-1801 2413 0
-1794 2410 0
-1795 2411 0
-1796 2412 0
-1797 2413 0
-1794 -1798 2411 0
-1794 -1799 2412 0
-1794 -1800 2413 0
-1795 -1798 2412 0
-1795 -1799 2413 0
-1796 -1798 2413 0
-1806 2414 0
-1807 2415 0
-1808 2416 0
-1809 2417 0
-1802 2414 0
-1803 2415 0
-1804 2416 0
-1805 2417 0
-1802 -1806 2415 0
-1802 -1807 2416 0
-1802 -1808 2417 0
-1803 -1806 2416 0
-1803 -1807 2417 0
-1804 -1806 2417 0
-1814 2418 0
-1815 2419 0
-1816 2420 0
-1817 2421 0
-1810 2418 0
-1811 2419 0
-1812 2420 0
-1813 2421 0
-1810 -1814 2419 0
-1810 -1815 2420 0
-1810 -1816 2421 0
-1811 -1814 2420 0
-1811 -1815 2421 0
-1812 -1814 2421 0
-1822 2422 0
-1823 2423 0
-1824 2424 0
-1825 2425 0
-1818 2422 0
-1819 2423 0
-1820 2424 0
-1821 2425 0
-1818 -1822 2423 0
-1818 -1823 2424 0
-1818 -1824 2425 0
-1819 -1822 2424 0
-1819 -1823 2425 0
-1820 -1822 2425 0
-1830 2426 0
-1831 2427 0
-1832 2428 0
-1833 2429 0
-1826 2426 0
-1827 2427 0
-1828 2428 0
-1829 2429 0
-1826 -1830 2427 0
-1826 -1831 2428 0
-1826 -1832 2429 0
-1827 -1830 2428 0
-1827 -1831 2429 0
-1828 -1830 2429 0
-1838 2430 0
-1839 2431 0
-1840 2432 0
-1841 2433 0
-1834 2430 0
-1835 2431 0
-1836 2432 0
-1837 2433 0
-1834 -1838 2431 0
-1834 -1839 2432 0
-1834 -1840 2433 0
-1835 -1838 2432 0
-1835 -1839 2433 0
-1836 -1838 2433 0
-1846 2434 0
-1847 2435 0
-1848 2436 0
-1849 2437 0
-1842 2434 0
-1843 2435 0
-1844 2436 0
-1845 2437 0
-1842 -1846 2435 0
-1842 -1847 2436 0
-1842 -1848 2437 0
-1843 -1846 2436 0
-1843 -1847 2437 0
-1844 -1846 2437 0
-1854 2438 0
-1855 2439 0
-1856 2440 0
-1857 2441 0
-1850 2438 0
-1851 2439 0
-1852 2440 0
-1853 2441 0
-1850 -1854 2439 0
-1850 -1855 2440 0
-1850 -1856 2441 0
-1851 -1854 2440 0
-1851 -1855 2441 0
-1852 -1854 2441 0
-1862 2442 0
-1863 2443 0
-1864 2444 0
-1865 2445 0
-1858 2442 0
-1859 2443 0
-1860 2444 0
-1861 2445 0
-1858 -1862 2443 0
-1858 -1863 2444 0
-1858 -1864 2445 0
-1859 -1862 2444 0
-1859 -1863 2445 0
-1860 -1862 2445 0
-1870 2446 0
-1871 2447 0
-1872 2448 0
-1873 2449 0
-1866 2446 0
-1867 2447 0
-1868 2448 0
-1869 2449 0
-1866 -1870 2447 0
-1866 -1871 2448 0
-1866 -1872 2449 0
-1867 -1870 2448 0
-1867 -1871 2449 0
-1868 -1870 2449 0
-1878 2450 0
-1879 2451 0
-1880 2452 0
-1881 2453 0
-1874 2450 0
-1875 2451 0
-1876 2452 0
-1877 2453 0
-1874 -1878 2451 0
-1874 -1879 2452 0
-1874 -1880 2453 0
-1875 -1878 2452 0
-1875 -1879 2453 0
-1876 -1878 2453 0
-1886 2454 0
-1887 2455 0
-1888 2456 0
-1889 2457 0
-1882 2454 0
-1883 2455 0
-1884 2456 0
-1885 2457 0
-1882 -1886 2455 0
-1882 -1887 2456 0
-1882 -1888 2457 0
-1883 -1886 2456 0
-1883 -1887 2457 0
-1884 -1886 2457 0
-1894 2458 0
-1895 2459 0
-1896 2460 0
-1897 2461 0
-1890 2458 0
-1891 2459 0
-1892 2460 0
-1893 2461 0
-1890 -1894 2459 0
-1890 -1895 2460 0
-1890 -1896 2461 0
-1891 -1894 2460 0
-1891 -1895 2461 0
-1892 -1894 2461 0
-1902 2462 0
-1903 2463 0
-1904 2464 0
-1905 2465 0
-1898 2462 0
-1899 2463 0
-1900 2464 0
-1901 2465 0
-1898 -1902 2463 0
-1898 -1903 2464 0
-1898 -1904 2465 0
-1899 -1902 2464 0
-1899 -1903 2465 0
-1900 -1902 2465 0
-1910 2466 0
-1911 2467 0
-1912 2468 0
-1913 2469 0
-1906 2466 0
-1907 2467 0
-1908 2468 0
-1909 2469 0
-1906 -1910 2467 0
-1906 -1911 2468 0
-1906 -1912 2469 0
-1907 -1910 2468 0
-1907 -1911 2469 0
-1908 -1910 2469 0
-1918 2470 0
-1919 2471 0
-1920 2472 0
-1921 2473 0
-1914 2470 0
-1915 2471 0
-1916 2472 0
-1917 2473 0
-1914 -1918 2471 0
-1914 -1919 2472 0
-1914 -1920 2473 0
-1915 -1918 2472 0
-1915 -1919 2473 0
-1916 -1918 2473 0
-1926 2474 0
-1927 2475 0
-1928 2476 0
-1929 2477 0
-1922 2474 0
-1923 2475 0
-1924 2476 0
-1925 2477 0
-1922 -1926 2475 0
-1922 -1927 2476 0
-1922 -1928 2477 0
-1923 -1926 2476 0
-1923 -1927 2477 0
-1924 -1926 2477 0
-1934 2478 0
-1935 2479 0
-1936 2480 0
-1937 2481 0
-1930 2478 0
-1931 2479 0
-1932 2480 0
-1933 2481 0
-1930 -1934 2479 0
-1930 -1935 2480 0
-1930 -1936 2481 0
-1931 -1934 2480 0
-1931 -1935 2481 0
-1932 -1934 2481 0
-1942 2482 0
-1943 2483 0
-1944 2484 0
-1945 2485 0
-1938 2482 0
-1939 2483 0
-1940 2484 0
-1941 2485 0
-1938 -1942 2483 0
-1938 -1943 2484 0
-1938 -1944 2485 0
-1939 -1942 2484 0
-1939 -1943 2485 0
-1940 -1942 2485 0
-1950 2486 0
-1951 2487 0
-1952 2488 0
-1953 2489 0
-1946 2486 0
-1947 2487 0
-1948 2488 0
-1949 2489 0
-1946 -1950 2487 0
-1946 -1951 2488 0
-1946 -1952 2489 0
-1947 -1950 2488 0
-1947 -1951 2489 0
-1948 -1950 2489 0
-1958 2490 0
-1959 2491 0
-1960 2492 0
-1961 2493 0
-1954 2490 0
-1955 2491 0
-1956 2492 0
-1957 2493 0
-1954 -1958 2491 0
-1954 -1959 2492 0
-1954 -1960 2493 0
-1955 -1958 2492 0
-1955 -1959 2493 0
-1956 -1958 2493 0
-1966 2494 0
-1967 2495 0
-1968 2496 0
-1969 2497 0
-1962 2494 0
-1963 2495 0
-1964 2496 0
-1965 2497 0
-1962 -1966 2495 0
-1962 -1967 2496 0
-1962 -1968 2497 0
-1963 -1966 2496 0
-1963 -1967 2497 0
-1964 -1966 2497 0
-1974 2498 0
-1975 2499 0
-1976 2500 0
-1977 2501 0
-1970 2498 0
-1971 2499 0
-1972 2500 0
-1973 2501 0
-1970 -1974 2499 0
-1970 -1975 2500 0
-1970 -1976 2501 0
-1971 -1974 2500 0
-1971 -1975 2501 0
-1972 -1974 2501 0
-1982 2502 0
-1983 2503 0
-1984 2504 0
-1985 2505 0
-1978 2502 0
-1979 2503 0
-1980 2504 0
-1981 2505 0
-1978 -1982 2503 0
-1978 -1983 2504 0
-1978 -1984 2505 0
-1979 -1982 2504 0
-1979 -1983 2505 0
-1980 -1982 2505 0
-1990 2506 0
-1991 2507 0
-1992 2508 0
-1993 2509 0
-1986 2506 0
-1987 2507 0
-1988 2508 0
-1989 2509 0
-1986 -1990 2507 0
-1986 -1991 2508 0
-1986 -1992 2509 0
-1987 -1990 2508 0
-1987 -1991 2509 0
-1988 -1990 2509 0
-1998 2510 0
-1999 2511 0
-2000 2512 0
-2001 2513 0
-1994 2510 0
-1995 2511 0
-1996 2512 0
-1997 2513 0
-1994 -1998 2511 0
-1994 -1999 2512 0
-1994 -2000 2513 0
-1995 -1998 2512 0
-1995 -1999 2513 0
-1996 -1998 2513 0
-2006 2514 0
-2007 2515 0
-2008 2516 0
-2009 2517 0
-2002 2514 0
-2003 2515 0
-2004 2516 0
-2005 2517 0
-2002 -2006 2515 0
-2002 -2007 2516 0
-2002 -2008 2517 0
-2003 -2006 2516 0
-2003 -2007 2517 0
-2004 -2006 2517 0
-2014 2518 0
-2015 2519 0
-2016 2520 0
-2017 2521 0
-2010 2518 0
-2011 2519 0
-2012 2520 0
-2013 2521 0
-2010 -2014 2519 0
-2010 -2015 2520 0
-2010 -2016 2521 0
-2011 -2014 2520 0
-2011 -2015 2521 0
-2012 -2014 2521 0
-2022 2522 0
-2023 2523 0
-2024 2524 0
-2025 2525 0
-2018 2522 0
-2019 2523 0
-2020 2524 0
-2021 2525 0
-2018 -2022 2523 0
-2018 -2023 2524 0
-2018 -2024 2525 0
-2019 -2022 2524 0
-2019 -2023 2525 0
-2020 -2022 2525 0
-2030 2526 0
-2031 2527 0
-2032 2528 0
-2033 2529 0
-2026 2526 0
-2027 2527 0
-2028 2528 0
-2029 2529 0
-2026 -2030 2527 0
-2026 -2031 2528 0
-2026 -2032 2529 0
-2027 -2030 2528 0
-2027 -2031 2529 0
-2028 -2030 2529 0
-2038 2530 0
-2039 2531 0
-2040 2532 0
-2041 2533 0
-2034 2530 0
-2035 2531 0
-2036 2532 0
-2037 2533 0
-2034 -2038 2531 0
-2034 -2039 2532 0
-2034 -2040 2533 0
-2035 -2038 2532 0
-2035 -2039 2533 0
-2036 -2038 2533 0
-2046 2534 0
-2047 2535 0
-2048 2536 0
-2049 2537 0
-2042 2534 0
-2043 2535 0
-2044 2536 0
-2045 2537 0
-2042 -2046 2535 0
-2042 -2047 2536 0
-2042 -2048 2537 0
-2043 -2046 2536 0
-2043 -2047 2537 0
-2044 -2046 2537 0
-2054 2538 0
-2055 2539 0
-2056 2540 0
-2057 2541 0
-2050 2538 0
-2051 2539 0
-2052 2540 0
-2053 2541 0
-2050 -2054 2539 0
-2050 -2055 2540 0
-2050 -2056 2541 0
-2051 -2054 2540 0
-2051 -2055 2541 0
-2052 -2054 2541 0
-2062 2542 0
-2063 2543 0
-2064 2544 0
-2065 2545 0
-2058 2542 0
-2059 2543 0
-2060 2544 0
-2061 2545 0
-2058 -2062 2543 0
-2058 -2063 2544 0
-2058 -2064 2545 0
-2059 -2062 2544 0
-2059 -2063 2545 0
-2060 -2062 2545 0
-2070 2546 0
-2071 2547 0
-2072 2548 0
-2073 2549 0
-2066 2546 0
-2067 2547 0
-2068 2548 0
-2069 2549 0
-2066 -2070 2547 0
-2066 -2071 2548 0
-2066 -2072 2549 0
-2067 -2070 2548 0
-2067 -2071 2549 0
-2068 -2070 2549 0
-2078 2550 0
-2079 2551 0
-2080 2552 0
-2081 2553 0
-2074 2550 0
-2075 2551 0
-2076 2552 0
-2077 2553 0
-2074 -2078 2551 0
-2074 -2079 2552 0
-2074 -2080 2553 0
-2075 -2078 2552 0
-2075 -2079 2553 0
-2076 -2078 2553 0
-2086 2554 0
-2087 2555 0
-2088 2556 0
-2089 2557 0
-2082 2554 0
-2083 2555 0
-2084 2556 0
-2085 2557 0
-2082 -2086 2555 0
-2082 -2087 2556 0
-2082 -2088 2557 0
-2083 -2086 2556 0
-2083 -2087 2557 0
-2084 -2086 2557 0
-2094 2558 0
-2095 2559 0
-2096 2560 0
-2097 2561 0
-2090 2558 0
-2091 2559 0
-2092 2560 0
-2093 2561 0
-2090 -2094 2559 0
-2090 -2095 2560 0
-2090 -2096 2561 0
-2091 -2094 2560 0
-2091 -2095 2561 0
-2092 -2094 2561 0
-2102 2562 0
-2103 2563 0
-2104 2564 0
-2105 2565 0
-2098 2562 0
-2099 2563 0
-2100 2564 0
-2101 2565 0
-2098 -2102 2563 0
-2098 -2103 2564 0
-2098 -2104 2565 0
-2099 -2102 2564 0
-2099 -2103 2565 0
-2100 -2102 2565 0
-2110 2566 0
-2111 2567 0
-2112 2568 0
-2113 2569 0
-2106 2566 0
-2107 2567 0
-2108 2568 0
-2109 2569 0
-2106 -2110 2567 0
-2106 -2111 2568 0
-2106 -2112 2569 0
-2107 -2110 2568 0
-2107 -2111 2569 0
-2108 -2110 2569 0
-2118 2570 0
-2119 2571 0
-2120 2572 0
-2121 2573 0
-2114 2570 0
-2115 2571 0
-2116 2572 0
-2117 2573 0
-2114 -2118 2571 0
-2114 -2119 2572 0
-2114 -2120 2573 0
-2115 -2118 2572 0
-2115 -2119 2573 0
-2116 -2118 2573 0
-2126 2574 0
-2127 2575 0
-2128 2576 0
-2129 2577 0
-2122 2574 0
-2123 2575 0
-2124 2576 0
-2125 2577 0
-2122 -2126 2575 0
-2122 -2127 2576 0
-2122 -2128 2577 0
-2123 -2126 2576 0
-2123 -2127 2577 0
-2124 -2126 2577 0
-2134 2578 0
-2135 2579 0
-2136 2580 0
-2137 2581 0
-2130 2578 0
-2131 2579 0
-2132 2580 0
-2133 2581 0
-2130 -2134 2579 0
-2130 -2135 2580 0
-2130 -2136 2581 0
-2131 -2134 2580 0
-2131 -2135 2581 0
-2132 -2134 2581 0
-2142 2582 0
-2143 2583 0
-2144 2584 0
-2145 2585 0
-2138 2582 0
-2139 2583 0
-2140 2584 0
-2141 2585 0
-2138 -2142 2583 0
-2138 -2143 2584 0
-2138 -2144 2585 0
-2139 -2142 2584 0
-2139 -2143 2585 0
-2140 -2142 2585 0
-2150 2586 0
-2151 2587 0
-2152 2588 0
-2153 2589 0
-2146 2586 0
-2147 2587 0
-2148 2588 0
-2149 2589 0
-2146 -2150 2587 0
-2146 -2151 2588 0
-2146 -2152 2589 0
-2147 -2150 2588 0
-2147 -2151 2589 0
-2148 -2150 2589 0
-2158 2590 0
-2159 2591 0
-2160 2592 0
-2161 2593 0
-2154 2590 0
-2155 2591 0
-2156 2592 0
-2157 2593 0
-2154 -2158 2591 0
-2154 -2159 2592 0
-2154 -2160 2593 0
-2155 -2158 2592 0
-2155 -2159 2593 0
-2156 -2158 2593 0
-2166 2594 0
-2167 2595 0
-2168 2596 0
-2169 2597 0
-2162 2594 0
-2163 2595 0
-2164 2596 0
-2165 2597 0
-2162 -2166 2595 0
-2162 -2167 2596 0
-2162 -2168 2597 0
-2163 -2166 2596 0
-2163 -2167 2597 0
-2164 -2166 2597 0
-2174 2598 0
-2175 2599 0
-2176 2600 0
-2177 2601 0
-2170 2598 0
-2171 2599 0
-2172 2600 0
-2173 2601 0
-2170 -2174 2599 0
-2170 -2175 2600 0
-2170 -2176 2601 0
-2171 -2174 2600 0
-2171 -2175 2601 0
-2172 -2174 2601 0
-2182 2602 0
-2183 2603 0
-2184 2604 0
-2185 2605 0
-2178 2602 0
-2179 2603 0
-2180 2604 0
-2181 2605 0
-2178 -2182 2603 0
-2178 -2183 2604 0
-2178 -2184 2605 0
-2179 -2182 2604 0
-2179 -2183 2605 0
-2180 -2182 2605 0
-2190 2606 0
-2191 2607 0
-2192 2608 0
-2193 2609 0
-2186 2606 0
-2187 2607 0
-2188 2608 0
-2189 2609 0
-2186 -2190 2607 0
-2186 -2191 2608 0
-2186 -2192 2609 0
-2187 -2190 2608 0
-2187 -2191 2609 0
-2188 -2190 2609 0
-2198 2610 0
-2199 2611 0
-2200 2612 0
-2201 2613 0
-2194 2610 0
-2195 2611 0
-2196 2612 0
-2197 2613 0
-2194 -2198 2611 0
-2194 -2199 2612 0
-2194 -2200 2613 0
-2195 -2198 2612 0
-2195 -2199 2613 0
-2196 -2198 2613 0
-2206 2614 0
-2207 2615 0
-2208 2616 0
-2209 2617 0
-2202 2614 0
-2203 2615 0
-2204 2616 0
-2205 2617 0
-2202 -2206 2615 0
-2202 -2207 2616 0
-2202 -2208 2617 0
-2203 -2206 2616 0
-2203 -2207 2617 0
-2204 -2206 2617 0
-2214 2618 0
-2215 2619 0
-2216 2620 0
-2217 2621 0
-2210 2618 0
-2211 2619 0
-2212 2620 0
-2213 2621 0
-2210 -2214 2619 0
-2210 -2215 2620 0
-2210 -2216 2621 0
-2211 -2214 2620 0
-2211 -2215 2621 0
-2212 -2214 2621 0
-2222 2622 0
-2223 2623 0
-2224 2624 0
-2225 2625 0
-2218 2622 0
-2219 2623 0
-2220 2624 0
-2221 2625 0
-2218 -2222 2623 0
-2218 -2223 2624 0
-2218 -2224 2625 0
-2219 -2222 2624 0
-2219 -2223 2625 0
-2220 -2222 2625 0
-2230 2626 0
-2231 2627 0
-2232 2628 0
-2233 2629 0
-2226 2626 0
-2227 2627 0
-2228 2628 0
-2229 2629 0
-2226 -2230 2627 0
-2226 -2231 2628 0
-2226 -2232 2629 0
-2227 -2230 2628 0
-2227 -2231 2629 0
-2228 -2230 2629 0
-2238 2630 0
-2239 2631 0
-2240 2632 0
-2241 2633 0
-2234 2630 0
-2235 2631 0
-2236 2632 0
-2237 2633 0
-2234 -2238 2631 0
-2234 -2239 2632 0
-2234 -2240 2633 0
-2235 -2238 2632 0
-2235 -2239 2633 0
-2236 -2238 2633 0
-2246 2634 0
-2247 2635 0
-2248 2636 0
-2249 2637 0
-2242 2634 0
-2243 2635 0
-2244 2636 0
-2245 2637 0
-2242 -2246 2635 0
-2242 -2247 2636 0
-2242 -2248 2637 0
-2243 -2246 2636 0
-2243 -2247 2637 0
-2244 -2246 2637 0
-2254 2638 0
-2255 2639 0
-2256 2640 0
-2257 2641 0
-2250 2638 0
-2251 2639 0
-2252 2640 0
-2253 2641 0
-2250 -2254 2639 0
-2250 -2255 2640 0
-2250 -2256 2641 0
-2251 -2254 2640 0
-2251 -2255 2641 0
-2252 -2254 2641 0
-2262 2642 0
-2263 2643 0
-2264 2644 0
-2265 2645 0
-2258 2642 0
-2259 2643 0
-2260 2644 0
-2261 2645 0
-2258 -2262 2643 0
-2258 -2263 2644 0
-2258 -2264 2645 0
-2259 -2262 2644 0
-2259 -2263 2645 0
-2260 -2262 2645 0
-2270 2646 0
-2271 2647 0
-2272 2648 0
-2273 2649 0
-2266 2646 0
-2267 2647 0
-2268 2648 0
-2269 2649 0
-2266 -2270 2647 0
-2266 -2271 2648 0
-2266 -2272 2649 0
-2267 -2270 2648 0
-2267 -2271 2649 0
-2268 -2270 2649 0
-2278 2650 0
-2279 2651 0
-2280 2652 0
-2281 2653 0
-2274 2650 0
-2275 2651 0
-2276 2652 0
-2277 2653 0
-2274 -2278 2651 0
-2274 -2279 2652 0
-2274 -2280 2653 0
-2275 -2278 2652 0
-2275 -2279 2653 0
-2276 -2278 2653 0
-2286 2654 0
-2287 2655 0
-2288 2656 0
-2289 2657 0
-2282 2654 0
-2283 2655 0
-2284 2656 0
-2285 2657 0
-2282 -2286 2655 0
-2282 -2287 2656 0
-2282 -2288 2657 0
-2283 -2286 2656 0
-2283 -2287 2657 0
-2284 -2286 2657 0
-2294 2658 0
-2295 2659 0
-2296 2660 0
-2297 2661 0
-2290 2658 0
-2291 2659 0
-2292 2660 0
-2293 2661 0
-2290 -2294 2659 0
-2290 -2295 2660 0
-2290 -2296 2661 0
-2291 -2294 2660 0
-2291 -2295 2661 0
-2292 -2294 2661 0
-2302 2662 0
-2303 2663 0
-2304 2664 0
-2305 2665 0
-2298 2662 0
-2299 2663 0
-2300 2664 0
-2301 2665 0
-2298 -2302 2663 0
-2298 -2303 2664 0
-2298 -2304 2665 0
-2299 -2302 2664 0
-2299 -2303 2665 0
-2300 -2302 2665 0
-2310 2666 0
-2311 2667 0
-2312 2668 0
-2313 2669 0
-2306 2666 0
-2307 2667 0
-2308 2668 0
-2309 2669 0
-2306 -2310 2667 0
-2306 -2311 2668 0
-2306 -2312 2669 0
-2307 -2310 2668 0
-2307 -2311 2669 0
-2308 -2310 2669 0
-2318 2670 0
-2319 2671 0
-2320 2672 0
-2321 2673 0
-2314 2670 0
-2315 2671 0
-2316 2672 0
-2317 2673 0
-2314 -2318 2671 0
-2314 -2319 2672 0
-2314 -2320 2673 0
-2315 -2318 2672 0
-2315 -2319 2673 0
-2316 -2318 2673 0
-2326 2674 0
-2327 2675 0
-2328 2676 0
-2329 2677 0
-2322 2674 0
-2323 2675 0
-2324 2676 0
-2325 2677 0
-2322 -2326 2675 0
-2322 -2327 2676 0
-2322 -2328 2677 0
-2323 -2326 2676 0
-2323 -2327 2677 0
-2324 -2326 2677 0
-2334 2678 0
-2335 2679 0
-2336 2680 0
-2337 2681 0
-2330 2678 0
-2331 2679 0
-2332 2680 0
-2333 2681 0
-2330 -2334 2679 0
-2330 -2335 2680 0
-2330 -2336 2681 0
-2331 -2334 2680 0
-2331 -2335 2681 0
-2332 -2334 2681 0
-2342 2682 0
-2343 2683 0
-2344 2684 0
-2345 2685 0
-2338 2682 0
-2339 2683 0
-2340 2684 0
-2341 2685 0
-2338 -2342 2683 0
-2338 -2343 2684 0
-2338 -2344 2685 0
-2339 -2342 2684 0
-2339 -2343 2685 0
-2340 -2342 2685 0
-2350 2686 0
-2351 2687 0
-2352 2688 0
-2353 2689 0
-2346 2686 0
-2347 2687 0
-2348 2688 0
-2349 2689 0
-2346 -2350 2687 0
-2346 -2351 2688 0
-2346 -2352 2689 0
-2347 -2350 2688 0
-2347 -2351 2689 0
-2348 -2350 2689 0
-2358 2690 0
-2359 2691 0
-2360 2692 0
-2361 2693 0
-2354 2690 0
-2355 2691 0
-2356 2692 0
-2357 2693 0
-2354 -2358 2691 0
-2354 -2359 2692 0
-2354 -2360 2693 0
-2355 -2358 2692 0
-2355 -2359 2693 0
-2356 -2358 2693 0
-2366 2694 0
-2367 2695 0
-2368 2696 0
-2369 2697 0
-2362 2694 0
-2363 2695 0
-2364 2696 0
-2365 2697 0
-2362 -2366 2695 0
-2362 -2367 2696 0
-2362 -2368 2697 0
-2363 -2366 2696 0
-2363 -2367 2697 0
-2364 -2366 2697 0
-2374 2698 0
-2375 2699 0
-2376 2700 0
-2377 2701 0
-2370 2698 0
-2371 2699 0
-2372 2700 0
-2373 2701 0
-2370 -2374 2699 0
-2370 -2375 2700 0
-2370 -2376 2701 0
-2371 -2374 2700 0
-2371 -2375 2701 0
-2372 -2374 2701 0
-2382 2702 0
-2383 2703 0
-2384 2704 0
-2385 2705 0
-2378 2702 0
-2379 2703 0
-2380 2704 0
-2381 2705 0
-2378 -2382 2703 0
-2378 -2383 2704 0
-2378 -2384 2705 0
-2379 -2382 2704 0
-2379 -2383 2705 0
-2380 -2382 2705 0
-2390 2706 0
-2391 2707 0
-2392 2708 0
-2393 2709 0
-2386 2706 0
-2387 2707 0
-2388 2708 0
-2389 2709 0
-2386 -2390 2707 0
-2386 -2391 2708 0
-2386 -2392 2709 0
-2387 -2390 2708 0
-2387 -2391 2709 0
-2388 -2390 2709 0
-2398 2710 0
-2399 2711 0
-2400 2712 0
-2401 2713 0
-2394 2710 0
-2395 2711 0
-2396 2712 0
-2397 2713 0
-2394 -2398 2711 0
-2394 -2399 2712 0
-2394 -2400 2713 0
-2395 -2398 2712 0
-2395 -2399 2713 0
-2396 -2398 2713 0
-2406 2714 0
-2407 2715 0
-2408 2716 0
-2409 2717 0
-2402 2714 0
-2403 2715 0
-2404 2716 0
-2405 2717 0
-2402 -2406 2715 0
-2402 -2407 2716 0
-2402 -2408 2717 0
-2403 -2406 2716 0
-2403 -2407 2717 0
-2404 -2406 2717 0
-2414 2718 0
-2415 2719 0
-2416 2720 0
-2417 2721 0
-2410 2718 0
-2411 2719 0
-2412 2720 0
-2413 2721 0
-2410 -2414 2719 0
-2410 -2415 2720 0
-2410 -2416 2721 0
-2411 -2414 2720 0
-2411 -2415 2721 0
-2412 -2414 2721 0
-2422 2722 0
-2423 2723 0
-2424 2724 0
-2425 2725 0
-2418 2722 0
-2419 2723 0
-2420 2724 0
-2421 2725 0
-2418 -2422 2723 0
-2418 -2423 2724 0
-2418 -2424 2725 0
-2419 -2422 2724 0
-2419 -2423 2725 0
-2420 -2422 2725 0
-2430 2726 0
-2431 2727 0
-2432 2728 0
-2433 2729 0
-2426 2726 0
-2427 2727 0
-2428 2728 0
-2429 2729 0
-2426 -2430 2727 0
-2426 -2431 2728 0
-2426 -2432 2729 0
-2427 -2430 2728 0
-2427 -2431 2729 0
-2428 -2430 2729 0
-2438 2730 0
-2439 2731 0
-2440 2732 0
-2441 2733 0
-2434 2730 0
-2435 2731 0
-2436 2732 0
-2437 2733 0
-2434 -2438 2731 0
-2434 -2439 2732 0
-2434 -2440 2733 0
-2435 -2438 2732 0
-2435 -2439 2733 0
-2436 -2438 2733 0
-2446 2734 0
-2447 2735 0
-2448 2736 0
-2449 2737 0
-2442 2734 0
-2443 2735 0
-2444 2736 0
-2445 2737 0
-2442 -2446 2735 0
-2442 -2447 2736 0
-2442 -2448 2737 0
-2443 -2446 2736 0
-2443 -2447 2737 0
-2444 -2446 2737 0
-2454 2738 0
-2455 2739 0
-2456 2740 0
-2457 2741 0
-2450 2738 0
-2451 2739 0
-2452 2740 0
-2453 2741 0
-2450 -2454 2739 0
-2450 -2455 2740 0
-2450 -2456 2741 0
-2451 -2454 2740 0
-2451 -2455 2741 0
-2452 -2454 2741 0
-2462 2742 0
-2463 2743 0
-2464 2744 0
-2465 2745 0
-2458 2742 0
-2459 2743 0
-2460 2744 0
-2461 2745 0
-2458 -2462 2743 0
-2458 -2463 2744 0
-2458 -2464 2745 0
-2459 -2462 2744 0
-2459 -2463 2745 0
-2460 -2462 2745 0
-2470 2746 0
-2471 2747 0
-2472 2748 0
-2473 2749 0
-2466 2746 0
-2467 2747 0
-2468 2748 0
-2469 2749 0
-2466 -2470 2747 0
-2466 -2471 2748 0
-2466 -2472 2749 0
-2467 -2470 2748 0
-2467 -2471 2749 0
-2468 -2470 2749 0
-2478 2750 0
-2479 2751 0
-2480 2752 0
-2481 2753 0
-2474 2750 0
-2475 2751 0
-2476 2752 0
-2477 2753 0
-2474 -2478 2751 0
-2474 -2479 2752 0
-2474 -2480 2753 0
-2475 -2478 2752 0
-2475 -2479 2753 0
-2476 -2478 2753 0
-2486 2754 0
-2487 2755 0
-2488 2756 0
-2489 2757 0
-2482 2754 0
-2483 2755 0
-2484 2756 0
-2485 2757 0
-2482 -2486 2755 0
-2482 -2487 2756 0
-2482 -2488 2757 0
-2483 -2486 2756 0
-2483 -2487 2757 0
-2484 -2486 2757 0
-2494 2758 0
-2495 2759 0
-2496 2760 0
-2497 2761 0
-2490 2758 0
-2491 2759 0
-2492 2760 0
-2493 2761 0
-2490 -2494 2759 0
-2490 -2495 2760 0
-2490 -2496 2761 0
-2491 -2494 2760 0
-2491 -2495 2761 0
-2492 -2494 2761 0
-2502 2762 0
-2503 2763 0
-2504 2764 0
-2505 2765 0
-2498 2762 0
-2499 2763 0
-2500 2764 0
-2501 2765 0
-2498 -2502 2763 0
-2498 -2503 2764 0
-2498 -2504 2765 0
-2499 -2502 2764 0
-2499 -2503 2765 0
-2500 -2502 2765 0
-2510 2766 0
-2511 2767 0
-2512 2768 0
-2513 2769 0
-2506 2766 0
-2507 2767 0
-2508 2768 0
-2509 2769 0
-2506 -2510 2767 0
-2506 -2511 2768 0
-2506 -2512 2769 0
-2507 -2510 2768 0
-2507 -2511 2769 0
-2508 -2510 2769 0
-2518 2770 0
-2519 2771 0
-2520 2772 0
-2521 2773 0
-2514 2770 0
-2515 2771 0
-2516 2772 0
-2517 2773 0
-2514 -2518 2771 0
-2514 -2519 2772 0
-2514 -2520 2773 0
-2515 -2518 2772 0
-2515 -2519 2773 0
-2516 -2518 2773 0
-2526 2774 0
-2527 2775 0
-2528 2776 0
-2529 2777 0
-2522 2774 0
-2523 2775 0
-2524 2776 0
-2525 2777 0
-2522 -2526 2775 0
-2522 -2527 2776 0
-2522 -2528 2777 0
-2523 -2526 2776 0
-2523 -2527 2777 0
-2524 -2526 2777 0
-2534 2778 0
-2535 2779 0
-2536 2780 0
-2537 2781 0
-2530 2778 0
-2531 2779 0
-2532 2780 0
-2533 2781 0
-2530 -2534 2779 0
-2530 -2535 2780 0
-2530 -2536 2781 0
-2531 -2534 2780 0
-2531 -2535 2781 0
-2532 -2534 2781 0
-2542 2782 0
-2543 2783 0
-2544 2784 0
-2545 2785 0
-2538 2782 0
-2539 2783 0
-2540 2784 0
-2541 2785 0
-2538 -2542 2783 0
-2538 -2543 2784 0
-2538 -2544 2785 0
-2539 -2542 2784 0
-2539 -2543 2785 0
-2540 -2542 2785 0
-2550 2786 0
-2551 2787 0
-2552 2788 0
-2553 2789 0
-2546 2786 0
-2547 2787 0
-2548 2788 0
-2549 2789 0
-2546 -2550 2787 0
-2546 -2551 2788 0
-2546 -2552 2789 0
-2547 -2550 2788 0
-2547 -2551 2789 0
-2548 -2550 2789 0
-2558 2790 0
-2559 2791 0
-2560 2792 0
-2561 2793 0
-2554 2790 0
-2555 2791 0
-2556 2792 0
-2557 2793 0
-2554 -2558 2791 0
-2554 -2559 2792 0
-2554 -2560 2793 0
-2555 -2558 2792 0
-2555 -2559 2793 0
-2556 -2558 2793 0
-2566 2794 0
-2567 2795 0
-2568 2796 0
-2569 2797 0
-2562 2794 0
-2563 2795 0
-2564 2796 0
-2565 2797 0
-2562 -2566 2795 0
-2562 -2567 2796 0
-2562 -2568 2797 0
-2563 -2566 2796 0
-2563 -2567 2797 0
-2564 -2566 2797 0
-2574 2798 0
-2575 2799 0
-2576 2800 0
-2577 2801 0
-2570 2798 0
-2571 2799 0
-2572 2800 0
-2573 2801 0
-2570 -2574 2799 0
-2570 -2575 2800 0
-2570 -2576 2801 0
-2571 -2574 2800 0
-2571 -2575 2801 0
-2572 -2574 2801 0
-2582 2802 0
-2583 2803 0
-2584 2804 0
-2585 2805 0
-2578 2802 0
-2579 2803 0
-2580 2804 0
-2581 2805 0
-2578 -2582 2803 0
-2578 -2583 2804 0
-2578 -2584 2805 0
-2579 -2582 2804 0
-2579 -2583 2805 0
-2580 -2582 2805 0
-2590 2806 0
-2591 2807 0
-2592 2808 0
-2593 2809 0
-2586 2806 0
-2587 2807 0
-2588 2808 0
-2589 2809 0
-2586 -2590 2807 0
-2586 -2591 2808 0
-2586 -2592 2809 0
-2587 -2590 2808 0
-2587 -2591 2809 0
-2588 -2590 2809 0
-2598 2810 0
-2599 2811 0
-2600 2812 0
-2601 2813 0
-2594 2810 0
-2595 2811 0
-2596 2812 0
-2597 2813 0
-2594 -2598 2811 0
-2594 -2599 2812 0
-2594 -2600 2813 0
-2595 -2598 2812 0
-2595 -2599 2813 0
-2596 -2598 2813 0
-2606 2814 0
-2607 2815 0
-2608 2816 0
-2609 2817 0
-2602 2814 0
-2603 2815 0
-2604 2816 0
-2605 2817 0
-2602 -2606 2815 0
-2602 -2607 2816 0
-2602 -2608 2817 0
-2603 -2606 2816 0
-2603 -2607 2817 0
-2604 -2606 2817 0
-2614 2818 0
-2615 2819 0
-2616 2820 0
-2617 2821 0
-2610 2818 0
-2611 2819 0
-2612 2820 0
-2613 2821 0
-2610 -2614 2819 0
-2610 -2615 2820 0
-2610 -2616 2821 0
-2611 -2614 2820 0
-2611 -2615 2821 0
-2612 -2614 2821 0
-2622 2822 0
-2623 2823 0
-2624 2824 0
-2625 2825 0
-2618 2822 0
-2619 2823 0
-2620 2824 0
-2621 2825 0
-2618 -2622 2823 0
-2618 -2623 2824 0
-2618 -2624 2825 0
-2619 -2622 2824 0
-2619 -2623 2825 0
-2620 -2622 2825 0
-2630 2826 0
-2631 2827 0
-2632 2828 0
-2633 2829 0
-2626 2826 0
-2627 2827 0
-2628 2828 0
-2629 2829 0
-2626 -2630 2827 0
-2626 -2631 2828 0
-2626 -2632 2829 0
-2627 -2630 2828 0
-2627 -2631 2829 0
-2628 -2630 2829 0
-2638 2830 0
-2639 2831 0
-2640 2832 0
-2641 2833 0
-2634 2830 0
-2635 2831 0
-2636 2832 0
-2637 2833 0
-2634 -2638 2831 0
-2634 -2639 2832 0
-2634 -2640 2833 0
-2635 -2638 2832 0
-2635 -2639 2833 0
-2636 -2638 2833 0
-2646 2834 0
-2647 2835 0
-2648 2836 0
-2649 2837 0
-2642 2834 0
-2643 2835 0
-2644 2836 0
-2645 2837 0
-2642 -2646 2835 0
-2642 -2647 2836 0
-2642 -2648 2837 0
-2643 -2646 2836 0
-2643 -2647 2837 0
-2644 -2646 2837 0
-2654 2838 0
-2655 2839 0
-2656 2840 0
-2657 2841 0
-2650 2838 0
-2651 2839 0
-2652 2840 0
-2653 2841 0
-2650 -2654 2839 0
-2650 -2655 2840 0
-2650 -2656 2841 0
-2651 -2654 2840 0
-2651 -2655 2841 0
-2652 -2654 2841 0
-2662 2842 0
-2663 2843 0
-2664 2844 0
-2665 2845 0
-2658 2842 0
-2659 2843 0
-2660 2844 0
-2661 2845 0
-2658 -2662 2843 0
-2658 -2663 2844 0
-2658 -2664 2845 0
-2659 -2662 2844 0
-2659 -2663 2845 0
-2660 -2662 2845 0
-2670 2846 0
-2671 2847 0
-2672 2848 0
-2673 2849 0
-2666 2846 0
-2667 2847 0
-2668 2848 0
-2669 2849 0
-2666 -2670 2847 0
-2666 -2671 2848 0
-2666 -2672 2849 0
-2667 -2670 2848 0
-2667 -2671 2849 0
-2668 -2670 2849 0
-2678 2850 0
-2679 2851 0
-2680 2852 0
-2681 2853 0
-2674 2850 0
-2675 2851 0
-2676 2852 0
-2677 2853 0
-2674 -2678 2851 0
-2674 -2679 2852 0
-2674 -2680 2853 0
-2675 -2678 2852 0
-2675 -2679 2853 0
-2676 -2678 2853 0
-2686 2854 0
-2687 2855 0
-2688 2856 0
-2689 2857 0
-2682 2854 0
-2683 2855 0
-2684 2856 0
-2685 2857 0
-2682 -2686 2855 0
-2682 -2687 2856 0
-2682 -2688 2857 0
-2683 -2686 2856 0
-2683 -2687 2857 0
-2684 -2686 2857 0
-2694 2858 0
-2695 2859 0
-2696 2860 0
-2697 2861 0
-2690 2858 0
-2691 2859 0
-2692 2860 0
-2693 2861 0
-2690 -2694 2859 0
-2690 -2695 2860 0
-2690 -2696 2861 0
-2691 -2694 2860 0
-2691 -2695 2861 0
-2692 -2694 2861 0
-2702 2862 0
-2703 2863 0
-2704 2864 0
-2705 2865 0
-2698 2862 0
-2699 2863 0
-2700 2864 0
-2701 2865 0
-2698 -2702 2863 0
-2698 -2703 2864 0
-2698 -2704 2865 0
-2699 -2702 2864 0
-2699 -2703 2865 0
-2700 -2702 2865 0
-2710 2866 0
-2711 2867 0
-2712 2868 0
-2713 2869 0
-2706 2866 0
-2707 2867 0
-2708 2868 0
-2709 2869 0
-2706 -2710 2867 0
-2706 -2711 2868 0
-2706 -2712 2869 0
-2707 -2710 2868 0
-2707 -2711 2869 0
-2708 -2710 2869 0
-2718 2870 0
-2719 2871 0
-2720 2872 0
-2721 2873 0
-2714 2870 0
-2715 2871 0
-2716 2872 0
-2717 2873 0
-2714 -2718 2871 0
-2714 -2719 2872 0
-2714 -2720 2873 0
-2715 -2718 2872 0
-2715 -2719 2873 0
-2716 -2718 2873 0
-2726 2874 0
-2727 2875 0
-2728 2876 0
-2729 2877 0
-2722 2874 0
-2723 2875 0
-2724 2876 0
-2725 2877 0
-2722 -2726 2875 0
-2722 -2727 2876 0
-2722 -2728 2877 0
-2723 -2726 2876 0
-2723 -2727 2877 0
-2724 -2726 2877 0
-2734 2878 0
-2735 2879 0
-2736 2880 0
-2737 2881 0
-2730 2878 0
-2731 2879 0
-2732 2880 0
-2733 2881 0
-2730 -2734 2879 0
-2730 -2735 2880 0
-2730 -2736 2881 0
-2731 -2734 2880 0
-2731 -2735 2881 0
-2732 -2734 2881 0
-2742 2882 0
-2743 2883 0
-2744 2884 0
-2745 2885 0
-2738 2882 0
-2739 2883 0
-2740 2884 0
-2741 2885 0
-2738 -2742 2883 0
-2738 -2743 2884 0
-2738 -2744 2885 0
-2739 -2742 2884 0
-2739 -2743 2885 0
-2740 -2742 2885 0
-2750 2886 0
-2751 2887 0
-2752 2888 0
-2753 2889 0
-2746 2886 0
-2747 2887 0
-2748 2888 0
-2749 2889 0
-2746 -2750 2887 0
-2746 -2751 2888 0
-2746 -2752 2889 0
-2747 -2750 2888 0
-2747 -2751 2889 0
-2748 -2750 2889 0
-2758 2890 0
-2759 2891 0
-2760 2892 0
-2761 2893 0
-2754 2890 0
-2755 2891 0
-2756 2892 0
-2757 2893 0
-2754 -2758 2891 0
-2754 -2759 2892 0
-2754 -2760 2893 0
-2755 -2758 2892 0
-2755 -2759 2893 0
-2756 -2758 2893 0
-2766 2894 0
-2767 2895 0
-2768 2896 0
-2769 2897 0
-2762 2894 0
-2763 2895 0
-2764 2896 0
-2765 2897 0
-2762 -2766 2895 0
-2762 -2767 2896 0
-2762 -2768 2897 0
-2763 -2766 2896 0
-2763 -2767 2897 0
-2764 -2766 2897 0
-2774 2898 0
-2775 2899 0
-2776 2900 0
-2777 2901 0
-2770 2898 0
-2771 2899 0
-2772 2900 0
-2773 2901 0
-2770 -2774 2899 0
-2770 -2775 2900 0
-2770 -2776 2901 0
-2771 -2774 2900 0
-2771 -2775 2901 0
-2772 -2774 2901 0
-2782 2902 0
-2783 2903 0
-2784 2904 0
-2785 2905 0
-2778 2902 0
-2779 2903 0
-2780 2904 0
-2781 2905 0
-2778 -2782 2903 0
-2778 -2783 2904 0
-2778 -2784 2905 0
-2779 -2782 2904 0
-2779 -2783 2905 0
-2780 -2782 2905 0
-2790 2906 0
-2791 2907 0
-2792 2908 0
-2793 2909 0
-2786 2906 0
-2787 2907 0
-2788 2908 0
-2789 2909 0
-2786 -2790 2907 0
-2786 -2791 2908 0
-2786 -2792 2909 0
-2787 -2790 2908 0
-2787 -2791 2909 0
-2788 -2790 2909 0
-2798 2910 0
-2799 2911 0
-2800 2912 0
-2801 2913 0
-2794 2910 0
-2795 2911 0
-2796 2912 0
-2797 2913 0
-2794 -2798 2911 0
-2794 -2799 2912 0
-2794 -2800 2913 0
-2795 -2798 2912 0
-2795 -2799 2913 0
-2796 -2798 2913 0
-2806 2914 0
-2807 2915 0
-2808 2916 0
-2809 2917 0
-2802 2914 0
-2803 2915 0
-2804 2916 0
-2805 2917 0
-2802 -2806 2915 0
-2802 -2807 2916 0
-2802 -2808 2917 0
-2803 -2806 2916 0
-2803 -2807 2917 0
-2804 -2806 2917 0
-2814 2918 0
-2815 2919 0
-2816 2920 0
-2817 2921 0
-2810 2918 0
-2811 2919 0
-2812 2920 0
-2813 2921 0
-2810 -2814 2919 0
-2810 -2815 2920 0
-2810 -2816 2921 0
-2811 -2814 2920 0
-2811 -2815 2921 0
-2812 -2814 2921 0
-2822 2922 0
-2823 2923 0
-2824 2924 0
-2825 2925 0
-2818 2922 0
-2819 2923 0
-2820 2924 0
-2821 2925 0
-2818 -2822 2923 0
-2818 -2823 2924 0
-2818 -2824 2925 0
-2819 -2822 2924 0
-2819 -2823 2925 0
-2820 -2822 2925 0
-2830 2926 0
-2831 2927 0
-2832 2928 0
-2833 2929 0
-2826 2926 0
-2827 2927 0
-2828 2928 0
-2829 2929 0
-2826 -2830 2927 0
-2826 -2831 2928 0
-2826 -2832 2929 0
-2827 -2830 2928 0
-2827 -2831 2929 0
-2828 -2830 2929 0
-2838 2930 0
-2839 2931 0
-2840 2932 0
-2841 2933 0
-2834 2930 0
-2835 2931 0
-2836 2932 0
-2837 2933 0
-2834 -2838 2931 0
-2834 -2839 2932 0
-2834 -2840 2933 0
-2835 -2838 2932 0
-2835 -2839 2933 0
-2836 -2838 2933 0
-2846 2934 0
-2847 2935 0
-2848 2936 0
-2849 2937 0
-2842 2934 0
-2843 2935 0
-2844 2936 0
-2845 2937 0
-2842 -2846 2935 0
-2842 -2847 2936 0
-2842 -2848 2937 0
-2843 -2846 2936 0
-2843 -2847 2937 0
-2844 -2846 2937 0
-2854 2938 0
-2855 2939 0
-2856 2940 0
-2857 2941 0
-2850 2938 0
-2851 2939 0
-2852 2940 0
-2853 2941 0
-2850 -2854 2939 0
-2850 -2855 2940 0
-2850 -2856 2941 0
-2851 -2854 2940 0
-2851 -2855 2941 0
-2852 -2854 2941 0
-2862 2942 0
-2863 2943 0
-2864 2944 0
-2865 2945 0
-2858 2942 0
-2859 2943 0
-2860 2944 0
-2861 2945 0
-2858 -2862 2943 0
-2858 -2863 2944 0
-2858 -2864 2945 0
-2859 -2862 2944 0
-2859 -2863 2945 0
-2860 -2862 2945 0
-2870 2946 0
-2871 2947 0
-2872 2948 0
-2873 2949 0
-2866 2946 0
-2867 2947 0
-2868 2948 0
-2869 2949 0
-2866 -2870 2947 0
-2866 -2871 2948 0
-2866 -2872 2949 0
-2867 -2870 2948 0
-2867 -2871 2949 0
-2868 -2870 2949 0
-2878 2950 0
-2879 2951 0
-2880 2952 0
-2881 2953 0
-2874 2950 0
-2875 2951 0
-2876 2952 0
-2877 2953 0
-2874 -2878 2951 0
-2874 -2879 2952 0
-2874 -2880 2953 0
-2875 -2878 2952 0
-2875 -2879 2953 0
-2876 -2878 2953 0
-2886 2954 0
-2887 2955 0
-2888 2956 0
-2889 2957 0
-2882 2954 0
-2883 2955 0
-2884 2956 0
-2885 2957 0
-2882 -2886 2955 0
-2882 -2887 2956 0
-2882 -2888 2957 0
-2883 -2886 2956 0
-2883 -2887 2957 0
-2884 -2886 2957 0
-2894 2958 0
-2895 2959 0
-2896 2960 0
-2897 2961 0
-2890 2958 0
-2891 2959 0
-2892 2960 0
-2893 2961 0
-2890 -2894 2959 0
-2890 -2895 2960 0
-2890 -2896 2961 0
-2891 -2894 2960 0
-2891 -2895 2961 0
-2892 -2894 2961 0
-2902 2962 0
-2903 2963 0
-2904 2964 0
-2905 2965 0
-2898 2962 0
-2899 2963 0
-2900 2964 0
-2901 2965 0
-2898 -2902 2963 0
-2898 -2903 2964 0
-2898 -2904 2965 0
-2899 -2902 2964 0
-2899 -2903 2965 0
-2900 -2902 2965 0
-2910 2966 0
-2911 2967 0
-2912 2968 0
-2913 2969 0
-2906 2966 0
-2907 2967 0
-2908 2968 0
-2909 2969 0
-2906 -2910 2967 0
-2906 -2911 2968 0
-2906 -2912 2969 0
-2907 -2910 2968 0
-2907 -2911 2969 0
-2908 -2910 2969 0
-2918 2970 0
-2919 2971 0
-2920 2972 0
-2921 2973 0
-2914 2970 0
-2915 2971 0
-2916 2972 0
-2917 2973 0
-2914 -2918 2971 0
-2914 -2919 2972 0
-2914 -2920 2973 0
-2915 -2918 2972 0
-2915 -2919 2973 0
-2916 -2918 2973 0
-2926 2974 0
-2927 2975 0
-2928 2976 0
-2929 2977 0
-2922 2974 0
-2923 2975 0
-2924 2976 0
-2925 2977 0
-2922 -2926 2975 0
-2922 -2927 2976 0
-2922 -2928 2977 0
-2923 -2926 2976 0
-2923 -2927 2977 0
-2924 -2926 2977 0
-2934 2978 0
-2935 2979 0
-2936 2980 0
-2937 2981 0
-2930 2978 0
-2931 2979 0
-2932 2980 0
-2933 2981 0
-2930 -2934 2979 0
-2930 -2935 2980 0
-2930 -2936 2981 0
-2931 -2934 2980 0
-2931 -2935 2981 0
-2932 -2934 2981 0
-2942 2982 0
-2943 2983 0
-2944 2984 0
-2945 2985 0
-2938 2982 0
-2939 2983 0
-2940 2984 0
-2941 2985 0
-2938 -2942 2983 0
-2938 -2943 2984 0
-2938 -2944 2985 0
-2939 -2942 2984 0
-2939 -2943 2985 0
-2940 -2942 2985 0
-2950 2986 0
-2951 2987 0
-2952 2988 0
-2953 2989 0
-2946 2986 0
-2947 2987 0
-2948 2988 0
-2949 2989 0
-2946 -2950 2987 0
-2946 -2951 2988 0
-2946 -2952 2989 0
-2947 -2950 2988 0
-2947 -2951 2989 0
-2948 -2950 2989 0
-2958 2990 0
-2959 2991 0
-2960 2992 0
-2961 2993 0
-2954 2990 0
-2955 2991 0
-2956 2992 0
-2957 2993 0
-2954 -2958 2991 0
-2954 -2959 2992 0
-2954 -2960 2993 0
-2955 -2958 2992 0
-2955 -2959 2993 0
-2956 -2958 2993 0
-2966 2994 0
-2967 2995 0
-2968 2996 0
-2969 2997 0
-2962 2994 0
-2963 2995 0
-2964 2996 0
-2965 2997 0
-2962 -2966 2995 0
-2962 -2967 2996 0
-2962 -2968 2997 0
-2963 -2966 2996 0
-2963 -2967 2997 0
-2964 -2966 2997 0
-2974 2998 0
-2975 2999 0
-2976 3000 0
-2977 3001 0
-2970 2998 0
-2971 2999 0
-2972 3000 0
-2973 3001 0
-2970 -2974 2999 0
-2970 -2975 3000 0
-2970 -2976 3001 0
-2971 -2974 3000 0
-2971 -2975 3001 0
-2972 -2974 3001 0
-2982 3002 0
-2983 3003 0
-2984 3004 0
-2985 3005 0
-2978 3002 0
-2979 3003 0
-2980 3004 0
-2981 3005 0
-2978 -2982 3003 0
-2978 -2983 3004 0
-2978 -2984 3005 0
-2979 -2982 3004 0
-2979 -2983 3005 0
-2980 -2982 3005 0
-2990 3006 0
-2991 3007 0
-2992 3008 0
-2993 3009 0
-2986 3006 0
-2987 3007 0
-2988 3008 0
-2989 3009 0
-2986 -2990 3007 0
-2986 -2991 3008 0
-2986 -2992 3009 0
-2987 -2990 3008 0
-2987 -2991 3009 0
-2988 -2990 3009 0
-2998 3010 0
-2999 3011 0
-3000 3012 0
-3001 3013 0
-2994 3010 0
-2995 3011 0
-2996 3012 0
-2997 3013 0
-2994 -2998 3011 0
-2994 -2999 3012 0
-2994 -3000 3013 0
-2995 -2998 3012 0
-2995 -2999 3013 0
-2996 -2998 3013 0
-3006 3014 0
-3007 3015 0
-3008 3016 0
-3009 3017 0
-3002 3014 0
-3003 3015 0
-3004 3016 0
-3005 3017 0
-3002 -3006 3015 0
-3002 -3007 3016 0
-3002 -3008 3017 0
-3003 -3006 3016 0
-3003 -3007 3017 0
-3004 -3006 3017 0
-3014 3018 0
-3015 3019 0
-3016 3020 0
-3017 3021 0
-3010 3018 0
-3011 3019 0
-3012 3020 0
-3013 3021 0
-3010 -3014 3019 0
-3010 -3015 3020 0
-3010 -3016 3021 0
-3011 -3014 3020 0
-3011 -3015 3021 0
-3012 -3014 3021 0
-3022 437 0
-3022 1070 0
-3023 458 0
-3023 1085 0
-3024 458 0
-3024 1087 0
-3025 474 0
-3025 1093 0
-3026 485 0
-3026 1130 0
-3027 490 0
-3027 1114 0
-3028 495 0
-3028 1052 0
-3029 495 0
-3029 1061 0
-3030 495 0
-3030 1084 0
-3031 504 0
-3031 553 0
3022 3023 3024 3025 3026 3027 3028 3029 3030 3031 0
-3032 409 0
-3032 1070 0
-3033 441 0
-3033 1114 0
-3034 471 0
-3034 1085 0
-3035 1060 0
-3035 1061 0
-3036 1081 0
-3036 1084 0
-3037 1083 0
-3037 1087 0
-3038 1084 0
-3038 1103 0
3025 3026 3028 3032 3033 3034 3035 3036 3037 3038 0
3025 3026 3028 3030 3032 3033 3034 3035 3037 0
1103 1081 1087 1060 1052 1070 0
-3039 389 0
-3039 1098 0
-3040 416 0
-3040 1110 0
-3041 435 0
-3041 1114 0
-3042 436 0
-3042 1123 0
-3043 438 0
-3043 1105 0
-3044 454 0
-3044 1053 0
-3045 472 0
-3045 1073 0
-3046 487 0
-3046 1097 0
-3047 493 0
-3047 1062 0
-3048 500 0
-3048 555 0
3039 3040 3041 3042 3043 3044 3045 3046 3047 3048 0
-3049 415 0
-3049 1053 0
-3050 417 0
-3050 1126 0
-3051 424 0
-3051 1107 0
-3052 456 0
-3052 1079 0
3026 3039 3046 3049 3050 3051 3052 0
1053 1079 1097 0
-3053 270 0
-3053 672 0
-3054 270 0
-3054 949 0
-3055 270 0
-3055 1045 0
-3056 376 0
-3056 1019 0
-3057 412 0
-3057 1076 0
-3058 426 0
-3058 1129 0
-3059 450 0
-3059 1065 0
-3060 496 0
-3060 1080 0
-3061 497 0
-3061 1058 0
-3062 497 0
-3062 1071 0
-3063 497 0
-3063 1075 0
-3064 1052 0
-3064 1068 0
3053 3054 3055 3056 3057 3058 3059 3060 3061 3062 3063 3064 0
-3065 407 0
-3065 1071 0
-3066 477 0
-3066 1080 0
-3067 497 0
-3067 1065 0
-3068 1058 0
-3068 1059 0
3053 3054 3055 3056 3057 3058 3063 3065 3066 3067 3068 0
1076 1071 1079 1059 1065 0
-3069 415 0
-3069 1072 0
-3070 455 0
-3070 1075 0
-3071 487 0
-3071 1129 0
-3072 493 0
-3072 1061 0
-3073 1071 0
-3073 1096 0
-3074 1076 0
-3074 1086 0
3034 3061 3067 3069 3070 3071 3072 3073 3074 0
3034 3061 3062 3067 3070 3071 3072 3074 0
-3075 401 0
-3075 1058 0
-3076 452 0
-3076 1129 0
-3077 459 0
-3077 1071 0
-3078 1064 0
-3078 1065 0
3034 3035 3070 3074 3075 3076 3077 3078 0
1064 1071 1058 1075 1085 0
-3021 0
