p cnf 9570 28211
1 0
2 0
3 0
4 0
5 0
6 0
7 0
8 0
9 0
10 0
11 0
12 0
13 0
14 0
15 0
16 0
17 0
18 0
19 0
20 0
21 0
22 0
23 0
24 0
25 0
26 0
27 0
28 0
29 0
30 0
31 0
32 0
33 0
34 0
35 0
36 0
37 0
38 0
39 0
40 0
41 0
42 0
43 0
44 0
45 0
46 0
47 0
48 0
49 0
50 0
51 0
52 0
53 0
54 0
55 0
56 0
57 0
58 0
59 0
60 0
61 0
62 0
63 0
64 0
65 0
66 0
67 0
68 0
69 0
70 0
71 0
72 0
73 0
74 0
75 0
76 0
77 0
78 0
79 0
80 0
81 0
82 0
83 0
84 0
85 0
86 0
87 0
88 0
89 0
90 0
91 0
92 0
93 0
94 0
95 0
96 0
97 0
98 0
99 0
100 0
101 0
102 0
103 0
104 0
105 0
106 0
107 0
108 0
109 0
110 0
111 0
112 0
113 0
114 0
115 0
116 0
117 0
118 0
119 0
120 0
121 0
122 0
123 0
124 0
125 0
126 0
127 0
128 0
129 0
130 0
131 0
132 0
133 0
134 0
135 0
136 0
137 0
138 0
139 0
140 0
141 0
142 0
143 0
144 0
145 0
146 0
147 0
148 0
149 0
150 0
151 0
152 0
153 0
154 0
155 0
156 0
157 0
158 0
159 0
160 0
161 0
162 0
163 0
164 0
165 0
166 0
167 0
168 0
169 0
170 0
171 0
172 0
173 0
174 0
175 0
176 0
177 0
178 0
179 0
180 0
181 0
182 0
183 0
184 0
185 0
186 0
187 0
188 0
189 0
190 0
191 0
192 0
193 0
194 0
195 0
196 0
197 0
198 0
199 0
200 0
201 0
202 0
203 0
204 0
205 0
206 0
207 0
208 0
209 0
210 0
211 0
212 0
213 0
214 0
215 0
216 0
217 0
218 0
219 0
220 0
221 0
222 0
223 0
224 0
225 0
226 0
227 0
228 0
229 0
230 0
231 0
232 0
233 0
234 0
235 0
236 0
237 0
238 0
239 0
240 0
241 0
242 0
243 0
244 0
245 0
246 0
247 0
248 0
249 0
250 0
251 0
252 0
253 0
254 0
255 0
256 0
257 0
258 0
259 0
260 0
261 0
262 0
263 0
264 0
265 0
266 0
267 0
268 0
269 0
270 0
271 0
272 0
273 0
274 0
275 0
276 0
277 0
278 0
279 0
280 0
281 0
282 0
283 0
284 0
285 0
286 0
287 0
288 0
289 0
290 0
291 0
292 0
293 0
294 0
295 0
296 0
297 0
298 0
299 0
300 0
301 0
302 0
303 0
304 0
305 0
306 0
307 0
308 0
309 0
310 0
311 0
312 0
313 0
314 0
315 0
316 0
317 0
318 0
319 0
320 0
321 0
322 0
323 0
324 0
325 0
326 0
327 0
328 0
329 0
330 0
331 0
332 0
333 0
334 0
335 0
336 0
337 0
338 0
339 0
340 0
341 0
342 0
343 0
344 0
345 0
346 0
347 0
348 0
349 0
350 0
351 0
352 0
353 0
354 0
355 0
356 0
357 0
358 0
359 0
360 0
361 0
362 0
363 0
364 0
365 0
366 0
367 0
368 0
369 0
370 0
371 0
372 0
373 0
374 0
375 0
376 0
377 0
378 0
379 0
380 0
381 0
382 0
383 0
384 0
385 0
386 0
387 0
388 0
389 0
390 0
391 0
392 0
393 0
394 0
395 0
396 0
397 0
398 0
399 0
400 0
401 0
402 0
403 0
404 0
405 0
406 0
407 0
408 0
409 0
410 0
411 0
412 0
413 0
414 0
415 0
416 0
417 0
418 0
419 0
420 0
421 0
422 0
423 0
424 0
425 0
426 0
427 0
428 0
429 0
430 0
431 0
432 0
433 0
434 0
435 0
436 0
437 0
438 0
439 0
440 0
441 0
442 0
443 0
444 0
445 0
446 0
447 0
448 0
449 0
450 0
451 0
452 0
453 0
454 0
455 0
456 0
457 0
458 0
459 0
460 0
461 0
462 0
463 0
464 0
465 0
466 0
467 0
468 0
469 0
470 0
471 0
472 0
473 0
474 0
475 0
476 0
477 0
478 0
479 0
480 0
481 0
482 0
483 0
484 0
485 0
486 0
487 0
488 0
489 0
490 0
491 0
492 0
493 0
494 0
-507 551 693 709 710 0
-508 517 687 724 725 0
-509 510 519 690 696 715 721 0
-510 509 554 691 697 712 716 0
-518 495 528 673 764 768 773 781 784 787 0
-519 495 509 745 750 753 758 778 782 792 795 0
-522 512 521 523 807 808 809 810 811 0
-526 516 824 838 839 0
-527 528 536 817 825 832 844 0
-528 518 527 818 826 840 845 0
-536 496 527 747 749 777 866 878 892 895 0
-537 496 546 801 869 884 886 888 896 897 0
-540 539 541 549 846 851 918 919 920 0
-543 552 927 945 946 0
-545 546 553 911 928 936 941 0
-546 537 545 912 929 933 937 0
-553 497 545 680 873 874 893 961 971 975 0
-554 497 510 772 774 785 907 965 969 978 983 0
-561 498 562 914 999 1007 1011 1026 1031 1036 0
-562 561 569 1009 1013 1028 1034 0
-568 500 569 1051 1057 1062 1080 1083 1086 1090 0
-569 562 568 1058 1063 1081 1084 0
-575 576 584 1111 1114 1117 1128 0
-576 499 575 1050 1112 1115 1118 1126 1129 1130 0
-583 498 584 822 1052 1054 1079 1142 1155 1167 0
-584 575 583 1151 1156 1159 1168 0
-590 591 598 1186 1190 1201 1203 0
-591 500 590 828 1015 1016 1032 1143 1187 1199 1204 0
-597 499 598 931 1000 1148 1149 1170 1217 1228 1233 0
-598 590 597 1218 1226 1229 1231 0
-604 605 1002 1216 1252 0
-607 606 1144 1188 1251 0
-619 620 1061 1107 1271 0
-632 631 1068 1113 1288 0
-644 640 643 648 994 1067 1230 1272 1279 0
-645 641 646 650 1025 1100 1202 1281 1287 0
-668 669 673 756 759 770 775 965 0
-669 668 680 756 758 964 973 974 0
-670 501 503 600 671 0
-672 501 504 514 585 1105 1206 1207 1303 0
-676 502 503 547 594 1071 1234 1236 1305 0
-678 502 504 603 677 0
-687 508 1325 1326 0
-693 507 1332 1333 0
-712 510 616 716 741 774 827 1185 0
-713 620 714 720 723 828 835 1187 1354 0
-717 710 718 719 724 730 735 1308 1310 1316 1327 1331 1344 0
-721 509 628 715 782 930 957 1215 0
-723 631 711 713 722 931 934 1217 1371 0
-726 727 981 0
-736 733 791 0
-742 511 513 523 564 1072 1073 1087 1102 1304 0
-747 516 536 556 748 751 901 0
-750 519 667 753 901 972 0
-752 512 567 749 870 872 982 1036 1261 0
-755 513 514 1102 0
-756 513 517 548 551 564 572 599 668 669 0
-757 513 695 758 814 886 888 899 1087 1240 0
-759 513 668 697 758 768 1304 0
-762 514 516 532 534 579 585 611 796 797 0
-763 514 753 764 797 817 1303 0
-765 514 701 764 819 874 881 975 1105 1256 0
-769 515 588 774 898 968 969 973 1148 1264 0
-770 515 668 767 972 973 1227 1380 1387 1390 0
-772 517 554 594 667 771 981 0
-773 518 751 768 981 0
-775 603 668 785 1387 0
-776 613 777 797 1381 0
-779 516 719 784 786 889 1219 1380 0
-780 533 535 547 552 556 594 624 902 903 0
-783 722 789 794 843 1008 1216 1381 1385 1387 1392 1396 0
-786 517 778 779 795 849 976 1004 1384 0
-787 518 534 564 751 788 871 0
-792 519 551 585 667 791 970 0
-795 519 786 794 983 1386 0
-796 762 764 797 801 870 879 890 0
-797 745 754 762 763 776 796 878 0
-798 520 523 613 799 0
-800 520 524 533 556 1022 1023 1039 1220 1399 0
-804 521 557 748 805 808 829 986 1373 0
-805 521 558 720 727 804 809 916 985 1354 1355 0
-807 522 563 727 809 812 871 1040 1401 0
-814 523 732 757 810 820 917 921 923 1087 0
-818 528 764 810 817 819 826 1255 1334 0
-822 583 730 943 1338 0
-824 526 1361 1362 0
-828 591 713 823 931 1410 0
-832 527 600 688 740 749 844 1059 0
-835 606 713 834 841 842 1062 1344 0
-837 525 610 768 0
-840 528 626 781 845 862 910 1005 0
-842 630 833 835 843 914 943 1007 1413 0
-845 528 689 784 810 840 844 846 910 949 1003 0
-848 692 836 839 847 849 855 1311 1349 1354 1374 1402 0
-850 788 851 0
-857 656 855 913 956 1035 1089 1342 1344 1349 0
-858 706 901 1345 0
-864 529 539 626 863 0
-865 529 532 542 579 1161 1162 1171 1193 1400 0
-873 535 553 572 872 875 982 0
-877 532 533 1193 1220 0
-879 532 796 826 869 878 1400 0
-880 532 766 774 827 878 925 978 1171 1269 0
-883 533 777 884 902 928 1399 0
-885 533 778 782 793 830 884 930 1039 1275 0
-887 760 834 900 935 1061 1113 1377 1380 1382 1398 1424 1426 0
-889 534 779 892 894 895 940 1109 1392 0
-890 616 768 796 1377 0
-891 628 893 902 1424 0
-894 535 847 888 889 897 979 1065 1420 0
-895 536 760 889 1389 0
-896 537 552 579 875 898 968 0
-897 537 894 900 1425 0
-902 780 866 876 883 891 903 961 0
-903 780 884 902 907 962 967 980 0
-904 538 539 548 572 1018 1066 1123 1124 1306 0
-911 545 846 910 912 928 961 1285 1322 0
-914 561 735 842 1328 0
-916 539 729 805 806 815 846 860 963 1018 0
-918 540 570 733 872 915 919 1075 1419 0
-921 541 577 711 733 814 919 922 1121 1370 1371 0
-922 541 578 851 921 924 968 1134 1376 0
-927 543 1365 1366 0
-931 597 723 828 855 1410 0
-933 546 603 695 886 937 958 1110 0
-934 605 723 935 942 943 1112 1316 0
-936 545 694 810 819 846 853 937 941 975 1077 0
-939 698 823 938 940 946 947 1342 1347 1371 1375 1413 0
-941 545 613 819 861 874 936 1153 0
-943 617 822 842 932 934 944 1155 1402 0
-948 544 636 893 0
-951 808 982 0
-953 704 898 1348 0
-956 658 821 823 857 1131 1165 1311 1316 1347 0
-959 547 548 1066 0
-960 547 684 781 784 790 910 961 1071 1284 0
-962 547 785 903 912 961 1305 0
-963 548 688 749 761 892 916 965 1018 1242 0
-964 548 669 690 893 965 1306 0
-966 549 573 788 871 876 886 1052 1290 0
-969 554 667 769 785 898 0
-971 553 791 875 893 0
-972 550 595 748 750 770 782 901 1015 1296 0
-973 550 669 769 770 794 1205 1385 1391 1426 0
-974 600 669 753 1391 0
-976 551 786 938 978 979 983 1158 1396 0
-977 714 767 882 944 1157 1188 1384 1390 1391 1420 1422 0
-979 552 718 894 975 976 1197 1426 0
-980 626 869 903 1422 0
-983 554 767 795 976 1386 0
-984 985 1069 1071 0
-991 990 995 0
-996 556 639 665 1274 0
-999 561 600 606 1212 1246 1259 0
-1000 597 616 620 990 1254 1265 0
-1012 556 1016 1131 1311 0
-1013 556 562 1009 1011 1017 1023 1132 0
-1017 558 1001 1011 1013 1018 1041 1119 0
-1019 558 636 679 720 1015 1187 1188 1438 0
-1021 641 744 746 852 1022 1025 1045 1119 1270 0
-1022 642 744 790 800 1007 1011 1021 1023 1228 0
-1027 652 1016 1028 1080 1210 1436 0
-1035 560 658 745 857 1032 1199 1211 1212 1259 0
-1037 854 1036 1118 1127 1189 1238 1245 0
-1041 1017 1018 1020 1120 0
-1043 994 1044 0
-1046 564 641 661 1239 0
-1047 572 648 662 1243 0
-1050 576 613 617 1044 1247 1280 0
-1051 568 626 630 1095 1246 1277 0
-1056 564 1054 1238 1374 0
-1058 564 569 1057 1063 1069 1072 1237 0
-1059 612 744 749 806 832 1064 1261 0
-1063 569 803 987 989 1009 1025 1058 1062 1067 1072 0
-1066 904 959 1080 1081 0
-1073 638 742 761 802 1057 1062 1072 1074 1118 0
-1076 567 646 801 854 1079 1091 1095 1277 0
-1081 569 1028 1066 1067 1080 1084 1124 1444 0
-1082 653 1031 1054 1084 1173 1441 0
-1086 568 990 1083 1246 0
-1089 857 1090 1131 1152 1228 1232 1273 0
-1091 1076 1087 1092 1145 0
-1096 1095 1100 0
-1102 742 755 1117 1118 0
-1110 627 886 906 923 933 1108 1290 0
-1111 575 868 1025 1067 1106 1112 1114 1124 1138 1156 0
-1114 572 575 1104 1111 1115 1124 1209 0
-1116 572 1026 1210 1375 0
-1117 575 1025 1072 1102 1118 1128 1159 1434 0
-1120 573 643 866 950 1011 1041 1044 1280 0
-1123 652 867 899 904 1080 1112 1115 1122 1124 0
-1126 576 1129 1137 1247 0
-1127 657 1026 1037 1128 1167 1431 0
-1131 956 1012 1089 1130 1200 1204 1273 0
-1133 1104 1105 1121 0
-1136 1099 1137 0
-1139 579 651 664 1268 0
-1142 583 603 605 1177 1247 1292 0
-1143 591 628 631 1137 1254 1295 0
-1145 577 1078 1079 1087 1091 1093 1151 0
-1146 577 610 674 711 1148 1216 1217 1448 0
-1151 579 584 1079 1088 1145 1156 1161 0
-1152 579 1089 1149 1342 0
-1160 638 1118 1149 1159 1238 1449 0
-1162 647 865 881 906 1079 1155 1161 1163 1204 0
-1163 648 906 908 952 1067 1078 1094 1162 1289 0
-1165 582 656 907 956 1170 1174 1177 1233 1292 0
-1173 950 1052 1080 1082 1210 1225 1248 0
-1174 1165 1171 1175 1222 0
-1178 1177 1183 1448 0
-1180 1254 0
-1189 585 1037 1129 1327 0
-1190 585 590 1032 1038 1186 1195 1207 0
-1191 586 612 745 778 839 1004 1039 1345 0
-1192 586 618 1129 0
-1193 865 877 1203 1204 1437 0
-1199 591 1016 1035 1212 1254 0
-1200 642 1129 1131 1201 1228 1447 0
-1206 657 672 679 766 1032 1167 1187 1207 1208 0
-1210 731 1015 1027 1031 1116 1173 1248 0
-1211 1035 1039 1195 1198 0
-1214 1184 1212 1438 0
-1220 800 877 1228 1229 1450 0
-1223 593 627 907 946 978 1158 1171 1348 0
-1224 593 633 1083 0
-1225 594 1083 1173 1310 0
-1226 594 598 1170 1172 1218 1222 1236 0
-1232 647 1083 1089 1204 1231 1429 0
-1233 597 1149 1165 1177 1254 0
-1234 653 674 676 793 1031 1170 1217 1235 1236 0
-1238 734 1037 1056 1148 1160 1167 1245 0
-1240 603 653 654 661 674 695 757 1241 1441 0
-1241 696 758 1240 1302 1340 0
-1242 600 657 660 662 679 688 963 1244 1431 0
-1244 691 965 1242 1302 1313 0
-1245 600 605 608 616 617 638 657 1037 1238 0
-1248 603 606 628 630 634 652 653 1173 1210 0
-1249 667 0
-1251 607 1319 1428 0
-1252 604 1315 1378 0
-1255 764 818 1256 1297 0
-1256 613 641 642 663 744 765 819 1255 1447 0
-1260 609 640 993 994 1259 1266 1270 1318 0
-1261 744 752 1048 1059 0
-1264 674 769 1141 1185 0
-1269 616 638 639 664 802 827 880 1449 0
-1270 612 640 995 997 1004 1021 1260 1272 1384 1403 0
-1271 619 1353 1423 0
-1273 613 620 621 626 631 642 647 1089 1131 0
-1275 628 651 652 665 867 885 930 1436 0
-1276 802 997 1005 0
-1279 622 644 992 995 1272 1277 1282 1363 0
-1281 623 645 1097 1099 1278 1280 1287 1364 0
-1283 867 1140 1153 0
-1284 626 647 648 666 906 910 960 1285 1429 0
-1285 911 961 1284 1300 0
-1288 632 1372 1394 0
-1289 627 650 1099 1140 1158 1163 1287 1291 1396 1414 0
-1290 906 966 1049 1110 0
-1291 635 650 1098 1100 1289 1292 1294 1330 0
-1296 679 972 998 1215 0
-1297 638 642 1255 0
-1300 647 652 1285 0
-1302 653 657 1241 1244 0
-1303 672 745 763 0
-1304 673 742 759 0
-1305 676 907 962 0
-1306 680 904 964 0
-1308 692 709 717 731 1031 1351 1354 0
-1309 690 1312 1333 0
-1310 698 717 950 1011 1225 1344 0
-1311 823 848 956 1012 1170 1354 0
-1313 965 1244 0
-1315 1252 1314 1316 1319 1332 1335 1337 1378 0
-1316 703 717 934 956 1315 1317 1327 1335 1344 1347 1379 0
-1318 940 1045 1084 1260 1312 1401 1403 0
-1319 1251 1307 1315 1321 1323 1326 1344 1428 0
-1320 697 1325 1341 0
-1325 687 692 1320 1326 1328 1341 1383 0
-1326 687 1319 1324 1325 1337 1384 1418 1432 0
-1327 692 717 854 1079 1189 1316 0
-1329 690 722 856 1312 1343 1350 0
-1330 847 1094 1128 1291 1341 1414 1419 0
-1331 698 717 725 734 1167 1368 1371 0
-1332 693 1315 1321 1333 1336 1396 1405 1445 0
-1333 693 698 1309 1312 1332 1338 1395 0
-1339 697 714 955 1317 1341 1346 0
-1340 758 1241 0
-1342 855 857 939 1032 1152 1371 0
-1344 707 717 835 857 1307 1310 1316 1319 1343 1349 1427 0
-1345 705 778 830 858 1166 1191 0
-1346 938 1179 1201 1317 1339 1407 0
-1348 708 925 953 978 1029 1223 0
-1350 849 1213 1231 1329 1343 1416 0
-1352 817 1360 1361 0
-1353 1271 1351 1354 1356 1357 1362 1408 1423 0
-1354 713 731 805 848 1308 1311 1353 1355 1357 1402 1421 0
-1361 730 824 1352 1360 1362 1379 1410 0
-1362 824 1353 1359 1361 1365 1380 1404 1430 0
-1363 719 989 1028 1279 1355 1367 1373 0
-1364 718 1138 1159 1281 1360 1370 1376 0
-1365 927 1356 1362 1366 1372 1411 1426 1439 0
-1366 735 927 1365 1367 1369 1410 1427 0
-1369 912 1366 1367 0
-1371 723 734 921 939 1331 1342 1358 1370 1372 1393 1413 0
-1372 1288 1358 1359 1365 1368 1371 1394 1415 0
-1373 729 804 826 843 1355 1363 1407 0
-1374 730 734 848 1056 1115 1402 0
-1375 731 735 939 1057 1116 1413 0
-1376 732 922 928 944 1364 1370 1416 0
-1377 749 789 870 887 890 1380 0
-1378 760 1252 1315 1360 1379 1386 1442 0
-1380 770 779 887 1253 1317 1362 1377 1379 1390 1426 1430 0
-1381 754 760 776 781 783 1392 0
-1382 754 878 882 887 1068 1324 1384 0
-1384 754 786 977 1270 1326 1382 1383 1391 1403 1420 1432 0
-1387 767 770 775 782 783 1396 0
-1388 767 1341 1383 1389 1408 1433 0
-1391 774 794 973 974 977 1384 0
-1392 783 876 889 1287 1370 1381 1393 1396 1405 1434 0
-1394 789 1288 1372 1393 1407 1425 1435 0
-1396 783 967 976 1289 1332 1387 1392 1395 1398 1414 1445 0
-1397 794 1312 1395 1415 1425 1446 0
-1398 789 884 887 967 1107 1336 1396 0
-1399 800 866 883 0
-1400 801 865 879 0
-1401 807 817 834 949 1318 1360 1403 0
-1402 809 848 943 950 1334 1354 1374 1383 1403 1408 0
-1405 1314 1332 1351 1392 1406 1408 1434 0
-1406 823 1338 1393 1405 1407 1409 0
-1408 1334 1336 1353 1388 1402 1404 1405 0
-1409 826 1406 1407 0
-1412 928 1416 1417 0
-1413 842 854 919 939 1322 1371 1375 1395 1414 1415 0
-1415 1322 1324 1372 1397 1411 1413 1418 0
-1417 855 1328 1412 1416 1418 1421 0
-1418 1323 1326 1368 1415 1417 1420 1444 0
-1419 853 912 918 935 1330 1367 1414 0
-1420 870 894 977 1272 1355 1384 1418 1421 1422 1444 0
-1422 874 900 967 977 980 1420 0
-1423 882 1271 1353 1389 1416 1421 1443 0
-1424 876 882 886 887 891 1426 0
-1426 887 973 979 1250 1343 1365 1380 1385 1424 1427 1439 0
-1428 900 1251 1319 1367 1386 1427 1440 0
-1429 1090 1232 1284 0
-1431 1036 1127 1242 0
-1433 1128 1341 1388 0
-1435 1201 1394 1407 0
-1436 1015 1027 1275 0
-1437 1193 1204 0
-1438 1019 1033 1187 1196 1208 1214 0
-1440 1028 1367 1428 0
-1441 1052 1082 1240 0
-1442 1159 1360 1378 0
-1443 1231 1416 1423 0
-1446 1084 1312 1397 0
-1447 1130 1200 1256 0
-1448 1146 1169 1176 1178 1217 1235 0
-1449 1148 1160 1269 0
-1450 1220 1228 0
-1451 1452 1456 1471 1475 1479 1480 0
-1452 1451 1453 1457 1460 1472 1476 1481 1482 0
-1453 1452 1454 1461 1464 1477 1483 1484 1485 0
-1454 1453 1455 1458 1462 1465 1468 1486 1487 0
-1455 1454 1456 1463 1466 1473 1488 1489 1490 0
-1456 1451 1455 1467 1469 1474 1478 1491 1492 0
-1458 1454 1462 1502 1508 1519 0
-1460 1452 1457 1461 1494 1507 0
-1463 1455 1462 1466 1504 1530 0
-1464 1453 1461 1465 1498 1529 0
-1467 1456 1466 1469 1496 1548 0
-1468 1454 1465 1500 1547 1567 0
-1472 1452 1471 1476 1498 1578 0
-1473 1455 1474 1502 1563 1584 0
-1477 1453 1476 1500 1512 1575 0
-1478 1456 1474 1475 1504 1579 0
-1482 1452 1484 1494 1562 1574 0
-1492 1456 1490 1496 1511 1525 0
-1493 1517 0
-1495 1569 0
-1497 0
-1499 1518 0
-1501 1568 0
-1503 0
-1509 1459 1510 1527 0
-1513 1459 1514 1589 0
-1517 1457 1493 0
-1518 1499 1516 0
-1520 1515 1537 1597 0
-1521 1459 1523 1539 0
-1522 1459 1526 1594 0
-1523 1521 1527 1535 0
-1526 1522 1543 1589 0
-1527 1509 1515 1523 0
-1537 1520 1536 0
-1538 1505 1516 1539 0
-1541 1524 1540 1544 0
-1545 1546 1550 1570 0
-1550 1470 1545 1549 0
-1552 1553 1566 0
-1555 1528 1534 1556 0
-1558 1542 1557 1560 0
-1564 1470 1565 1576 0
-1566 1546 1552 1600 0
-1568 1501 1542 0
-1569 1469 1495 0
-1570 1545 1554 1571 0
-1571 1470 1557 1570 0
-1572 1470 1573 1586 0
-1573 1559 1572 1576 0
-1576 1564 1567 1573 0
-1577 1575 1581 1595 0
-1583 1584 1601 0
-1588 1574 1587 1590 0
-1589 1513 1519 1526 0
-1590 1580 1584 1588 0
-1591 1575 1602 0
-1595 1525 1577 1596 0
-1597 1520 0
-1598 1533 1536 0
-1599 1551 1553 0
-1600 1566 0
-1601 1582 1583 0
-1602 1591 1592 0
-496 1603 0
-495 1603 0
-495 -496 1604 0
-498 1605 0
-497 1605 0
-497 -498 1606 0
-500 1607 0
-499 1607 0
-499 -500 1608 0
-502 1609 0
-501 1609 0
-501 -502 1610 0
-504 1611 0
-503 1611 0
-503 -504 1612 0
-506 1613 0
-505 1613 0
-505 -506 1614 0
-508 1615 0
-507 1615 0
-507 -508 1616 0
-510 1617 0
-509 1617 0
-509 -510 1618 0
-512 1619 0
-511 1619 0
-511 -512 1620 0
-514 1621 0
-513 1621 0
-513 -514 1622 0
-516 1623 0
-515 1623 0
-515 -516 1624 0
-518 1625 0
-517 1625 0
-517 -518 1626 0
-520 1627 0
-519 1627 0
-519 -520 1628 0
-522 1629 0
-521 1629 0
-521 -522 1630 0
-524 1631 0
-523 1631 0
-523 -524 1632 0
-526 1633 0
-525 1633 0
-525 -526 1634 0
-528 1635 0
-527 1635 0
-527 -528 1636 0
-530 1637 0
-529 1637 0
-529 -530 1638 0
-532 1639 0
-531 1639 0
-531 -532 1640 0
-534 1641 0
-533 1641 0
-533 -534 1642 0
-536 1643 0
-535 1643 0
-535 -536 1644 0
-538 1645 0
-537 1645 0
-537 -538 1646 0
-540 1647 0
-539 1647 0
-539 -540 1648 0
-542 1649 0
-541 1649 0
-541 -542 1650 0
-544 1651 0
-543 1651 0
-543 -544 1652 0
-546 1653 0
-545 1653 0
-545 -546 1654 0
-548 1655 0
-547 1655 0
-547 -548 1656 0
-550 1657 0
-549 1657 0
-549 -550 1658 0
-552 1659 0
-551 1659 0
-551 -552 1660 0
-554 1661 0
-553 1661 0
-553 -554 1662 0
-556 1663 0
-555 1663 0
-555 -556 1664 0
-558 1665 0
-557 1665 0
-557 -558 1666 0
-560 1667 0
-559 1667 0
-559 -560 1668 0
-562 1669 0
-561 1669 0
-561 -562 1670 0
-564 1671 0
-563 1671 0
-563 -564 1672 0
-566 1673 0
-565 1673 0
-565 -566 1674 0
-568 1675 0
-567 1675 0
-567 -568 1676 0
-570 1677 0
-569 1677 0
-569 -570 1678 0
-572 1679 0
-571 1679 0
-571 -572 1680 0
-574 1681 0
-573 1681 0
-573 -574 1682 0
-576 1683 0
-575 1683 0
-575 -576 1684 0
-578 1685 0
-577 1685 0
-577 -578 1686 0
-580 1687 0
-579 1687 0
-579 -580 1688 0
-582 1689 0
-581 1689 0
-581 -582 1690 0
-584 1691 0
-583 1691 0
-583 -584 1692 0
-586 1693 0
-585 1693 0
-585 -586 1694 0
-588 1695 0
-587 1695 0
-587 -588 1696 0
-590 1697 0
-589 1697 0
-589 -590 1698 0
-592 1699 0
-591 1699 0
-591 -592 1700 0
-594 1701 0
-593 1701 0
-593 -594 1702 0
-596 1703 0
-595 1703 0
-595 -596 1704 0
-598 1705 0
-597 1705 0
-597 -598 1706 0
-600 1707 0
-599 1707 0
-599 -600 1708 0
-602 1709 0
-601 1709 0
-601 -602 1710 0
-604 1711 0
-603 1711 0
-603 -604 1712 0
-606 1713 0
-605 1713 0
-605 -606 1714 0
-608 1715 0
-607 1715 0
-607 -608 1716 0
-610 1717 0
-609 1717 0
-609 -610 1718 0
-612 1719 0
-611 1719 0
-611 -612 1720 0
-614 1721 0
-613 1721 0
-613 -614 1722 0
-616 1723 0
-615 1723 0
-615 -616 1724 0
-618 1725 0
-617 1725 0
-617 -618 1726 0
-620 1727 0
-619 1727 0
-619 -620 1728 0
-622 1729 0
-621 1729 0
-621 -622 1730 0
-624 1731 0
-623 1731 0
-623 -624 1732 0
-626 1733 0
-625 1733 0
-625 -626 1734 0
-628 1735 0
-627 1735 0
-627 -628 1736 0
-630 1737 0
-629 1737 0
-629 -630 1738 0
-632 1739 0
-631 1739 0
-631 -632 1740 0
-634 1741 0
-633 1741 0
-633 -634 1742 0
-636 1743 0
-635 1743 0
-635 -636 1744 0
-638 1745 0
-637 1745 0
-637 -638 1746 0
-640 1747 0
-639 1747 0
-639 -640 1748 0
-642 1749 0
-641 1749 0
-641 -642 1750 0
-644 1751 0
-643 1751 0
-643 -644 1752 0
-646 1753 0
-645 1753 0
-645 -646 1754 0
-648 1755 0
-647 1755 0
-647 -648 1756 0
-650 1757 0
-649 1757 0
-649 -650 1758 0
-652 1759 0
-651 1759 0
-651 -652 1760 0
-654 1761 0
-653 1761 0
-653 -654 1762 0
-656 1763 0
-655 1763 0
-655 -656 1764 0
-658 1765 0
-657 1765 0
-657 -658 1766 0
-660 1767 0
-659 1767 0
-659 -660 1768 0
-662 1769 0
-661 1769 0
-661 -662 1770 0
-664 1771 0
-663 1771 0
-663 -664 1772 0
-666 1773 0
-665 1773 0
-665 -666 1774 0
-668 1775 0
-667 1775 0
-667 -668 1776 0
-670 1777 0
-669 1777 0
-669 -670 1778 0
-672 1779 0
-671 1779 0
-671 -672 1780 0
-674 1781 0
-673 1781 0
-673 -674 1782 0
-676 1783 0
-675 1783 0
-675 -676 1784 0
-678 1785 0
-677 1785 0
-677 -678 1786 0
-680 1787 0
-679 1787 0
-679 -680 1788 0
-682 1789 0
-681 1789 0
-681 -682 1790 0
-684 1791 0
-683 1791 0
-683 -684 1792 0
-686 1793 0
-685 1793 0
-685 -686 1794 0
-688 1795 0
-687 1795 0
-687 -688 1796 0
-690 1797 0
-689 1797 0
-689 -690 1798 0
-692 1799 0
-691 1799 0
-691 -692 1800 0
-694 1801 0
-693 1801 0
-693 -694 1802 0
-696 1803 0
-695 1803 0
-695 -696 1804 0
-698 1805 0
-697 1805 0
-697 -698 1806 0
-700 1807 0
-699 1807 0
-699 -700 1808 0
-702 1809 0
-701 1809 0
-701 -702 1810 0
-704 1811 0
-703 1811 0
-703 -704 1812 0
-706 1813 0
-705 1813 0
-705 -706 1814 0
-708 1815 0
-707 1815 0
-707 -708 1816 0
-710 1817 0
-709 1817 0
-709 -710 1818 0
-712 1819 0
-711 1819 0
-711 -712 1820 0
-714 1821 0
-713 1821 0
-713 -714 1822 0
-716 1823 0
-715 1823 0
-715 -716 1824 0
-718 1825 0
-717 1825 0
-717 -718 1826 0
-720 1827 0
-719 1827 0
-719 -720 1828 0
-722 1829 0
-721 1829 0
-721 -722 1830 0
-724 1831 0
-723 1831 0
-723 -724 1832 0
-726 1833 0
-725 1833 0
-725 -726 1834 0
-728 1835 0
-727 1835 0
-727 -728 1836 0
-730 1837 0
-729 1837 0
-729 -730 1838 0
-732 1839 0
-731 1839 0
-731 -732 1840 0
-734 1841 0
-733 1841 0
-733 -734 1842 0
-736 1843 0
-735 1843 0
-735 -736 1844 0
-738 1845 0
-737 1845 0
-737 -738 1846 0
-740 1847 0
-739 1847 0
-739 -740 1848 0
-742 1849 0
-741 1849 0
-741 -742 1850 0
-744 1851 0
-743 1851 0
-743 -744 1852 0
-746 1853 0
-745 1853 0
-745 -746 1854 0
-748 1855 0
-747 1855 0
-747 -748 1856 0
-750 1857 0
-749 1857 0
-749 -750 1858 0
-752 1859 0
-751 1859 0
-751 -752 1860 0
-754 1861 0
-753 1861 0
-753 -754 1862 0
-756 1863 0
-755 1863 0
-755 -756 1864 0
-758 1865 0
-757 1865 0
-757 -758 1866 0
-760 1867 0
-759 1867 0
-759 -760 1868 0
-762 1869 0
-761 1869 0
-761 -762 1870 0
-764 1871 0
-763 1871 0
-763 -764 1872 0
-766 1873 0
-765 1873 0
-765 -766 1874 0
-768 1875 0
-767 1875 0
-767 -768 1876 0
-770 1877 0
-769 1877 0
-769 -770 1878 0
-772 1879 0
-771 1879 0
-771 -772 1880 0
-774 1881 0
-773 1881 0
-773 -774 1882 0
-776 1883 0
-775 1883 0
-775 -776 1884 0
-778 1885 0
-777 1885 0
-777 -778 1886 0
-780 1887 0
-779 1887 0
-779 -780 1888 0
-782 1889 0
-781 1889 0
-781 -782 1890 0
-784 1891 0
-783 1891 0
-783 -784 1892 0
-786 1893 0
-785 1893 0
-785 -786 1894 0
-788 1895 0
-787 1895 0
-787 -788 1896 0
-790 1897 0
-789 1897 0
-789 -790 1898 0
-792 1899 0
-791 1899 0
-791 -792 1900 0
-794 1901 0
-793 1901 0
-793 -794 1902 0
-796 1903 0
-795 1903 0
-795 -796 1904 0
-798 1905 0
-797 1905 0
-797 -798 1906 0
-800 1907 0
-799 1907 0
-799 -800 1908 0
-802 1909 0
-801 1909 0
-801 -802 1910 0
-804 1911 0
-803 1911 0
-803 -804 1912 0
-806 1913 0
-805 1913 0
-805 -806 1914 0
-808 1915 0
-807 1915 0
-807 -808 1916 0
-810 1917 0
-809 1917 0
-809 -810 1918 0
-812 1919 0
-811 1919 0
-811 -812 1920 0
-814 1921 0
-813 1921 0
-813 -814 1922 0
-816 1923 0
-815 1923 0
-815 -816 1924 0
-818 1925 0
-817 1925 0
-817 -818 1926 0
-820 1927 0
-819 1927 0
-819 -820 1928 0
-822 1929 0
-821 1929 0
-821 -822 1930 0
-824 1931 0
-823 1931 0
-823 -824 1932 0
-826 1933 0
-825 1933 0
-825 -826 1934 0
-828 1935 0
-827 1935 0
-827 -828 1936 0
-830 1937 0
-829 1937 0
-829 -830 1938 0
-832 1939 0
-831 1939 0
-831 -832 1940 0
-834 1941 0
-833 1941 0
-833 -834 1942 0
-836 1943 0
-835 1943 0
-835 -836 1944 0
-838 1945 0
-837 1945 0
-837 -838 1946 0
-840 1947 0
-839 1947 0
-839 -840 1948 0
-842 1949 0
-841 1949 0
-841 -842 1950 0
-844 1951 0
-843 1951 0
-843 -844 1952 0
-846 1953 0
-845 1953 0
-845 -846 1954 0
-848 1955 0
-847 1955 0
-847 -848 1956 0
-850 1957 0
-849 1957 0
-849 -850 1958 0
-852 1959 0
-851 1959 0
-851 -852 1960 0
-854 1961 0
-853 1961 0
-853 -854 1962 0
-856 1963 0
-855 1963 0
-855 -856 1964 0
-858 1965 0
-857 1965 0
-857 -858 1966 0
-860 1967 0
-859 1967 0
-859 -860 1968 0
-862 1969 0
-861 1969 0
-861 -862 1970 0
-864 1971 0
-863 1971 0
-863 -864 1972 0
-866 1973 0
-865 1973 0
-865 -866 1974 0
-868 1975 0
-867 1975 0
-867 -868 1976 0
-870 1977 0
-869 1977 0
-869 -870 1978 0
-872 1979 0
-871 1979 0
-871 -872 1980 0
-874 1981 0
-873 1981 0
-873 -874 1982 0
-876 1983 0
-875 1983 0
-875 -876 1984 0
-878 1985 0
-877 1985 0
-877 -878 1986 0
-880 1987 0
-879 1987 0
-879 -880 1988 0
-882 1989 0
-881 1989 0
-881 -882 1990 0
-884 1991 0
-883 1991 0
-883 -884 1992 0
-886 1993 0
-885 1993 0
-885 -886 1994 0
-888 1995 0
-887 1995 0
-887 -888 1996 0
-890 1997 0
-889 1997 0
-889 -890 1998 0
-892 1999 0
-891 1999 0
-891 -892 2000 0
-894 2001 0
-893 2001 0
-893 -894 2002 0
-896 2003 0
-895 2003 0
-895 -896 2004 0
-898 2005 0
-897 2005 0
-897 -898 2006 0
-900 2007 0
-899 2007 0
-899 -900 2008 0
-902 2009 0
-901 2009 0
-901 -902 2010 0
-904 2011 0
-903 2011 0
-903 -904 2012 0
-906 2013 0
-905 2013 0
-905 -906 2014 0
-908 2015 0
-907 2015 0
-907 -908 2016 0
-910 2017 0
-909 2017 0
-909 -910 2018 0
-912 2019 0
-911 2019 0
-911 -912 2020 0
-914 2021 0
-913 2021 0
-913 -914 2022 0
-916 2023 0
-915 2023 0
-915 -916 2024 0
-918 2025 0
-917 2025 0
-917 -918 2026 0
-920 2027 0
-919 2027 0
-919 -920 2028 0
-922 2029 0
-921 2029 0
-921 -922 2030 0
-924 2031 0
-923 2031 0
-923 -924 2032 0
-926 2033 0
-925 2033 0
-925 -926 2034 0
-928 2035 0
-927 2035 0
-927 -928 2036 0
-930 2037 0
-929 2037 0
-929 -930 2038 0
-932 2039 0
-931 2039 0
-931 -932 2040 0
-934 2041 0
-933 2041 0
-933 -934 2042 0
-936 2043 0
-935 2043 0
-935 -936 2044 0
-938 2045 0
-937 2045 0
-937 -938 2046 0
-940 2047 0
-939 2047 0
-939 -940 2048 0
-942 2049 0
-941 2049 0
-941 -942 2050 0
-944 2051 0
-943 2051 0
-943 -944 2052 0
-946 2053 0
-945 2053 0
-945 -946 2054 0
-948 2055 0
-947 2055 0
-947 -948 2056 0
-950 2057 0
-949 2057 0
-949 -950 2058 0
-952 2059 0
-951 2059 0
-951 -952 2060 0
-954 2061 0
-953 2061 0
-953 -954 2062 0
-956 2063 0
-955 2063 0
-955 -956 2064 0
-958 2065 0
-957 2065 0
-957 -958 2066 0
-960 2067 0
-959 2067 0
-959 -960 2068 0
-962 2069 0
-961 2069 0
-961 -962 2070 0
-964 2071 0
-963 2071 0
-963 -964 2072 0
-966 2073 0
-965 2073 0
-965 -966 2074 0
-968 2075 0
-967 2075 0
-967 -968 2076 0
-970 2077 0
-969 2077 0
-969 -970 2078 0
-972 2079 0
-971 2079 0
-971 -972 2080 0
-974 2081 0
-973 2081 0
-973 -974 2082 0
-976 2083 0
-975 2083 0
-975 -976 2084 0
-978 2085 0
-977 2085 0
-977 -978 2086 0
-980 2087 0
-979 2087 0
-979 -980 2088 0
-982 2089 0
-981 2089 0
-981 -982 2090 0
-984 2091 0
-983 2091 0
-983 -984 2092 0
-986 2093 0
-985 2093 0
-985 -986 2094 0
-988 2095 0
-987 2095 0
-987 -988 2096 0
-990 2097 0
-989 2097 0
-989 -990 2098 0
-992 2099 0
-991 2099 0
-991 -992 2100 0
-994 2101 0
-993 2101 0
-993 -994 2102 0
-996 2103 0
-995 2103 0
-995 -996 2104 0
-998 2105 0
-997 2105 0
-997 -998 2106 0
-1000 2107 0
-999 2107 0
-999 -1000 2108 0
-1002 2109 0
-1001 2109 0
-1001 -1002 2110 0
-1004 2111 0
-1003 2111 0
-1003 -1004 2112 0
-1006 2113 0
-1005 2113 0
-1005 -1006 2114 0
-1008 2115 0
-1007 2115 0
-1007 -1008 2116 0
-1010 2117 0
-1009 2117 0
-1009 -1010 2118 0
-1012 2119 0
-1011 2119 0
-1011 -1012 2120 0
-1014 2121 0
-1013 2121 0
-1013 -1014 2122 0
-1016 2123 0
-1015 2123 0
-1015 -1016 2124 0
-1018 2125 0
-1017 2125 0
-1017 -1018 2126 0
-1020 2127 0
-1019 2127 0
-1019 -1020 2128 0
-1022 2129 0
-1021 2129 0
-1021 -1022 2130 0
-1024 2131 0
-1023 2131 0
-1023 -1024 2132 0
-1026 2133 0
-1025 2133 0
-1025 -1026 2134 0
-1028 2135 0
-1027 2135 0
-1027 -1028 2136 0
-1030 2137 0
-1029 2137 0
-1029 -1030 2138 0
-1032 2139 0
-1031 2139 0
-1031 -1032 2140 0
-1034 2141 0
-1033 2141 0
-1033 -1034 2142 0
-1036 2143 0
-1035 2143 0
-1035 -1036 2144 0
-1038 2145 0
-1037 2145 0
-1037 -1038 2146 0
-1040 2147 0
-1039 2147 0
-1039 -1040 2148 0
-1042 2149 0
-1041 2149 0
-1041 -1042 2150 0
-1044 2151 0
-1043 2151 0
-1043 -1044 2152 0
-1046 2153 0
-1045 2153 0
-1045 -1046 2154 0
-1048 2155 0
-1047 2155 0
-1047 -1048 2156 0
-1050 2157 0
-1049 2157 0
-1049 -1050 2158 0
-1052 2159 0
-1051 2159 0
-1051 -1052 2160 0
-1054 2161 0
-1053 2161 0
-1053 -1054 2162 0
-1056 2163 0
-1055 2163 0
-1055 -1056 2164 0
-1058 2165 0
-1057 2165 0
-1057 -1058 2166 0
-1060 2167 0
-1059 2167 0
-1059 -1060 2168 0
-1062 2169 0
-1061 2169 0
-1061 -1062 2170 0
-1064 2171 0
-1063 2171 0
-1063 -1064 2172 0
-1066 2173 0
-1065 2173 0
-1065 -1066 2174 0
-1068 2175 0
-1067 2175 0
-1067 -1068 2176 0
-1070 2177 0
-1069 2177 0
-1069 -1070 2178 0
-1072 2179 0
-1071 2179 0
-1071 -1072 2180 0
-1074 2181 0
-1073 2181 0
-1073 -1074 2182 0
-1076 2183 0
-1075 2183 0
-1075 -1076 2184 0
-1078 2185 0
-1077 2185 0
-1077 -1078 2186 0
-1080 2187 0
-1079 2187 0
-1079 -1080 2188 0
-1082 2189 0
-1081 2189 0
-1081 -1082 2190 0
-1084 2191 0
-1083 2191 0
-1083 -1084 2192 0
-1086 2193 0
-1085 2193 0
-1085 -1086 2194 0
-1088 2195 0
-1087 2195 0
-1087 -1088 2196 0
-1090 2197 0
-1089 2197 0
-1089 -1090 2198 0
-1092 2199 0
-1091 2199 0
-1091 -1092 2200 0
-1094 2201 0
-1093 2201 0
-1093 -1094 2202 0
-1096 2203 0
-1095 2203 0
-1095 -1096 2204 0
-1098 2205 0
-1097 2205 0
-1097 -1098 2206 0
-1100 2207 0
-1099 2207 0
-1099 -1100 2208 0
-1102 2209 0
-1101 2209 0
-1101 -1102 2210 0
-1104 2211 0
-1103 2211 0
-1103 -1104 2212 0
-1106 2213 0
-1105 2213 0
-1105 -1106 2214 0
-1108 2215 0
-1107 2215 0
-1107 -1108 2216 0
-1110 2217 0
-1109 2217 0
-1109 -1110 2218 0
-1112 2219 0
-1111 2219 0
-1111 -1112 2220 0
-1114 2221 0
-1113 2221 0
-1113 -1114 2222 0
-1116 2223 0
-1115 2223 0
-1115 -1116 2224 0
-1118 2225 0
-1117 2225 0
-1117 -1118 2226 0
-1120 2227 0
-1119 2227 0
-1119 -1120 2228 0
-1122 2229 0
-1121 2229 0
-1121 -1122 2230 0
-1124 2231 0
-1123 2231 0
-1123 -1124 2232 0
-1126 2233 0
-1125 2233 0
-1125 -1126 2234 0
-1128 2235 0
-1127 2235 0
-1127 -1128 2236 0
-1130 2237 0
-1129 2237 0
-1129 -1130 2238 0
-1132 2239 0
-1131 2239 0
-1131 -1132 2240 0
-1134 2241 0
-1133 2241 0
-1133 -1134 2242 0
-1136 2243 0
-1135 2243 0
-1135 -1136 2244 0
-1138 2245 0
-1137 2245 0
-1137 -1138 2246 0
-1140 2247 0
-1139 2247 0
-1139 -1140 2248 0
-1142 2249 0
-1141 2249 0
-1141 -1142 2250 0
-1144 2251 0
-1143 2251 0
-1143 -1144 2252 0
-1146 2253 0
-1145 2253 0
-1145 -1146 2254 0
-1148 2255 0
-1147 2255 0
-1147 -1148 2256 0
-1150 2257 0
-1149 2257 0
-1149 -1150 2258 0
-1152 2259 0
-1151 2259 0
-1151 -1152 2260 0
-1154 2261 0
-1153 2261 0
-1153 -1154 2262 0
-1156 2263 0
-1155 2263 0
-1155 -1156 2264 0
-1158 2265 0
-1157 2265 0
-1157 -1158 2266 0
-1160 2267 0
-1159 2267 0
-1159 -1160 2268 0
-1162 2269 0
-1161 2269 0
-1161 -1162 2270 0
-1164 2271 0
-1163 2271 0
-1163 -1164 2272 0
-1166 2273 0
-1165 2273 0
-1165 -1166 2274 0
-1168 2275 0
-1167 2275 0
-1167 -1168 2276 0
-1170 2277 0
-1169 2277 0
-1169 -1170 2278 0
-1172 2279 0
-1171 2279 0
-1171 -1172 2280 0
-1174 2281 0
-1173 2281 0
-1173 -1174 2282 0
-1176 2283 0
-1175 2283 0
-1175 -1176 2284 0
-1178 2285 0
-1177 2285 0
-1177 -1178 2286 0
-1180 2287 0
-1179 2287 0
-1179 -1180 2288 0
-1182 2289 0
-1181 2289 0
-1181 -1182 2290 0
-1184 2291 0
-1183 2291 0
-1183 -1184 2292 0
-1186 2293 0
-1185 2293 0
-1185 -1186 2294 0
-1188 2295 0
-1187 2295 0
-1187 -1188 2296 0
-1190 2297 0
-1189 2297 0
-1189 -1190 2298 0
-1192 2299 0
-1191 2299 0
-1191 -1192 2300 0
-1194 2301 0
-1193 2301 0
-1193 -1194 2302 0
-1196 2303 0
-1195 2303 0
-1195 -1196 2304 0
-1198 2305 0
-1197 2305 0
-1197 -1198 2306 0
-1200 2307 0
-1199 2307 0
-1199 -1200 2308 0
-1202 2309 0
-1201 2309 0
-1201 -1202 2310 0
-1204 2311 0
-1203 2311 0
-1203 -1204 2312 0
-1206 2313 0
-1205 2313 0
-1205 -1206 2314 0
-1208 2315 0
-1207 2315 0
-1207 -1208 2316 0
-1210 2317 0
-1209 2317 0
-1209 -1210 2318 0
-1212 2319 0
-1211 2319 0
-1211 -1212 2320 0
-1214 2321 0
-1213 2321 0
-1213 -1214 2322 0
-1216 2323 0
-1215 2323 0
-1215 -1216 2324 0
-1218 2325 0
-1217 2325 0
-1217 -1218 2326 0
-1220 2327 0
-1219 2327 0
-1219 -1220 2328 0
-1222 2329 0
-1221 2329 0
-1221 -1222 2330 0
-1224 2331 0
-1223 2331 0
-1223 -1224 2332 0
-1226 2333 0
-1225 2333 0
-1225 -1226 2334 0
-1228 2335 0
-1227 2335 0
-1227 -1228 2336 0
-1230 2337 0
-1229 2337 0
-1229 -1230 2338 0
-1232 2339 0
-1231 2339 0
-1231 -1232 2340 0
-1234 2341 0
-1233 2341 0
-1233 -1234 2342 0
-1236 2343 0
-1235 2343 0
-1235 -1236 2344 0
-1238 2345 0
-1237 2345 0
-1237 -1238 2346 0
-1240 2347 0
-1239 2347 0
-1239 -1240 2348 0
-1242 2349 0
-1241 2349 0
-1241 -1242 2350 0
-1244 2351 0
-1243 2351 0
-1243 -1244 2352 0
-1246 2353 0
-1245 2353 0
-1245 -1246 2354 0
-1248 2355 0
-1247 2355 0
-1247 -1248 2356 0
-1250 2357 0
-1249 2357 0
-1249 -1250 2358 0
-1252 2359 0
-1251 2359 0
-1251 -1252 2360 0
-1254 2361 0
-1253 2361 0
-1253 -1254 2362 0
-1256 2363 0
-1255 2363 0
-1255 -1256 2364 0
-1258 2365 0
-1257 2365 0
-1257 -1258 2366 0
-1260 2367 0
-1259 2367 0
-1259 -1260 2368 0
-1262 2369 0
-1261 2369 0
-1261 -1262 2370 0
-1264 2371 0
-1263 2371 0
-1263 -1264 2372 0
-1266 2373 0
-1265 2373 0
-1265 -1266 2374 0
-1268 2375 0
-1267 2375 0
-1267 -1268 2376 0
-1270 2377 0
-1269 2377 0
-1269 -1270 2378 0
-1272 2379 0
-1271 2379 0
-1271 -1272 2380 0
-1274 2381 0
-1273 2381 0
-1273 -1274 2382 0
-1276 2383 0
-1275 2383 0
-1275 -1276 2384 0
-1278 2385 0
-1277 2385 0
-1277 -1278 2386 0
-1280 2387 0
-1279 2387 0
-1279 -1280 2388 0
-1282 2389 0
-1281 2389 0
-1281 -1282 2390 0
-1284 2391 0
-1283 2391 0
-1283 -1284 2392 0
-1286 2393 0
-1285 2393 0
-1285 -1286 2394 0
-1288 2395 0
-1287 2395 0
-1287 -1288 2396 0
-1290 2397 0
-1289 2397 0
-1289 -1290 2398 0
-1292 2399 0
-1291 2399 0
-1291 -1292 2400 0
-1294 2401 0
-1293 2401 0
-1293 -1294 2402 0
-1296 2403 0
-1295 2403 0
-1295 -1296 2404 0
-1298 2405 0
-1297 2405 0
-1297 -1298 2406 0
-1300 2407 0
-1299 2407 0
-1299 -1300 2408 0
-1302 2409 0
-1301 2409 0
-1301 -1302 2410 0
-1304 2411 0
-1303 2411 0
-1303 -1304 2412 0
-1306 2413 0
-1305 2413 0
-1305 -1306 2414 0
-1308 2415 0
-1307 2415 0
-1307 -1308 2416 0
-1310 2417 0
-1309 2417 0
-1309 -1310 2418 0
-1312 2419 0
-1311 2419 0
-1311 -1312 2420 0
-1314 2421 0
-1313 2421 0
-1313 -1314 2422 0
-1316 2423 0
-1315 2423 0
-1315 -1316 2424 0
-1318 2425 0
-1317 2425 0
-1317 -1318 2426 0
-1320 2427 0
-1319 2427 0
-1319 -1320 2428 0
-1322 2429 0
-1321 2429 0
-1321 -1322 2430 0
-1324 2431 0
-1323 2431 0
-1323 -1324 2432 0
-1326 2433 0
-1325 2433 0
-1325 -1326 2434 0
-1328 2435 0
-1327 2435 0
-1327 -1328 2436 0
-1330 2437 0
-1329 2437 0
-1329 -1330 2438 0
-1332 2439 0
-1331 2439 0
-1331 -1332 2440 0
-1334 2441 0
-1333 2441 0
-1333 -1334 2442 0
-1336 2443 0
-1335 2443 0
-1335 -1336 2444 0
-1338 2445 0
-1337 2445 0
-1337 -1338 2446 0
-1340 2447 0
-1339 2447 0
-1339 -1340 2448 0
-1342 2449 0
-1341 2449 0
-1341 -1342 2450 0
-1344 2451 0
-1343 2451 0
-1343 -1344 2452 0
-1346 2453 0
-1345 2453 0
-1345 -1346 2454 0
-1348 2455 0
-1347 2455 0
-1347 -1348 2456 0
-1350 2457 0
-1349 2457 0
-1349 -1350 2458 0
-1352 2459 0
-1351 2459 0
-1351 -1352 2460 0
-1354 2461 0
-1353 2461 0
-1353 -1354 2462 0
-1356 2463 0
-1355 2463 0
-1355 -1356 2464 0
-1358 2465 0
-1357 2465 0
-1357 -1358 2466 0
-1360 2467 0
-1359 2467 0
-1359 -1360 2468 0
-1362 2469 0
-1361 2469 0
-1361 -1362 2470 0
-1364 2471 0
-1363 2471 0
-1363 -1364 2472 0
-1366 2473 0
-1365 2473 0
-1365 -1366 2474 0
-1368 2475 0
-1367 2475 0
-1367 -1368 2476 0
-1370 2477 0
-1369 2477 0
-1369 -1370 2478 0
-1372 2479 0
-1371 2479 0
-1371 -1372 2480 0
-1374 2481 0
-1373 2481 0
-1373 -1374 2482 0
-1376 2483 0
-1375 2483 0
-1375 -1376 2484 0
-1378 2485 0
-1377 2485 0
-1377 -1378 2486 0
-1380 2487 0
-1379 2487 0
-1379 -1380 2488 0
-1382 2489 0
-1381 2489 0
-1381 -1382 2490 0
-1384 2491 0
-1383 2491 0
-1383 -1384 2492 0
-1386 2493 0
-1385 2493 0
-1385 -1386 2494 0
-1388 2495 0
-1387 2495 0
-1387 -1388 2496 0
-1390 2497 0
-1389 2497 0
-1389 -1390 2498 0
-1392 2499 0
-1391 2499 0
-1391 -1392 2500 0
-1394 2501 0
-1393 2501 0
-1393 -1394 2502 0
-1396 2503 0
-1395 2503 0
-1395 -1396 2504 0
-1398 2505 0
-1397 2505 0
-1397 -1398 2506 0
-1400 2507 0
-1399 2507 0
-1399 -1400 2508 0
-1402 2509 0
-1401 2509 0
-1401 -1402 2510 0
-1404 2511 0
-1403 2511 0
-1403 -1404 2512 0
-1406 2513 0
-1405 2513 0
-1405 -1406 2514 0
-1408 2515 0
-1407 2515 0
-1407 -1408 2516 0
-1410 2517 0
-1409 2517 0
-1409 -1410 2518 0
-1412 2519 0
-1411 2519 0
-1411 -1412 2520 0
-1414 2521 0
-1413 2521 0
-1413 -1414 2522 0
-1416 2523 0
-1415 2523 0
-1415 -1416 2524 0
-1418 2525 0
-1417 2525 0
-1417 -1418 2526 0
-1420 2527 0
-1419 2527 0
-1419 -1420 2528 0
-1422 2529 0
-1421 2529 0
-1421 -1422 2530 0
-1424 2531 0
-1423 2531 0
-1423 -1424 2532 0
-1426 2533 0
-1425 2533 0
-1425 -1426 2534 0
-1428 2535 0
-1427 2535 0
-1427 -1428 2536 0
-1430 2537 0
-1429 2537 0
-1429 -1430 2538 0
-1432 2539 0
-1431 2539 0
-1431 -1432 2540 0
-1434 2541 0
-1433 2541 0
-1433 -1434 2542 0
-1436 2543 0
-1435 2543 0
-1435 -1436 2544 0
-1438 2545 0
-1437 2545 0
-1437 -1438 2546 0
-1440 2547 0
-1439 2547 0
-1439 -1440 2548 0
-1442 2549 0
-1441 2549 0
-1441 -1442 2550 0
-1444 2551 0
-1443 2551 0
-1443 -1444 2552 0
-1446 2553 0
-1445 2553 0
-1445 -1446 2554 0
-1448 2555 0
-1447 2555 0
-1447 -1448 2556 0
-1450 2557 0
-1449 2557 0
-1449 -1450 2558 0
-1452 2559 0
-1451 2559 0
-1451 -1452 2560 0
-1454 2561 0
-1453 2561 0
-1453 -1454 2562 0
-1456 2563 0
-1455 2563 0
-1455 -1456 2564 0
-1458 2565 0
-1457 2565 0
-1457 -1458 2566 0
-1460 2567 0
-1459 2567 0
-1459 -1460 2568 0
-1462 2569 0
-1461 2569 0
-1461 -1462 2570 0
-1464 2571 0
-1463 2571 0
-1463 -1464 2572 0
-1466 2573 0
-1465 2573 0
-1465 -1466 2574 0
-1468 2575 0
-1467 2575 0
-1467 -1468 2576 0
-1470 2577 0
-1469 2577 0
-1469 -1470 2578 0
-1472 2579 0
-1471 2579 0
-1471 -1472 2580 0
-1474 2581 0
-1473 2581 0
-1473 -1474 2582 0
-1476 2583 0
-1475 2583 0
-1475 -1476 2584 0
-1478 2585 0
-1477 2585 0
-1477 -1478 2586 0
-1480 2587 0
-1479 2587 0
-1479 -1480 2588 0
-1482 2589 0
-1481 2589 0
-1481 -1482 2590 0
-1484 2591 0
-1483 2591 0
-1483 -1484 2592 0
-1486 2593 0
-1485 2593 0
-1485 -1486 2594 0
-1488 2595 0
-1487 2595 0
-1487 -1488 2596 0
-1490 2597 0
-1489 2597 0
-1489 -1490 2598 0
-1492 2599 0
-1491 2599 0
-1491 -1492 2600 0
-1494 2601 0
-1493 2601 0
-1493 -1494 2602 0
-1496 2603 0
-1495 2603 0
-1495 -1496 2604 0
-1498 2605 0
-1497 2605 0
-1497 -1498 2606 0
-1500 2607 0
-1499 2607 0
-1499 -1500 2608 0
-1502 2609 0
-1501 2609 0
-1501 -1502 2610 0
-1504 2611 0
-1503 2611 0
-1503 -1504 2612 0
-1506 2613 0
-1505 2613 0
-1505 -1506 2614 0
-1508 2615 0
-1507 2615 0
-1507 -1508 2616 0
-1510 2617 0
-1509 2617 0
-1509 -1510 2618 0
-1512 2619 0
-1511 2619 0
-1511 -1512 2620 0
-1514 2621 0
-1513 2621 0
-1513 -1514 2622 0
-1516 2623 0
-1515 2623 0
-1515 -1516 2624 0
-1518 2625 0
-1517 2625 0
-1517 -1518 2626 0
-1520 2627 0
-1519 2627 0
-1519 -1520 2628 0
-1522 2629 0
-1521 2629 0
-1521 -1522 2630 0
-1524 2631 0
-1523 2631 0
-1523 -1524 2632 0
-1526 2633 0
-1525 2633 0
-1525 -1526 2634 0
-1528 2635 0
-1527 2635 0
-1527 -1528 2636 0
-1530 2637 0
-1529 2637 0
-1529 -1530 2638 0
-1532 2639 0
-1531 2639 0
-1531 -1532 2640 0
-1534 2641 0
-1533 2641 0
-1533 -1534 2642 0
-1536 2643 0
-1535 2643 0
-1535 -1536 2644 0
-1538 2645 0
-1537 2645 0
-1537 -1538 2646 0
-1540 2647 0
-1539 2647 0
-1539 -1540 2648 0
-1542 2649 0
-1541 2649 0
-1541 -1542 2650 0
-1544 2651 0
-1543 2651 0
-1543 -1544 2652 0
-1546 2653 0
-1545 2653 0
-1545 -1546 2654 0
-1548 2655 0
-1547 2655 0
-1547 -1548 2656 0
-1550 2657 0
-1549 2657 0
-1549 -1550 2658 0
-1552 2659 0
-1551 2659 0
-1551 -1552 2660 0
-1554 2661 0
-1553 2661 0
-1553 -1554 2662 0
-1556 2663 0
-1555 2663 0
-1555 -1556 2664 0
-1558 2665 0
-1557 2665 0
-1557 -1558 2666 0
-1560 2667 0
-1559 2667 0
-1559 -1560 2668 0
-1562 2669 0
-1561 2669 0
-1561 -1562 2670 0
-1564 2671 0
-1563 2671 0
-1563 -1564 2672 0
-1566 2673 0
-1565 2673 0
-1565 -1566 2674 0
-1568 2675 0
-1567 2675 0
-1567 -1568 2676 0
-1570 2677 0
-1569 2677 0
-1569 -1570 2678 0
-1572 2679 0
-1571 2679 0
-1571 -1572 2680 0
-1574 2681 0
-1573 2681 0
-1573 -1574 2682 0
-1576 2683 0
-1575 2683 0
-1575 -1576 2684 0
-1578 2685 0
-1577 2685 0
-1577 -1578 2686 0
-1580 2687 0
-1579 2687 0
-1579 -1580 2688 0
-1582 2689 0
-1581 2689 0
-1581 -1582 2690 0
-1584 2691 0
-1583 2691 0
-1583 -1584 2692 0
-1586 2693 0
-1585 2693 0
-1585 -1586 2694 0
-1588 2695 0
-1587 2695 0
-1587 -1588 2696 0
-1590 2697 0
-1589 2697 0
-1589 -1590 2698 0
-1592 2699 0
-1591 2699 0
-1591 -1592 2700 0
-1594 2701 0
-1593 2701 0
-1593 -1594 2702 0
-1596 2703 0
-1595 2703 0
-1595 -1596 2704 0
-1598 2705 0
-1597 2705 0
-1597 -1598 2706 0
-1600 2707 0
-1599 2707 0
-1599 -1600 2708 0
-1602 2709 0
-1601 2709 0
-1601 -1602 2710 0
-1605 2711 0
-1606 2712 0
-1603 2711 0
-1604 2712 0
-1603 -1605 2712 0
-1603 -1606 2713 0
-1604 -1605 2713 0
-1604 -1606 2714 0
-1609 2715 0
-1610 2716 0
-1607 2715 0
-1608 2716 0
-1607 -1609 2716 0
-1607 -1610 2717 0
-1608 -1609 2717 0
-1608 -1610 2718 0
-1613 2719 0
-1614 2720 0
-1611 2719 0
-1612 2720 0
-1611 -1613 2720 0
-1611 -1614 2721 0
-1612 -1613 2721 0
-1612 -1614 2722 0
-1617 2723 0
-1618 2724 0
-1615 2723 0
-1616 2724 0
-1615 -1617 2724 0
-1615 -1618 2725 0
-1616 -1617 2725 0
-1616 -1618 2726 0
-1621 2727 0
-1622 2728 0
-1619 2727 0
-1620 2728 0
-1619 -1621 2728 0
-1619 -1622 2729 0
-1620 -1621 2729 0
-1620 -1622 2730 0
-1625 2731 0
-1626 2732 0
-1623 2731 0
-1624 2732 0
-1623 -1625 2732 0
-1623 -1626 2733 0
-1624 -1625 2733 0
-1624 -1626 2734 0
-1629 2735 0
-1630 2736 0
-1627 2735 0
-1628 2736 0
-1627 -1629 2736 0
-1627 -1630 2737 0
-1628 -1629 2737 0
-1628 -1630 2738 0
-1633 2739 0
-1634 2740 0
-1631 2739 0
-1632 2740 0
-1631 -1633 2740 0
-1631 -1634 2741 0
-1632 -1633 2741 0
-1632 -1634 2742 0
-1637 2743 0
-1638 2744 0
-1635 2743 0
-1636 2744 0
-1635 -1637 2744 0
-1635 -1638 2745 0
-1636 -1637 2745 0
-1636 -1638 2746 0
-1641 2747 0
-1642 2748 0
-1639 2747 0
-1640 2748 0
-1639 -1641 2748 0
-1639 -1642 2749 0
-1640 -1641 2749 0
-1640 -1642 2750 0
-1645 2751 0
-1646 2752 0
-1643 2751 0
-1644 2752 0
-1643 -1645 2752 0
-1643 -1646 2753 0
-1644 -1645 2753 0
-1644 -1646 2754 0
-1649 2755 0
-1650 2756 0
-1647 2755 0
-1648 2756 0
-1647 -1649 2756 0
-1647 -1650 2757 0
-1648 -1649 2757 0
-1648 -1650 2758 0
-1653 2759 0
-1654 2760 0
-1651 2759 0
-1652 2760 0
-1651 -1653 2760 0
-1651 -1654 2761 0
-1652 -1653 2761 0
-1652 -1654 2762 0
-1657 2763 0
-1658 2764 0
-1655 2763 0
-1656 2764 0
-1655 -1657 2764 0
-1655 -1658 2765 0
-1656 -1657 2765 0
-1656 -1658 2766 0
-1661 2767 0
-1662 2768 0
-1659 2767 0
-1660 2768 0
-1659 -1661 2768 0
-1659 -1662 2769 0
-1660 -1661 2769 0
-1660 -1662 2770 0
-1665 2771 0
-1666 2772 0
-1663 2771 0
-1664 2772 0
-1663 -1665 2772 0
-1663 -1666 2773 0
-1664 -1665 2773 0
-1664 -1666 2774 0
-1669 2775 0
-1670 2776 0
-1667 2775 0
-1668 2776 0
-1667 -1669 2776 0
-1667 -1670 2777 0
-1668 -1669 2777 0
-1668 -1670 2778 0
-1673 2779 0
-1674 2780 0
-1671 2779 0
-1672 2780 0
-1671 -1673 2780 0
-1671 -1674 2781 0
-1672 -1673 2781 0
-1672 -1674 2782 0
-1677 2783 0
-1678 2784 0
-1675 2783 0
-1676 2784 0
-1675 -1677 2784 0
-1675 -1678 2785 0
-1676 -1677 2785 0
-1676 -1678 2786 0
-1681 2787 0
-1682 2788 0
-1679 2787 0
-1680 2788 0
-1679 -1681 2788 0
-1679 -1682 2789 0
-1680 -1681 2789 0
-1680 -1682 2790 0
-1685 2791 0
-1686 2792 0
-1683 2791 0
-1684 2792 0
-1683 -1685 2792 0
-1683 -1686 2793 0
-1684 -1685 2793 0
-1684 -1686 2794 0
-1689 2795 0
-1690 2796 0
-1687 2795 0
-1688 2796 0
-1687 -1689 2796 0
-1687 -1690 2797 0
-1688 -1689 2797 0
-1688 -1690 2798 0
-1693 2799 0
-1694 2800 0
-1691 2799 0
-1692 2800 0
-1691 -1693 2800 0
-1691 -1694 2801 0
-1692 -1693 2801 0
-1692 -1694 2802 0
-1697 2803 0
-1698 2804 0
-1695 2803 0
-1696 2804 0
-1695 -1697 2804 0
-1695 -1698 2805 0
-1696 -1697 2805 0
-1696 -1698 2806 0
-1701 2807 0
-1702 2808 0
-1699 2807 0
-1700 2808 0
-1699 -1701 2808 0
-1699 -1702 2809 0
-1700 -1701 2809 0
-1700 -1702 2810 0
-1705 2811 0
-1706 2812 0
-1703 2811 0
-1704 2812 0
-1703 -1705 2812 0
-1703 -1706 2813 0
-1704 -1705 2813 0
-1704 -1706 2814 0
-1709 2815 0
-1710 2816 0
-1707 2815 0
-1708 2816 0
-1707 -1709 2816 0
-1707 -1710 2817 0
-1708 -1709 2817 0
-1708 -1710 2818 0
-1713 2819 0
-1714 2820 0
-1711 2819 0
-1712 2820 0
-1711 -1713 2820 0
-1711 -1714 2821 0
-1712 -1713 2821 0
-1712 -1714 2822 0
-1717 2823 0
-1718 2824 0
-1715 2823 0
-1716 2824 0
-1715 -1717 2824 0
-1715 -1718 2825 0
-1716 -1717 2825 0
-1716 -1718 2826 0
-1721 2827 0
-1722 2828 0
-1719 2827 0
-1720 2828 0
-1719 -1721 2828 0
-1719 -1722 2829 0
-1720 -1721 2829 0
-1720 -1722 2830 0
-1725 2831 0
-1726 2832 0
-1723 2831 0
-1724 2832 0
-1723 -1725 2832 0
-1723 -1726 2833 0
-1724 -1725 2833 0
-1724 -1726 2834 0
-1729 2835 0
-1730 2836 0
-1727 2835 0
-1728 2836 0
-1727 -1729 2836 0
-1727 -1730 2837 0
-1728 -1729 2837 0
-1728 -1730 2838 0
-1733 2839 0
-1734 2840 0
-1731 2839 0
-1732 2840 0
-1731 -1733 2840 0
-1731 -1734 2841 0
-1732 -1733 2841 0
-1732 -1734 2842 0
-1737 2843 0
-1738 2844 0
-1735 2843 0
-1736 2844 0
-1735 -1737 2844 0
-1735 -1738 2845 0
-1736 -1737 2845 0
-1736 -1738 2846 0
-1741 2847 0
-1742 2848 0
-1739 2847 0
-1740 2848 0
-1739 -1741 2848 0
-1739 -1742 2849 0
-1740 -1741 2849 0
-1740 -1742 2850 0
-1745 2851 0
-1746 2852 0
-1743 2851 0
-1744 2852 0
-1743 -1745 2852 0
-1743 -1746 2853 0
-1744 -1745 2853 0
-1744 -1746 2854 0
-1749 2855 0
-1750 2856 0
-1747 2855 0
-1748 2856 0
-1747 -1749 2856 0
-1747 -1750 2857 0
-1748 -1749 2857 0
-1748 -1750 2858 0
-1753 2859 0
-1754 2860 0
-1751 2859 0
-1752 2860 0
-1751 -1753 2860 0
-1751 -1754 2861 0
-1752 -1753 2861 0
-1752 -1754 2862 0
-1757 2863 0
-1758 2864 0
-1755 2863 0
-1756 2864 0
-1755 -1757 2864 0
-1755 -1758 2865 0
-1756 -1757 2865 0
-1756 -1758 2866 0
-1761 2867 0
-1762 2868 0
-1759 2867 0
-1760 2868 0
-1759 -1761 2868 0
-1759 -1762 2869 0
-1760 -1761 2869 0
-1760 -1762 2870 0
-1765 2871 0
-1766 2872 0
-1763 2871 0
-1764 2872 0
-1763 -1765 2872 0
-1763 -1766 2873 0
-1764 -1765 2873 0
-1764 -1766 2874 0
-1769 2875 0
-1770 2876 0
-1767 2875 0
-1768 2876 0
-1767 -1769 2876 0
-1767 -1770 2877 0
-1768 -1769 2877 0
-1768 -1770 2878 0
-1773 2879 0
-1774 2880 0
-1771 2879 0
-1772 2880 0
-1771 -1773 2880 0
-1771 -1774 2881 0
-1772 -1773 2881 0
-1772 -1774 2882 0
-1777 2883 0
-1778 2884 0
-1775 2883 0
-1776 2884 0
-1775 -1777 2884 0
-1775 -1778 2885 0
-1776 -1777 2885 0
-1776 -1778 2886 0
-1781 2887 0
-1782 2888 0
-1779 2887 0
-1780 2888 0
-1779 -1781 2888 0
-1779 -1782 2889 0
-1780 -1781 2889 0
-1780 -1782 2890 0
-1785 2891 0
-1786 2892 0
-1783 2891 0
-1784 2892 0
-1783 -1785 2892 0
-1783 -1786 2893 0
-1784 -1785 2893 0
-1784 -1786 2894 0
-1789 2895 0
-1790 2896 0
-1787 2895 0
-1788 2896 0
-1787 -1789 2896 0
-1787 -1790 2897 0
-1788 -1789 2897 0
-1788 -1790 2898 0
-1793 2899 0
-1794 2900 0
-1791 2899 0
-1792 2900 0
-1791 -1793 2900 0
-1791 -1794 2901 0
-1792 -1793 2901 0
-1792 -1794 2902 0
-1797 2903 0
-1798 2904 0
-1795 2903 0
-1796 2904 0
-1795 -1797 2904 0
-1795 -1798 2905 0
-1796 -1797 2905 0
-1796 -1798 2906 0
-1801 2907 0
-1802 2908 0
-1799 2907 0
-1800 2908 0
-1799 -1801 2908 0
-1799 -1802 2909 0
-1800 -1801 2909 0
-1800 -1802 2910 0
-1805 2911 0
-1806 2912 0
-1803 2911 0
-1804 2912 0
-1803 -1805 2912 0
-1803 -1806 2913 0
-1804 -1805 2913 0
-1804 -1806 2914 0
-1809 2915 0
-1810 2916 0
-1807 2915 0
-1808 2916 0
-1807 -1809 2916 0
-1807 -1810 2917 0
-1808 -1809 2917 0
-1808 -1810 2918 0
-1813 2919 0
-1814 2920 0
-1811 2919 0
-1812 2920 0
-1811 -1813 2920 0
-1811 -1814 2921 0
-1812 -1813 2921 0
-1812 -1814 2922 0
-1817 2923 0
-1818 2924 0
-1815 2923 0
-1816 2924 0
-1815 -1817 2924 0
-1815 -1818 2925 0
-1816 -1817 2925 0
-1816 -1818 2926 0
-1821 2927 0
-1822 2928 0
-1819 2927 0
-1820 2928 0
-1819 -1821 2928 0
-1819 -1822 2929 0
-1820 -1821 2929 0
-1820 -1822 2930 0
-1825 2931 0
-1826 2932 0
-1823 2931 0
-1824 2932 0
-1823 -1825 2932 0
-1823 -1826 2933 0
-1824 -1825 2933 0
-1824 -1826 2934 0
-1829 2935 0
-1830 2936 0
-1827 2935 0
-1828 2936 0
-1827 -1829 2936 0
-1827 -1830 2937 0
-1828 -1829 2937 0
-1828 -1830 2938 0
-1833 2939 0
-1834 2940 0
-1831 2939 0
-1832 2940 0
-1831 -1833 2940 0
-1831 -1834 2941 0
-1832 -1833 2941 0
-1832 -1834 2942 0
-1837 2943 0
-1838 2944 0
-1835 2943 0
-1836 2944 0
-1835 -1837 2944 0
-1835 -1838 2945 0
-1836 -1837 2945 0
-1836 -1838 2946 0
-1841 2947 0
-1842 2948 0
-1839 2947 0
-1840 2948 0
-1839 -1841 2948 0
-1839 -1842 2949 0
-1840 -1841 2949 0
-1840 -1842 2950 0
-1845 2951 0
-1846 2952 0
-1843 2951 0
-1844 2952 0
-1843 -1845 2952 0
-1843 -1846 2953 0
-1844 -1845 2953 0
-1844 -1846 2954 0
-1849 2955 0
-1850 2956 0
-1847 2955 0
-1848 2956 0
-1847 -1849 2956 0
-1847 -1850 2957 0
-1848 -1849 2957 0
-1848 -1850 2958 0
-1853 2959 0
-1854 2960 0
-1851 2959 0
-1852 2960 0
-1851 -1853 2960 0
-1851 -1854 2961 0
-1852 -1853 2961 0
-1852 -1854 2962 0
-1857 2963 0
-1858 2964 0
-1855 2963 0
-1856 2964 0
-1855 -1857 2964 0
-1855 -1858 2965 0
-1856 -1857 2965 0
-1856 -1858 2966 0
-1861 2967 0
-1862 2968 0
-1859 2967 0
-1860 2968 0
-1859 -1861 2968 0
-1859 -1862 2969 0
-1860 -1861 2969 0
-1860 -1862 2970 0
-1865 2971 0
-1866 2972 0
-1863 2971 0
-1864 2972 0
-1863 -1865 2972 0
-1863 -1866 2973 0
-1864 -1865 2973 0
-1864 -1866 2974 0
-1869 2975 0
-1870 2976 0
-1867 2975 0
-1868 2976 0
-1867 -1869 2976 0
-1867 -1870 2977 0
-1868 -1869 2977 0
-1868 -1870 2978 0
-1873 2979 0
-1874 2980 0
-1871 2979 0
-1872 2980 0
-1871 -1873 2980 0
-1871 -1874 2981 0
-1872 -1873 2981 0
-1872 -1874 2982 0
-1877 2983 0
-1878 2984 0
-1875 2983 0
-1876 2984 0
-1875 -1877 2984 0
-1875 -1878 2985 0
-1876 -1877 2985 0
-1876 -1878 2986 0
-1881 2987 0
-1882 2988 0
-1879 2987 0
-1880 2988 0
-1879 -1881 2988 0
-1879 -1882 2989 0
-1880 -1881 2989 0
-1880 -1882 2990 0
-1885 2991 0
-1886 2992 0
-1883 2991 0
-1884 2992 0
-1883 -1885 2992 0
-1883 -1886 2993 0
-1884 -1885 2993 0
-1884 -1886 2994 0
-1889 2995 0
-1890 2996 0
-1887 2995 0
-1888 2996 0
-1887 -1889 2996 0
-1887 -1890 2997 0
-1888 -1889 2997 0
-1888 -1890 2998 0
-1893 2999 0
-1894 3000 0
-1891 2999 0
-1892 3000 0
-1891 -1893 3000 0
-1891 -1894 3001 0
-1892 -1893 3001 0
-1892 -1894 3002 0
-1897 3003 0
-1898 3004 0
-1895 3003 0
-1896 3004 0
-1895 -1897 3004 0
-1895 -1898 3005 0
-1896 -1897 3005 0
-1896 -1898 3006 0
-1901 3007 0
-1902 3008 0
-1899 3007 0
-1900 3008 0
-1899 -1901 3008 0
-1899 -1902 3009 0
-1900 -1901 3009 0
-1900 -1902 3010 0
-1905 3011 0
-1906 3012 0
-1903 3011 0
-1904 3012 0
-1903 -1905 3012 0
-1903 -1906 3013 0
-1904 -1905 3013 0
-1904 -1906 3014 0
-1909 3015 0
-1910 3016 0
-1907 3015 0
-1908 3016 0
-1907 -1909 3016 0
-1907 -1910 3017 0
-1908 -1909 3017 0
-1908 -1910 3018 0
-1913 3019 0
-1914 3020 0
-1911 3019 0
-1912 3020 0
-1911 -1913 3020 0
-1911 -1914 3021 0
-1912 -1913 3021 0
-1912 -1914 3022 0
-1917 3023 0
-1918 3024 0
-1915 3023 0
-1916 3024 0
-1915 -1917 3024 0
-1915 -1918 3025 0
-1916 -1917 3025 0
-1916 -1918 3026 0
-1921 3027 0
-1922 3028 0
-1919 3027 0
-1920 3028 0
-1919 -1921 3028 0
-1919 -1922 3029 0
-1920 -1921 3029 0
-1920 -1922 3030 0
-1925 3031 0
-1926 3032 0
-1923 3031 0
-1924 3032 0
-1923 -1925 3032 0
-1923 -1926 3033 0
-1924 -1925 3033 0
-1924 -1926 3034 0
-1929 3035 0
-1930 3036 0
-1927 3035 0
-1928 3036 0
-1927 -1929 3036 0
-1927 -1930 3037 0
-1928 -1929 3037 0
-1928 -1930 3038 0
-1933 3039 0
-1934 3040 0
-1931 3039 0
-1932 3040 0
-1931 -1933 3040 0
-1931 -1934 3041 0
-1932 -1933 3041 0
-1932 -1934 3042 0
-1937 3043 0
-1938 3044 0
-1935 3043 0
-1936 3044 0
-1935 -1937 3044 0
-1935 -1938 3045 0
-1936 -1937 3045 0
-1936 -1938 3046 0
-1941 3047 0
-1942 3048 0
-1939 3047 0
-1940 3048 0
-1939 -1941 3048 0
-1939 -1942 3049 0
-1940 -1941 3049 0
-1940 -1942 3050 0
-1945 3051 0
-1946 3052 0
-1943 3051 0
-1944 3052 0
-1943 -1945 3052 0
-1943 -1946 3053 0
-1944 -1945 3053 0
-1944 -1946 3054 0
-1949 3055 0
-1950 3056 0
-1947 3055 0
-1948 3056 0
-1947 -1949 3056 0
-1947 -1950 3057 0
-1948 -1949 3057 0
-1948 -1950 3058 0
-1953 3059 0
-1954 3060 0
-1951 3059 0
-1952 3060 0
-1951 -1953 3060 0
-1951 -1954 3061 0
-1952 -1953 3061 0
-1952 -1954 3062 0
-1957 3063 0
-1958 3064 0
-1955 3063 0
-1956 3064 0
-1955 -1957 3064 0
-1955 -1958 3065 0
-1956 -1957 3065 0
-1956 -1958 3066 0
-1961 3067 0
-1962 3068 0
-1959 3067 0
-1960 3068 0
-1959 -1961 3068 0
-1959 -1962 3069 0
-1960 -1961 3069 0
-1960 -1962 3070 0
-1965 3071 0
-1966 3072 0
-1963 3071 0
-1964 3072 0
-1963 -1965 3072 0
-1963 -1966 3073 0
-1964 -1965 3073 0
-1964 -1966 3074 0
-1969 3075 0
-1970 3076 0
-1967 3075 0
-1968 3076 0
-1967 -1969 3076 0
-1967 -1970 3077 0
-1968 -1969 3077 0
-1968 -1970 3078 0
-1973 3079 0
-1974 3080 0
-1971 3079 0
-1972 3080 0
-1971 -1973 3080 0
-1971 -1974 3081 0
-1972 -1973 3081 0
-1972 -1974 3082 0
-1977 3083 0
-1978 3084 0
-1975 3083 0
-1976 3084 0
-1975 -1977 3084 0
-1975 -1978 3085 0
-1976 -1977 3085 0
-1976 -1978 3086 0
-1981 3087 0
-1982 3088 0
-1979 3087 0
-1980 3088 0
-1979 -1981 3088 0
-1979 -1982 3089 0
-1980 -1981 3089 0
-1980 -1982 3090 0
-1985 3091 0
-1986 3092 0
-1983 3091 0
-1984 3092 0
-1983 -1985 3092 0
-1983 -1986 3093 0
-1984 -1985 3093 0
-1984 -1986 3094 0
-1989 3095 0
-1990 3096 0
-1987 3095 0
-1988 3096 0
-1987 -1989 3096 0
-1987 -1990 3097 0
-1988 -1989 3097 0
-1988 -1990 3098 0
-1993 3099 0
-1994 3100 0
-1991 3099 0
-1992 3100 0
-1991 -1993 3100 0
-1991 -1994 3101 0
-1992 -1993 3101 0
-1992 -1994 3102 0
-1997 3103 0
-1998 3104 0
-1995 3103 0
-1996 3104 0
-1995 -1997 3104 0
-1995 -1998 3105 0
-1996 -1997 3105 0
-1996 -1998 3106 0
-2001 3107 0
-2002 3108 0
-1999 3107 0
-2000 3108 0
-1999 -2001 3108 0
-1999 -2002 3109 0
-2000 -2001 3109 0
-2000 -2002 3110 0
-2005 3111 0
-2006 3112 0
-2003 3111 0
-2004 3112 0
-2003 -2005 3112 0
-2003 -2006 3113 0
-2004 -2005 3113 0
-2004 -2006 3114 0
-2009 3115 0
-2010 3116 0
-2007 3115 0
-2008 3116 0
-2007 -2009 3116 0
-2007 -2010 3117 0
-2008 -2009 3117 0
-2008 -2010 3118 0
-2013 3119 0
-2014 3120 0
-2011 3119 0
-2012 3120 0
-2011 -2013 3120 0
-2011 -2014 3121 0
-2012 -2013 3121 0
-2012 -2014 3122 0
-2017 3123 0
-2018 3124 0
-2015 3123 0
-2016 3124 0
-2015 -2017 3124 0
-2015 -2018 3125 0
-2016 -2017 3125 0
-2016 -2018 3126 0
-2021 3127 0
-2022 3128 0
-2019 3127 0
-2020 3128 0
-2019 -2021 3128 0
-2019 -2022 3129 0
-2020 -2021 3129 0
-2020 -2022 3130 0
-2025 3131 0
-2026 3132 0
-2023 3131 0
-2024 3132 0
-2023 -2025 3132 0
-2023 -2026 3133 0
-2024 -2025 3133 0
-2024 -2026 3134 0
-2029 3135 0
-2030 3136 0
-2027 3135 0
-2028 3136 0
-2027 -2029 3136 0
-2027 -2030 3137 0
-2028 -2029 3137 0
-2028 -2030 3138 0
-2033 3139 0
-2034 3140 0
-2031 3139 0
-2032 3140 0
-2031 -2033 3140 0
-2031 -2034 3141 0
-2032 -2033 3141 0
-2032 -2034 3142 0
-2037 3143 0
-2038 3144 0
-2035 3143 0
-2036 3144 0
-2035 -2037 3144 0
-2035 -2038 3145 0
-2036 -2037 3145 0
-2036 -2038 3146 0
-2041 3147 0
-2042 3148 0
-2039 3147 0
-2040 3148 0
-2039 -2041 3148 0
-2039 -2042 3149 0
-2040 -2041 3149 0
-2040 -2042 3150 0
-2045 3151 0
-2046 3152 0
-2043 3151 0
-2044 3152 0
-2043 -2045 3152 0
-2043 -2046 3153 0
-2044 -2045 3153 0
-2044 -2046 3154 0
-2049 3155 0
-2050 3156 0
-2047 3155 0
-2048 3156 0
-2047 -2049 3156 0
-2047 -2050 3157 0
-2048 -2049 3157 0
-2048 -2050 3158 0
-2053 3159 0
-2054 3160 0
-2051 3159 0
-2052 3160 0
-2051 -2053 3160 0
-2051 -2054 3161 0
-2052 -2053 3161 0
-2052 -2054 3162 0
-2057 3163 0
-2058 3164 0
-2055 3163 0
-2056 3164 0
-2055 -2057 3164 0
-2055 -2058 3165 0
-2056 -2057 3165 0
-2056 -2058 3166 0
-2061 3167 0
-2062 3168 0
-2059 3167 0
-2060 3168 0
-2059 -2061 3168 0
-2059 -2062 3169 0
-2060 -2061 3169 0
-2060 -2062 3170 0
-2065 3171 0
-2066 3172 0
-2063 3171 0
-2064 3172 0
-2063 -2065 3172 0
-2063 -2066 3173 0
-2064 -2065 3173 0
-2064 -2066 3174 0
-2069 3175 0
-2070 3176 0
-2067 3175 0
-2068 3176 0
-2067 -2069 3176 0
-2067 -2070 3177 0
-2068 -2069 3177 0
-2068 -2070 3178 0
-2073 3179 0
-2074 3180 0
-2071 3179 0
-2072 3180 0
-2071 -2073 3180 0
-2071 -2074 3181 0
-2072 -2073 3181 0
-2072 -2074 3182 0
-2077 3183 0
-2078 3184 0
-2075 3183 0
-2076 3184 0
-2075 -2077 3184 0
-2075 -2078 3185 0
-2076 -2077 3185 0
-2076 -2078 3186 0
-2081 3187 0
-2082 3188 0
-2079 3187 0
-2080 3188 0
-2079 -2081 3188 0
-2079 -2082 3189 0
-2080 -2081 3189 0
-2080 -2082 3190 0
-2085 3191 0
-2086 3192 0
-2083 3191 0
-2084 3192 0
-2083 -2085 3192 0
-2083 -2086 3193 0
-2084 -2085 3193 0
-2084 -2086 3194 0
-2089 3195 0
-2090 3196 0
-2087 3195 0
-2088 3196 0
-2087 -2089 3196 0
-2087 -2090 3197 0
-2088 -2089 3197 0
-2088 -2090 3198 0
-2093 3199 0
-2094 3200 0
-2091 3199 0
-2092 3200 0
-2091 -2093 3200 0
-2091 -2094 3201 0
-2092 -2093 3201 0
-2092 -2094 3202 0
-2097 3203 0
-2098 3204 0
-2095 3203 0
-2096 3204 0
-2095 -2097 3204 0
-2095 -2098 3205 0
-2096 -2097 3205 0
-2096 -2098 3206 0
-2101 3207 0
-2102 3208 0
-2099 3207 0
-2100 3208 0
-2099 -2101 3208 0
-2099 -2102 3209 0
-2100 -2101 3209 0
-2100 -2102 3210 0
-2105 3211 0
-2106 3212 0
-2103 3211 0
-2104 3212 0
-2103 -2105 3212 0
-2103 -2106 3213 0
-2104 -2105 3213 0
-2104 -2106 3214 0
-2109 3215 0
-2110 3216 0
-2107 3215 0
-2108 3216 0
-2107 -2109 3216 0
-2107 -2110 3217 0
-2108 -2109 3217 0
-2108 -2110 3218 0
-2113 3219 0
-2114 3220 0
-2111 3219 0
-2112 3220 0
-2111 -2113 3220 0
-2111 -2114 3221 0
-2112 -2113 3221 0
-2112 -2114 3222 0
-2117 3223 0
-2118 3224 0
-2115 3223 0
-2116 3224 0
-2115 -2117 3224 0
-2115 -2118 3225 0
-2116 -2117 3225 0
-2116 -2118 3226 0
-2121 3227 0
-2122 3228 0
-2119 3227 0
-2120 3228 0
-2119 -2121 3228 0
-2119 -2122 3229 0
-2120 -2121 3229 0
-2120 -2122 3230 0
-2125 3231 0
-2126 3232 0
-2123 3231 0
-2124 3232 0
-2123 -2125 3232 0
-2123 -2126 3233 0
-2124 -2125 3233 0
-2124 -2126 3234 0
-2129 3235 0
-2130 3236 0
-2127 3235 0
-2128 3236 0
-2127 -2129 3236 0
-2127 -2130 3237 0
-2128 -2129 3237 0
-2128 -2130 3238 0
-2133 3239 0
-2134 3240 0
-2131 3239 0
-2132 3240 0
-2131 -2133 3240 0
-2131 -2134 3241 0
-2132 -2133 3241 0
-2132 -2134 3242 0
-2137 3243 0
-2138 3244 0
-2135 3243 0
-2136 3244 0
-2135 -2137 3244 0
-2135 -2138 3245 0
-2136 -2137 3245 0
-2136 -2138 3246 0
-2141 3247 0
-2142 3248 0
-2139 3247 0
-2140 3248 0
-2139 -2141 3248 0
-2139 -2142 3249 0
-2140 -2141 3249 0
-2140 -2142 3250 0
-2145 3251 0
-2146 3252 0
-2143 3251 0
-2144 3252 0
-2143 -2145 3252 0
-2143 -2146 3253 0
-2144 -2145 3253 0
-2144 -2146 3254 0
-2149 3255 0
-2150 3256 0
-2147 3255 0
-2148 3256 0
-2147 -2149 3256 0
-2147 -2150 3257 0
-2148 -2149 3257 0
-2148 -2150 3258 0
-2153 3259 0
-2154 3260 0
-2151 3259 0
-2152 3260 0
-2151 -2153 3260 0
-2151 -2154 3261 0
-2152 -2153 3261 0
-2152 -2154 3262 0
-2157 3263 0
-2158 3264 0
-2155 3263 0
-2156 3264 0
-2155 -2157 3264 0
-2155 -2158 3265 0
-2156 -2157 3265 0
-2156 -2158 3266 0
-2161 3267 0
-2162 3268 0
-2159 3267 0
-2160 3268 0
-2159 -2161 3268 0
-2159 -2162 3269 0
-2160 -2161 3269 0
-2160 -2162 3270 0
-2165 3271 0
-2166 3272 0
-2163 3271 0
-2164 3272 0
-2163 -2165 3272 0
-2163 -2166 3273 0
-2164 -2165 3273 0
-2164 -2166 3274 0
-2169 3275 0
-2170 3276 0
-2167 3275 0
-2168 3276 0
-2167 -2169 3276 0
-2167 -2170 3277 0
-2168 -2169 3277 0
-2168 -2170 3278 0
-2173 3279 0
-2174 3280 0
-2171 3279 0
-2172 3280 0
-2171 -2173 3280 0
-2171 -2174 3281 0
-2172 -2173 3281 0
-2172 -2174 3282 0
-2177 3283 0
-2178 3284 0
-2175 3283 0
-2176 3284 0
-2175 -2177 3284 0
-2175 -2178 3285 0
-2176 -2177 3285 0
-2176 -2178 3286 0
-2181 3287 0
-2182 3288 0
-2179 3287 0
-2180 3288 0
-2179 -2181 3288 0
-2179 -2182 3289 0
-2180 -2181 3289 0
-2180 -2182 3290 0
-2185 3291 0
-2186 3292 0
-2183 3291 0
-2184 3292 0
-2183 -2185 3292 0
-2183 -2186 3293 0
-2184 -2185 3293 0
-2184 -2186 3294 0
-2189 3295 0
-2190 3296 0
-2187 3295 0
-2188 3296 0
-2187 -2189 3296 0
-2187 -2190 3297 0
-2188 -2189 3297 0
-2188 -2190 3298 0
-2193 3299 0
-2194 3300 0
-2191 3299 0
-2192 3300 0
-2191 -2193 3300 0
-2191 -2194 3301 0
-2192 -2193 3301 0
-2192 -2194 3302 0
-2197 3303 0
-2198 3304 0
-2195 3303 0
-2196 3304 0
-2195 -2197 3304 0
-2195 -2198 3305 0
-2196 -2197 3305 0
-2196 -2198 3306 0
-2201 3307 0
-2202 3308 0
-2199 3307 0
-2200 3308 0
-2199 -2201 3308 0
-2199 -2202 3309 0
-2200 -2201 3309 0
-2200 -2202 3310 0
-2205 3311 0
-2206 3312 0
-2203 3311 0
-2204 3312 0
-2203 -2205 3312 0
-2203 -2206 3313 0
-2204 -2205 3313 0
-2204 -2206 3314 0
-2209 3315 0
-2210 3316 0
-2207 3315 0
-2208 3316 0
-2207 -2209 3316 0
-2207 -2210 3317 0
-2208 -2209 3317 0
-2208 -2210 3318 0
-2213 3319 0
-2214 3320 0
-2211 3319 0
-2212 3320 0
-2211 -2213 3320 0
-2211 -2214 3321 0
-2212 -2213 3321 0
-2212 -2214 3322 0
-2217 3323 0
-2218 3324 0
-2215 3323 0
-2216 3324 0
-2215 -2217 3324 0
-2215 -2218 3325 0
-2216 -2217 3325 0
-2216 -2218 3326 0
-2221 3327 0
-2222 3328 0
-2219 3327 0
-2220 3328 0
-2219 -2221 3328 0
-2219 -2222 3329 0
-2220 -2221 3329 0
-2220 -2222 3330 0
-2225 3331 0
-2226 3332 0
-2223 3331 0
-2224 3332 0
-2223 -2225 3332 0
-2223 -2226 3333 0
-2224 -2225 3333 0
-2224 -2226 3334 0
-2229 3335 0
-2230 3336 0
-2227 3335 0
-2228 3336 0
-2227 -2229 3336 0
-2227 -2230 3337 0
-2228 -2229 3337 0
-2228 -2230 3338 0
-2233 3339 0
-2234 3340 0
-2231 3339 0
-2232 3340 0
-2231 -2233 3340 0
-2231 -2234 3341 0
-2232 -2233 3341 0
-2232 -2234 3342 0
-2237 3343 0
-2238 3344 0
-2235 3343 0
-2236 3344 0
-2235 -2237 3344 0
-2235 -2238 3345 0
-2236 -2237 3345 0
-2236 -2238 3346 0
-2241 3347 0
-2242 3348 0
-2239 3347 0
-2240 3348 0
-2239 -2241 3348 0
-2239 -2242 3349 0
-2240 -2241 3349 0
-2240 -2242 3350 0
-2245 3351 0
-2246 3352 0
-2243 3351 0
-2244 3352 0
-2243 -2245 3352 0
-2243 -2246 3353 0
-2244 -2245 3353 0
-2244 -2246 3354 0
-2249 3355 0
-2250 3356 0
-2247 3355 0
-2248 3356 0
-2247 -2249 3356 0
-2247 -2250 3357 0
-2248 -2249 3357 0
-2248 -2250 3358 0
-2253 3359 0
-2254 3360 0
-2251 3359 0
-2252 3360 0
-2251 -2253 3360 0
-2251 -2254 3361 0
-2252 -2253 3361 0
-2252 -2254 3362 0
-2257 3363 0
-2258 3364 0
-2255 3363 0
-2256 3364 0
-2255 -2257 3364 0
-2255 -2258 3365 0
-2256 -2257 3365 0
-2256 -2258 3366 0
-2261 3367 0
-2262 3368 0
-2259 3367 0
-2260 3368 0
-2259 -2261 3368 0
-2259 -2262 3369 0
-2260 -2261 3369 0
-2260 -2262 3370 0
-2265 3371 0
-2266 3372 0
-2263 3371 0
-2264 3372 0
-2263 -2265 3372 0
-2263 -2266 3373 0
-2264 -2265 3373 0
-2264 -2266 3374 0
-2269 3375 0
-2270 3376 0
-2267 3375 0
-2268 3376 0
-2267 -2269 3376 0
-2267 -2270 3377 0
-2268 -2269 3377 0
-2268 -2270 3378 0
-2273 3379 0
-2274 3380 0
-2271 3379 0
-2272 3380 0
-2271 -2273 3380 0
-2271 -2274 3381 0
-2272 -2273 3381 0
-2272 -2274 3382 0
-2277 3383 0
-2278 3384 0
-2275 3383 0
-2276 3384 0
-2275 -2277 3384 0
-2275 -2278 3385 0
-2276 -2277 3385 0
-2276 -2278 3386 0
-2281 3387 0
-2282 3388 0
-2279 3387 0
-2280 3388 0
-2279 -2281 3388 0
-2279 -2282 3389 0
-2280 -2281 3389 0
-2280 -2282 3390 0
-2285 3391 0
-2286 3392 0
-2283 3391 0
-2284 3392 0
-2283 -2285 3392 0
-2283 -2286 3393 0
-2284 -2285 3393 0
-2284 -2286 3394 0
-2289 3395 0
-2290 3396 0
-2287 3395 0
-2288 3396 0
-2287 -2289 3396 0
-2287 -2290 3397 0
-2288 -2289 3397 0
-2288 -2290 3398 0
-2293 3399 0
-2294 3400 0
-2291 3399 0
-2292 3400 0
-2291 -2293 3400 0
-2291 -2294 3401 0
-2292 -2293 3401 0
-2292 -2294 3402 0
-2297 3403 0
-2298 3404 0
-2295 3403 0
-2296 3404 0
-2295 -2297 3404 0
-2295 -2298 3405 0
-2296 -2297 3405 0
-2296 -2298 3406 0
-2301 3407 0
-2302 3408 0
-2299 3407 0
-2300 3408 0
-2299 -2301 3408 0
-2299 -2302 3409 0
-2300 -2301 3409 0
-2300 -2302 3410 0
-2305 3411 0
-2306 3412 0
-2303 3411 0
-2304 3412 0
-2303 -2305 3412 0
-2303 -2306 3413 0
-2304 -2305 3413 0
-2304 -2306 3414 0
-2309 3415 0
-2310 3416 0
-2307 3415 0
-2308 3416 0
-2307 -2309 3416 0
-2307 -2310 3417 0
-2308 -2309 3417 0
-2308 -2310 3418 0
-2313 3419 0
-2314 3420 0
-2311 3419 0
-2312 3420 0
-2311 -2313 3420 0
-2311 -2314 3421 0
-2312 -2313 3421 0
-2312 -2314 3422 0
-2317 3423 0
-2318 3424 0
-2315 3423 0
-2316 3424 0
-2315 -2317 3424 0
-2315 -2318 3425 0
-2316 -2317 3425 0
-2316 -2318 3426 0
-2321 3427 0
-2322 3428 0
-2319 3427 0
-2320 3428 0
-2319 -2321 3428 0
-2319 -2322 3429 0
-2320 -2321 3429 0
-2320 -2322 3430 0
-2325 3431 0
-2326 3432 0
-2323 3431 0
-2324 3432 0
-2323 -2325 3432 0
-2323 -2326 3433 0
-2324 -2325 3433 0
-2324 -2326 3434 0
-2329 3435 0
-2330 3436 0
-2327 3435 0
-2328 3436 0
-2327 -2329 3436 0
-2327 -2330 3437 0
-2328 -2329 3437 0
-2328 -2330 3438 0
-2333 3439 0
-2334 3440 0
-2331 3439 0
-2332 3440 0
-2331 -2333 3440 0
-2331 -2334 3441 0
-2332 -2333 3441 0
-2332 -2334 3442 0
-2337 3443 0
-2338 3444 0
-2335 3443 0
-2336 3444 0
-2335 -2337 3444 0
-2335 -2338 3445 0
-2336 -2337 3445 0
-2336 -2338 3446 0
-2341 3447 0
-2342 3448 0
-2339 3447 0
-2340 3448 0
-2339 -2341 3448 0
-2339 -2342 3449 0
-2340 -2341 3449 0
-2340 -2342 3450 0
-2345 3451 0
-2346 3452 0
-2343 3451 0
-2344 3452 0
-2343 -2345 3452 0
-2343 -2346 3453 0
-2344 -2345 3453 0
-2344 -2346 3454 0
-2349 3455 0
-2350 3456 0
-2347 3455 0
-2348 3456 0
-2347 -2349 3456 0
-2347 -2350 3457 0
-2348 -2349 3457 0
-2348 -2350 3458 0
-2353 3459 0
-2354 3460 0
-2351 3459 0
-2352 3460 0
-2351 -2353 3460 0
-2351 -2354 3461 0
-2352 -2353 3461 0
-2352 -2354 3462 0
-2357 3463 0
-2358 3464 0
-2355 3463 0
-2356 3464 0
-2355 -2357 3464 0
-2355 -2358 3465 0
-2356 -2357 3465 0
-2356 -2358 3466 0
-2361 3467 0
-2362 3468 0
-2359 3467 0
-2360 3468 0
-2359 -2361 3468 0
-2359 -2362 3469 0
-2360 -2361 3469 0
-2360 -2362 3470 0
-2365 3471 0
-2366 3472 0
-2363 3471 0
-2364 3472 0
-2363 -2365 3472 0
-2363 -2366 3473 0
-2364 -2365 3473 0
-2364 -2366 3474 0
-2369 3475 0
-2370 3476 0
-2367 3475 0
-2368 3476 0
-2367 -2369 3476 0
-2367 -2370 3477 0
-2368 -2369 3477 0
-2368 -2370 3478 0
-2373 3479 0
-2374 3480 0
-2371 3479 0
-2372 3480 0
-2371 -2373 3480 0
-2371 -2374 3481 0
-2372 -2373 3481 0
-2372 -2374 3482 0
-2377 3483 0
-2378 3484 0
-2375 3483 0
-2376 3484 0
-2375 -2377 3484 0
-2375 -2378 3485 0
-2376 -2377 3485 0
-2376 -2378 3486 0
-2381 3487 0
-2382 3488 0
-2379 3487 0
-2380 3488 0
-2379 -2381 3488 0
-2379 -2382 3489 0
-2380 -2381 3489 0
-2380 -2382 3490 0
-2385 3491 0
-2386 3492 0
-2383 3491 0
-2384 3492 0
-2383 -2385 3492 0
-2383 -2386 3493 0
-2384 -2385 3493 0
-2384 -2386 3494 0
-2389 3495 0
-2390 3496 0
-2387 3495 0
-2388 3496 0
-2387 -2389 3496 0
-2387 -2390 3497 0
-2388 -2389 3497 0
-2388 -2390 3498 0
-2393 3499 0
-2394 3500 0
-2391 3499 0
-2392 3500 0
-2391 -2393 3500 0
-2391 -2394 3501 0
-2392 -2393 3501 0
-2392 -2394 3502 0
-2397 3503 0
-2398 3504 0
-2395 3503 0
-2396 3504 0
-2395 -2397 3504 0
-2395 -2398 3505 0
-2396 -2397 3505 0
-2396 -2398 3506 0
-2401 3507 0
-2402 3508 0
-2399 3507 0
-2400 3508 0
-2399 -2401 3508 0
-2399 -2402 3509 0
-2400 -2401 3509 0
-2400 -2402 3510 0
-2405 3511 0
-2406 3512 0
-2403 3511 0
-2404 3512 0
-2403 -2405 3512 0
-2403 -2406 3513 0
-2404 -2405 3513 0
-2404 -2406 3514 0
-2409 3515 0
-2410 3516 0
-2407 3515 0
-2408 3516 0
-2407 -2409 3516 0
-2407 -2410 3517 0
-2408 -2409 3517 0
-2408 -2410 3518 0
-2413 3519 0
-2414 3520 0
-2411 3519 0
-2412 3520 0
-2411 -2413 3520 0
-2411 -2414 3521 0
-2412 -2413 3521 0
-2412 -2414 3522 0
-2417 3523 0
-2418 3524 0
-2415 3523 0
-2416 3524 0
-2415 -2417 3524 0
-2415 -2418 3525 0
-2416 -2417 3525 0
-2416 -2418 3526 0
-2421 3527 0
-2422 3528 0
-2419 3527 0
-2420 3528 0
-2419 -2421 3528 0
-2419 -2422 3529 0
-2420 -2421 3529 0
-2420 -2422 3530 0
-2425 3531 0
-2426 3532 0
-2423 3531 0
-2424 3532 0
-2423 -2425 3532 0
-2423 -2426 3533 0
-2424 -2425 3533 0
-2424 -2426 3534 0
-2429 3535 0
-2430 3536 0
-2427 3535 0
-2428 3536 0
-2427 -2429 3536 0
-2427 -2430 3537 0
-2428 -2429 3537 0
-2428 -2430 3538 0
-2433 3539 0
-2434 3540 0
-2431 3539 0
-2432 3540 0
-2431 -2433 3540 0
-2431 -2434 3541 0
-2432 -2433 3541 0
-2432 -2434 3542 0
-2437 3543 0
-2438 3544 0
-2435 3543 0
-2436 3544 0
-2435 -2437 3544 0
-2435 -2438 3545 0
-2436 -2437 3545 0
-2436 -2438 3546 0
-2441 3547 0
-2442 3548 0
-2439 3547 0
-2440 3548 0
-2439 -2441 3548 0
-2439 -2442 3549 0
-2440 -2441 3549 0
-2440 -2442 3550 0
-2445 3551 0
-2446 3552 0
-2443 3551 0
-2444 3552 0
-2443 -2445 3552 0
-2443 -2446 3553 0
-2444 -2445 3553 0
-2444 -2446 3554 0
-2449 3555 0
-2450 3556 0
-2447 3555 0
-2448 3556 0
-2447 -2449 3556 0
-2447 -2450 3557 0
-2448 -2449 3557 0
-2448 -2450 3558 0
-2453 3559 0
-2454 3560 0
-2451 3559 0
-2452 3560 0
-2451 -2453 3560 0
-2451 -2454 3561 0
-2452 -2453 3561 0
-2452 -2454 3562 0
-2457 3563 0
-2458 3564 0
-2455 3563 0
-2456 3564 0
-2455 -2457 3564 0
-2455 -2458 3565 0
-2456 -2457 3565 0
-2456 -2458 3566 0
-2461 3567 0
-2462 3568 0
-2459 3567 0
-2460 3568 0
-2459 -2461 3568 0
-2459 -2462 3569 0
-2460 -2461 3569 0
-2460 -2462 3570 0
-2465 3571 0
-2466 3572 0
-2463 3571 0
-2464 3572 0
-2463 -2465 3572 0
-2463 -2466 3573 0
-2464 -2465 3573 0
-2464 -2466 3574 0
-2469 3575 0
-2470 3576 0
-2467 3575 0
-2468 3576 0
-2467 -2469 3576 0
-2467 -2470 3577 0
-2468 -2469 3577 0
-2468 -2470 3578 0
-2473 3579 0
-2474 3580 0
-2471 3579 0
-2472 3580 0
-2471 -2473 3580 0
-2471 -2474 3581 0
-2472 -2473 3581 0
-2472 -2474 3582 0
-2477 3583 0
-2478 3584 0
-2475 3583 0
-2476 3584 0
-2475 -2477 3584 0
-2475 -2478 3585 0
-2476 -2477 3585 0
-2476 -2478 3586 0
-2481 3587 0
-2482 3588 0
-2479 3587 0
-2480 3588 0
-2479 -2481 3588 0
-2479 -2482 3589 0
-2480 -2481 3589 0
-2480 -2482 3590 0
-2485 3591 0
-2486 3592 0
-2483 3591 0
-2484 3592 0
-2483 -2485 3592 0
-2483 -2486 3593 0
-2484 -2485 3593 0
-2484 -2486 3594 0
-2489 3595 0
-2490 3596 0
-2487 3595 0
-2488 3596 0
-2487 -2489 3596 0
-2487 -2490 3597 0
-2488 -2489 3597 0
-2488 -2490 3598 0
-2493 3599 0
-2494 3600 0
-2491 3599 0
-2492 3600 0
-2491 -2493 3600 0
-2491 -2494 3601 0
-2492 -2493 3601 0
-2492 -2494 3602 0
-2497 3603 0
-2498 3604 0
-2495 3603 0
-2496 3604 0
-2495 -2497 3604 0
-2495 -2498 3605 0
-2496 -2497 3605 0
-2496 -2498 3606 0
-2501 3607 0
-2502 3608 0
-2499 3607 0
-2500 3608 0
-2499 -2501 3608 0
-2499 -2502 3609 0
-2500 -2501 3609 0
-2500 -2502 3610 0
-2505 3611 0
-2506 3612 0
-2503 3611 0
-2504 3612 0
-2503 -2505 3612 0
-2503 -2506 3613 0
-2504 -2505 3613 0
-2504 -2506 3614 0
-2509 3615 0
-2510 3616 0
-2507 3615 0
-2508 3616 0
-2507 -2509 3616 0
-2507 -2510 3617 0
-2508 -2509 3617 0
-2508 -2510 3618 0
-2513 3619 0
-2514 3620 0
-2511 3619 0
-2512 3620 0
-2511 -2513 3620 0
-2511 -2514 3621 0
-2512 -2513 3621 0
-2512 -2514 3622 0
-2517 3623 0
-2518 3624 0
-2515 3623 0
-2516 3624 0
-2515 -2517 3624 0
-2515 -2518 3625 0
-2516 -2517 3625 0
-2516 -2518 3626 0
-2521 3627 0
-2522 3628 0
-2519 3627 0
-2520 3628 0
-2519 -2521 3628 0
-2519 -2522 3629 0
-2520 -2521 3629 0
-2520 -2522 3630 0
-2525 3631 0
-2526 3632 0
-2523 3631 0
-2524 3632 0
-2523 -2525 3632 0
-2523 -2526 3633 0
-2524 -2525 3633 0
-2524 -2526 3634 0
-2529 3635 0
-2530 3636 0
-2527 3635 0
-2528 3636 0
-2527 -2529 3636 0
-2527 -2530 3637 0
-2528 -2529 3637 0
-2528 -2530 3638 0
-2533 3639 0
-2534 3640 0
-2531 3639 0
-2532 3640 0
-2531 -2533 3640 0
-2531 -2534 3641 0
-2532 -2533 3641 0
-2532 -2534 3642 0
-2537 3643 0
-2538 3644 0
-2535 3643 0
-2536 3644 0
-2535 -2537 3644 0
-2535 -2538 3645 0
-2536 -2537 3645 0
-2536 -2538 3646 0
-2541 3647 0
-2542 3648 0
-2539 3647 0
-2540 3648 0
-2539 -2541 3648 0
-2539 -2542 3649 0
-2540 -2541 3649 0
-2540 -2542 3650 0
-2545 3651 0
-2546 3652 0
-2543 3651 0
-2544 3652 0
-2543 -2545 3652 0
-2543 -2546 3653 0
-2544 -2545 3653 0
-2544 -2546 3654 0
-2549 3655 0
-2550 3656 0
-2547 3655 0
-2548 3656 0
-2547 -2549 3656 0
-2547 -2550 3657 0
-2548 -2549 3657 0
-2548 -2550 3658 0
-2553 3659 0
-2554 3660 0
-2551 3659 0
-2552 3660 0
-2551 -2553 3660 0
-2551 -2554 3661 0
-2552 -2553 3661 0
-2552 -2554 3662 0
-2557 3663 0
-2558 3664 0
-2555 3663 0
-2556 3664 0
-2555 -2557 3664 0
-2555 -2558 3665 0
-2556 -2557 3665 0
-2556 -2558 3666 0
-2561 3667 0
-2562 3668 0
-2559 3667 0
-2560 3668 0
-2559 -2561 3668 0
-2559 -2562 3669 0
-2560 -2561 3669 0
-2560 -2562 3670 0
-2565 3671 0
-2566 3672 0
-2563 3671 0
-2564 3672 0
-2563 -2565 3672 0
-2563 -2566 3673 0
-2564 -2565 3673 0
-2564 -2566 3674 0
-2569 3675 0
-2570 3676 0
-2567 3675 0
-2568 3676 0
-2567 -2569 3676 0
-2567 -2570 3677 0
-2568 -2569 3677 0
-2568 -2570 3678 0
-2573 3679 0
-2574 3680 0
-2571 3679 0
-2572 3680 0
-2571 -2573 3680 0
-2571 -2574 3681 0
-2572 -2573 3681 0
-2572 -2574 3682 0
-2577 3683 0
-2578 3684 0
-2575 3683 0
-2576 3684 0
-2575 -2577 3684 0
-2575 -2578 3685 0
-2576 -2577 3685 0
-2576 -2578 3686 0
-2581 3687 0
-2582 3688 0
-2579 3687 0
-2580 3688 0
-2579 -2581 3688 0
-2579 -2582 3689 0
-2580 -2581 3689 0
-2580 -2582 3690 0
-2585 3691 0
-2586 3692 0
-2583 3691 0
-2584 3692 0
-2583 -2585 3692 0
-2583 -2586 3693 0
-2584 -2585 3693 0
-2584 -2586 3694 0
-2589 3695 0
-2590 3696 0
-2587 3695 0
-2588 3696 0
-2587 -2589 3696 0
-2587 -2590 3697 0
-2588 -2589 3697 0
-2588 -2590 3698 0
-2593 3699 0
-2594 3700 0
-2591 3699 0
-2592 3700 0
-2591 -2593 3700 0
-2591 -2594 3701 0
-2592 -2593 3701 0
-2592 -2594 3702 0
-2597 3703 0
-2598 3704 0
-2595 3703 0
-2596 3704 0
-2595 -2597 3704 0
-2595 -2598 3705 0
-2596 -2597 3705 0
-2596 -2598 3706 0
-2601 3707 0
-2602 3708 0
-2599 3707 0
-2600 3708 0
-2599 -2601 3708 0
-2599 -2602 3709 0
-2600 -2601 3709 0
-2600 -2602 3710 0
-2605 3711 0
-2606 3712 0
-2603 3711 0
-2604 3712 0
-2603 -2605 3712 0
-2603 -2606 3713 0
-2604 -2605 3713 0
-2604 -2606 3714 0
-2609 3715 0
-2610 3716 0
-2607 3715 0
-2608 3716 0
-2607 -2609 3716 0
-2607 -2610 3717 0
-2608 -2609 3717 0
-2608 -2610 3718 0
-2613 3719 0
-2614 3720 0
-2611 3719 0
-2612 3720 0
-2611 -2613 3720 0
-2611 -2614 3721 0
-2612 -2613 3721 0
-2612 -2614 3722 0
-2617 3723 0
-2618 3724 0
-2615 3723 0
-2616 3724 0
-2615 -2617 3724 0
-2615 -2618 3725 0
-2616 -2617 3725 0
-2616 -2618 3726 0
-2621 3727 0
-2622 3728 0
-2619 3727 0
-2620 3728 0
-2619 -2621 3728 0
-2619 -2622 3729 0
-2620 -2621 3729 0
-2620 -2622 3730 0
-2625 3731 0
-2626 3732 0
-2623 3731 0
-2624 3732 0
-2623 -2625 3732 0
-2623 -2626 3733 0
-2624 -2625 3733 0
-2624 -2626 3734 0
-2629 3735 0
-2630 3736 0
-2627 3735 0
-2628 3736 0
-2627 -2629 3736 0
-2627 -2630 3737 0
-2628 -2629 3737 0
-2628 -2630 3738 0
-2633 3739 0
-2634 3740 0
-2631 3739 0
-2632 3740 0
-2631 -2633 3740 0
-2631 -2634 3741 0
-2632 -2633 3741 0
-2632 -2634 3742 0
-2637 3743 0
-2638 3744 0
-2635 3743 0
-2636 3744 0
-2635 -2637 3744 0
-2635 -2638 3745 0
-2636 -2637 3745 0
-2636 -2638 3746 0
-2641 3747 0
-2642 3748 0
-2639 3747 0
-2640 3748 0
-2639 -2641 3748 0
-2639 -2642 3749 0
-2640 -2641 3749 0
-2640 -2642 3750 0
-2645 3751 0
-2646 3752 0
-2643 3751 0
-2644 3752 0
-2643 -2645 3752 0
-2643 -2646 3753 0
-2644 -2645 3753 0
-2644 -2646 3754 0
-2649 3755 0
-2650 3756 0
-2647 3755 0
-2648 3756 0
-2647 -2649 3756 0
-2647 -2650 3757 0
-2648 -2649 3757 0
-2648 -2650 3758 0
-2653 3759 0
-2654 3760 0
-2651 3759 0
-2652 3760 0
-2651 -2653 3760 0
-2651 -2654 3761 0
-2652 -2653 3761 0
-2652 -2654 3762 0
-2657 3763 0
-2658 3764 0
-2655 3763 0
-2656 3764 0
-2655 -2657 3764 0
-2655 -2658 3765 0
-2656 -2657 3765 0
-2656 -2658 3766 0
-2661 3767 0
-2662 3768 0
-2659 3767 0
-2660 3768 0
-2659 -2661 3768 0
-2659 -2662 3769 0
-2660 -2661 3769 0
-2660 -2662 3770 0
-2665 3771 0
-2666 3772 0
-2663 3771 0
-2664 3772 0
-2663 -2665 3772 0
-2663 -2666 3773 0
-2664 -2665 3773 0
-2664 -2666 3774 0
-2669 3775 0
-2670 3776 0
-2667 3775 0
-2668 3776 0
-2667 -2669 3776 0
-2667 -2670 3777 0
-2668 -2669 3777 0
-2668 -2670 3778 0
-2673 3779 0
-2674 3780 0
-2671 3779 0
-2672 3780 0
-2671 -2673 3780 0
-2671 -2674 3781 0
-2672 -2673 3781 0
-2672 -2674 3782 0
-2677 3783 0
-2678 3784 0
-2675 3783 0
-2676 3784 0
-2675 -2677 3784 0
-2675 -2678 3785 0
-2676 -2677 3785 0
-2676 -2678 3786 0
-2681 3787 0
-2682 3788 0
-2679 3787 0
-2680 3788 0
-2679 -2681 3788 0
-2679 -2682 3789 0
-2680 -2681 3789 0
-2680 -2682 3790 0
-2685 3791 0
-2686 3792 0
-2683 3791 0
-2684 3792 0
-2683 -2685 3792 0
-2683 -2686 3793 0
-2684 -2685 3793 0
-2684 -2686 3794 0
-2689 3795 0
-2690 3796 0
-2687 3795 0
-2688 3796 0
-2687 -2689 3796 0
-2687 -2690 3797 0
-2688 -2689 3797 0
-2688 -2690 3798 0
-2693 3799 0
-2694 3800 0
-2691 3799 0
-2692 3800 0
-2691 -2693 3800 0
-2691 -2694 3801 0
-2692 -2693 3801 0
-2692 -2694 3802 0
-2697 3803 0
-2698 3804 0
-2695 3803 0
-2696 3804 0
-2695 -2697 3804 0
-2695 -2698 3805 0
-2696 -2697 3805 0
-2696 -2698 3806 0
-2701 3807 0
-2702 3808 0
-2699 3807 0
-2700 3808 0
-2699 -2701 3808 0
-2699 -2702 3809 0
-2700 -2701 3809 0
-2700 -2702 3810 0
-2705 3811 0
-2706 3812 0
-2703 3811 0
-2704 3812 0
-2703 -2705 3812 0
-2703 -2706 3813 0
-2704 -2705 3813 0
-2704 -2706 3814 0
-2709 3815 0
-2710 3816 0
-2707 3815 0
-2708 3816 0
-2707 -2709 3816 0
-2707 -2710 3817 0
-2708 -2709 3817 0
-2708 -2710 3818 0
-2715 3819 0
-2716 3820 0
-2717 3821 0
-2718 3822 0
-2711 3819 0
-2712 3820 0
-2713 3821 0
-2714 3822 0
-2711 -2715 3820 0
-2711 -2716 3821 0
-2711 -2717 3822 0
-2711 -2718 3823 0
-2712 -2715 3821 0
-2712 -2716 3822 0
-2712 -2717 3823 0
-2712 -2718 3824 0
-2713 -2715 3822 0
-2713 -2716 3823 0
-2713 -2717 3824 0
-2713 -2718 3825 0
-2714 -2715 3823 0
-2714 -2716 3824 0
-2714 -2717 3825 0
-2714 -2718 3826 0
-2723 3827 0
-2724 3828 0
-2725 3829 0
-2726 3830 0
-2719 3827 0
-2720 3828 0
-2721 3829 0
-2722 3830 0
-2719 -2723 3828 0
-2719 -2724 3829 0
-2719 -2725 3830 0
-2719 -2726 3831 0
-2720 -2723 3829 0
-2720 -2724 3830 0
-2720 -2725 3831 0
-2720 -2726 3832 0
-2721 -2723 3830 0
-2721 -2724 3831 0
-2721 -2725 3832 0
-2721 -2726 3833 0
-2722 -2723 3831 0
-2722 -2724 3832 0
-2722 -2725 3833 0
-2722 -2726 3834 0
-2731 3835 0
-2732 3836 0
-2733 3837 0
-2734 3838 0
-2727 3835 0
-2728 3836 0
-2729 3837 0
-2730 3838 0
-2727 -2731 3836 0
-2727 -2732 3837 0
-2727 -2733 3838 0
-2727 -2734 3839 0
-2728 -2731 3837 0
-2728 -2732 3838 0
-2728 -2733 3839 0
-2728 -2734 3840 0
-2729 -2731 3838 0
-2729 -2732 3839 0
-2729 -2733 3840 0
-2729 -2734 3841 0
-2730 -2731 3839 0
-2730 -2732 3840 0
-2730 -2733 3841 0
-2730 -2734 3842 0
-2739 3843 0
-2740 3844 0
-2741 3845 0
-2742 3846 0
-2735 3843 0
-2736 3844 0
-2737 3845 0
-2738 3846 0
-2735 -2739 3844 0
-2735 -2740 3845 0
-2735 -2741 3846 0
-2735 -2742 3847 0
-2736 -2739 3845 0
-2736 -2740 3846 0
-2736 -2741 3847 0
-2736 -2742 3848 0
-2737 -2739 3846 0
-2737 -2740 3847 0
-2737 -2741 3848 0
-2737 -2742 3849 0
-2738 -2739 3847 0
-2738 -2740 3848 0
-2738 -2741 3849 0
-2738 -2742 3850 0
-2747 3851 0
-2748 3852 0
-2749 3853 0
-2750 3854 0
-2743 3851 0
-2744 3852 0
-2745 3853 0
-2746 3854 0
-2743 -2747 3852 0
-2743 -2748 3853 0
-2743 -2749 3854 0
-2743 -2750 3855 0
-2744 -2747 3853 0
-2744 -2748 3854 0
-2744 -2749 3855 0
-2744 -2750 3856 0
-2745 -2747 3854 0
-2745 -2748 3855 0
-2745 -2749 3856 0
-2745 -2750 3857 0
-2746 -2747 3855 0
-2746 -2748 3856 0
-2746 -2749 3857 0
-2746 -2750 3858 0
-2755 3859 0
-2756 3860 0
-2757 3861 0
-2758 3862 0
-2751 3859 0
-2752 3860 0
-2753 3861 0
-2754 3862 0
-2751 -2755 3860 0
-2751 -2756 3861 0
-2751 -2757 3862 0
-2751 -2758 3863 0
-2752 -2755 3861 0
-2752 -2756 3862 0
-2752 -2757 3863 0
-2752 -2758 3864 0
-2753 -2755 3862 0
-2753 -2756 3863 0
-2753 -2757 3864 0
-2753 -2758 3865 0
-2754 -2755 3863 0
-2754 -2756 3864 0
-2754 -2757 3865 0
-2754 -2758 3866 0
-2763 3867 0
-2764 3868 0
-2765 3869 0
-2766 3870 0
-2759 3867 0
-2760 3868 0
-2761 3869 0
-2762 3870 0
-2759 -2763 3868 0
-2759 -2764 3869 0
-2759 -2765 3870 0
-2759 -2766 3871 0
-2760 -2763 3869 0
-2760 -2764 3870 0
-2760 -2765 3871 0
-2760 -2766 3872 0
-2761 -2763 3870 0
-2761 -2764 3871 0
-2761 -2765 3872 0
-2761 -2766 3873 0
-2762 -2763 3871 0
-2762 -2764 3872 0
-2762 -2765 3873 0
-2762 -2766 3874 0
-2771 3875 0
-2772 3876 0
-2773 3877 0
-2774 3878 0
-2767 3875 0
-2768 3876 0
-2769 3877 0
-2770 3878 0
-2767 -2771 3876 0
-2767 -2772 3877 0
-2767 -2773 3878 0
-2767 -2774 3879 0
-2768 -2771 3877 0
-2768 -2772 3878 0
-2768 -2773 3879 0
-2768 -2774 3880 0
-2769 -2771 3878 0
-2769 -2772 3879 0
-2769 -2773 3880 0
-2769 -2774 3881 0
-2770 -2771 3879 0
-2770 -2772 3880 0
-2770 -2773 3881 0
-2770 -2774 3882 0
-2779 3883 0
-2780 3884 0
-2781 3885 0
-2782 3886 0
-2775 3883 0
-2776 3884 0
-2777 3885 0
-2778 3886 0
-2775 -2779 3884 0
-2775 -2780 3885 0
-2775 -2781 3886 0
-2775 -2782 3887 0
-2776 -2779 3885 0
-2776 -2780 3886 0
-2776 -2781 3887 0
-2776 -2782 3888 0
-2777 -2779 3886 0
-2777 -2780 3887 0
-2777 -2781 3888 0
-2777 -2782 3889 0
-2778 -2779 3887 0
-2778 -2780 3888 0
-2778 -2781 3889 0
-2778 -2782 3890 0
-2787 3891 0
-2788 3892 0
-2789 3893 0
-2790 3894 0
-2783 3891 0
-2784 3892 0
-2785 3893 0
-2786 3894 0
-2783 -2787 3892 0
-2783 -2788 3893 0
-2783 -2789 3894 0
-2783 -2790 3895 0
-2784 -2787 3893 0
-2784 -2788 3894 0
-2784 -2789 3895 0
-2784 -2790 3896 0
-2785 -2787 3894 0
-2785 -2788 3895 0
-2785 -2789 3896 0
-2785 -2790 3897 0
-2786 -2787 3895 0
-2786 -2788 3896 0
-2786 -2789 3897 0
-2786 -2790 3898 0
-2795 3899 0
-2796 3900 0
-2797 3901 0
-2798 3902 0
-2791 3899 0
-2792 3900 0
-2793 3901 0
-2794 3902 0
-2791 -2795 3900 0
-2791 -2796 3901 0
-2791 -2797 3902 0
-2791 -2798 3903 0
-2792 -2795 3901 0
-2792 -2796 3902 0
-2792 -2797 3903 0
-2792 -2798 3904 0
-2793 -2795 3902 0
-2793 -2796 3903 0
-2793 -2797 3904 0
-2793 -2798 3905 0
-2794 -2795 3903 0
-2794 -2796 3904 0
-2794 -2797 3905 0
-2794 -2798 3906 0
-2803 3907 0
-2804 3908 0
-2805 3909 0
-2806 3910 0
-2799 3907 0
-2800 3908 0
-2801 3909 0
-2802 3910 0
-2799 -2803 3908 0
-2799 -2804 3909 0
-2799 -2805 3910 0
-2799 -2806 3911 0
-2800 -2803 3909 0
-2800 -2804 3910 0
-2800 -2805 3911 0
-2800 -2806 3912 0
-2801 -2803 3910 0
-2801 -2804 3911 0
-2801 -2805 3912 0
-2801 -2806 3913 0
-2802 -2803 3911 0
-2802 -2804 3912 0
-2802 -2805 3913 0
-2802 -2806 3914 0
-2811 3915 0
-2812 3916 0
-2813 3917 0
-2814 3918 0
-2807 3915 0
-2808 3916 0
-2809 3917 0
-2810 3918 0
-2807 -2811 3916 0
-2807 -2812 3917 0
-2807 -2813 3918 0
-2807 -2814 3919 0
-2808 -2811 3917 0
-2808 -2812 3918 0
-2808 -2813 3919 0
-2808 -2814 3920 0
-2809 -2811 3918 0
-2809 -2812 3919 0
-2809 -2813 3920 0
-2809 -2814 3921 0
-2810 -2811 3919 0
-2810 -2812 3920 0
-2810 -2813 3921 0
-2810 -2814 3922 0
-2819 3923 0
-2820 3924 0
-2821 3925 0
-2822 3926 0
-2815 3923 0
-2816 3924 0
-2817 3925 0
-2818 3926 0
-2815 -2819 3924 0
-2815 -2820 3925 0
-2815 -2821 3926 0
-2815 -2822 3927 0
-2816 -2819 3925 0
-2816 -2820 3926 0
-2816 -2821 3927 0
-2816 -2822 3928 0
-2817 -2819 3926 0
-2817 -2820 3927 0
-2817 -2821 3928 0
-2817 -2822 3929 0
-2818 -2819 3927 0
-2818 -2820 3928 0
-2818 -2821 3929 0
-2818 -2822 3930 0
-2827 3931 0
-2828 3932 0
-2829 3933 0
-2830 3934 0
-2823 3931 0
-2824 3932 0
-2825 3933 0
-2826 3934 0
-2823 -2827 3932 0
-2823 -2828 3933 0
-2823 -2829 3934 0
-2823 -2830 3935 0
-2824 -2827 3933 0
-2824 -2828 3934 0
-2824 -2829 3935 0
-2824 -2830 3936 0
-2825 -2827 3934 0
-2825 -2828 3935 0
-2825 -2829 3936 0
-2825 -2830 3937 0
-2826 -2827 3935 0
-2826 -2828 3936 0
-2826 -2829 3937 0
-2826 -2830 3938 0
-2835 3939 0
-2836 3940 0
-2837 3941 0
-2838 3942 0
-2831 3939 0
-2832 3940 0
-2833 3941 0
-2834 3942 0
-2831 -2835 3940 0
-2831 -2836 3941 0
-2831 -2837 3942 0
-2831 -2838 3943 0
-2832 -2835 3941 0
-2832 -2836 3942 0
-2832 -2837 3943 0
-2832 -2838 3944 0
-2833 -2835 3942 0
-2833 -2836 3943 0
-2833 -2837 3944 0
-2833 -2838 3945 0
-2834 -2835 3943 0
-2834 -2836 3944 0
-2834 -2837 3945 0
-2834 -2838 3946 0
-2843 3947 0
-2844 3948 0
-2845 3949 0
-2846 3950 0
-2839 3947 0
-2840 3948 0
-2841 3949 0
-2842 3950 0
-2839 -2843 3948 0
-2839 -2844 3949 0
-2839 -2845 3950 0
-2839 -2846 3951 0
-2840 -2843 3949 0
-2840 -2844 3950 0
-2840 -2845 3951 0
-2840 -2846 3952 0
-2841 -2843 3950 0
-2841 -2844 3951 0
-2841 -2845 3952 0
-2841 -2846 3953 0
-2842 -2843 3951 0
-2842 -2844 3952 0
-2842 -2845 3953 0
-2842 -2846 3954 0
-2851 3955 0
-2852 3956 0
-2853 3957 0
-2854 3958 0
-2847 3955 0
-2848 3956 0
-2849 3957 0
-2850 3958 0
-2847 -2851 3956 0
-2847 -2852 3957 0
-2847 -2853 3958 0
-2847 -2854 3959 0
-2848 -2851 3957 0
-2848 -2852 3958 0
-2848 -2853 3959 0
-2848 -2854 3960 0
-2849 -2851 3958 0
-2849 -2852 3959 0
-2849 -2853 3960 0
-2849 -2854 3961 0
-2850 -2851 3959 0
-2850 -2852 3960 0
-2850 -2853 3961 0
-2850 -2854 3962 0
-2859 3963 0
-2860 3964 0
-2861 3965 0
-2862 3966 0
-2855 3963 0
-2856 3964 0
-2857 3965 0
-2858 3966 0
-2855 -2859 3964 0
-2855 -2860 3965 0
-2855 -2861 3966 0
-2855 -2862 3967 0
-2856 -2859 3965 0
-2856 -2860 3966 0
-2856 -2861 3967 0
-2856 -2862 3968 0
-2857 -2859 3966 0
-2857 -2860 3967 0
-2857 -2861 3968 0
-2857 -2862 3969 0
-2858 -2859 3967 0
-2858 -2860 3968 0
-2858 -2861 3969 0
-2858 -2862 3970 0
-2867 3971 0
-2868 3972 0
-2869 3973 0
-2870 3974 0
-2863 3971 0
-2864 3972 0
-2865 3973 0
-2866 3974 0
-2863 -2867 3972 0
-2863 -2868 3973 0
-2863 -2869 3974 0
-2863 -2870 3975 0
-2864 -2867 3973 0
-2864 -2868 3974 0
-2864 -2869 3975 0
-2864 -2870 3976 0
-2865 -2867 3974 0
-2865 -2868 3975 0
-2865 -2869 3976 0
-2865 -2870 3977 0
-2866 -2867 3975 0
-2866 -2868 3976 0
-2866 -2869 3977 0
-2866 -2870 3978 0
-2875 3979 0
-2876 3980 0
-2877 3981 0
-2878 3982 0
-2871 3979 0
-2872 3980 0
-2873 3981 0
-2874 3982 0
-2871 -2875 3980 0
-2871 -2876 3981 0
-2871 -2877 3982 0
-2871 -2878 3983 0
-2872 -2875 3981 0
-2872 -2876 3982 0
-2872 -2877 3983 0
-2872 -2878 3984 0
-2873 -2875 3982 0
-2873 -2876 3983 0
-2873 -2877 3984 0
-2873 -2878 3985 0
-2874 -2875 3983 0
-2874 -2876 3984 0
-2874 -2877 3985 0
-2874 -2878 3986 0
-2883 3987 0
-2884 3988 0
-2885 3989 0
-2886 3990 0
-2879 3987 0
-2880 3988 0
-2881 3989 0
-2882 3990 0
-2879 -2883 3988 0
-2879 -2884 3989 0
-2879 -2885 3990 0
-2879 -2886 3991 0
-2880 -2883 3989 0
-2880 -2884 3990 0
-2880 -2885 3991 0
-2880 -2886 3992 0
-2881 -2883 3990 0
-2881 -2884 3991 0
-2881 -2885 3992 0
-2881 -2886 3993 0
-2882 -2883 3991 0
-2882 -2884 3992 0
-2882 -2885 3993 0
-2882 -2886 3994 0
-2891 3995 0
-2892 3996 0
-2893 3997 0
-2894 3998 0
-2887 3995 0
-2888 3996 0
-2889 3997 0
-2890 3998 0
-2887 -2891 3996 0
-2887 -2892 3997 0
-2887 -2893 3998 0
-2887 -2894 3999 0
-2888 -2891 3997 0
-2888 -2892 3998 0
-2888 -2893 3999 0
-2888 -2894 4000 0
-2889 -2891 3998 0
-2889 -2892 3999 0
-2889 -2893 4000 0
-2889 -2894 4001 0
-2890 -2891 3999 0
-2890 -2892 4000 0
-2890 -2893 4001 0
-2890 -2894 4002 0
-2899 4003 0
-2900 4004 0
-2901 4005 0
-2902 4006 0
-2895 4003 0
-2896 4004 0
-2897 4005 0
-2898 4006 0
-2895 -2899 4004 0
-2895 -2900 4005 0
-2895 -2901 4006 0
-2895 -2902 4007 0
-2896 -2899 4005 0
-2896 -2900 4006 0
-2896 -2901 4007 0
-2896 -2902 4008 0
-2897 -2899 4006 0
-2897 -2900 4007 0
-2897 -2901 4008 0
-2897 -2902 4009 0
-2898 -2899 4007 0
-2898 -2900 4008 0
-2898 -2901 4009 0
-2898 -2902 4010 0
-2907 4011 0
-2908 4012 0
-2909 4013 0
-2910 4014 0
-2903 4011 0
-2904 4012 0
-2905 4013 0
-2906 4014 0
-2903 -2907 4012 0
-2903 -2908 4013 0
-2903 -2909 4014 0
-2903 -2910 4015 0
-2904 -2907 4013 0
-2904 -2908 4014 0
-2904 -2909 4015 0
-2904 -2910 4016 0
-2905 -2907 4014 0
-2905 -2908 4015 0
-2905 -2909 4016 0
-2905 -2910 4017 0
-2906 -2907 4015 0
-2906 -2908 4016 0
-2906 -2909 4017 0
-2906 -2910 4018 0
-2915 4019 0
-2916 4020 0
-2917 4021 0
-2918 4022 0
-2911 4019 0
-2912 4020 0
-2913 4021 0
-2914 4022 0
-2911 -2915 4020 0
-2911 -2916 4021 0
-2911 -2917 4022 0
-2911 -2918 4023 0
-2912 -2915 4021 0
-2912 -2916 4022 0
-2912 -2917 4023 0
-2912 -2918 4024 0
-2913 -2915 4022 0
-2913 -2916 4023 0
-2913 -2917 4024 0
-2913 -2918 4025 0
-2914 -2915 4023 0
-2914 -2916 4024 0
-2914 -2917 4025 0
-2914 -2918 4026 0
-2923 4027 0
-2924 4028 0
-2925 4029 0
-2926 4030 0
-2919 4027 0
-2920 4028 0
-2921 4029 0
-2922 4030 0
-2919 -2923 4028 0
-2919 -2924 4029 0
-2919 -2925 4030 0
-2919 -2926 4031 0
-2920 -2923 4029 0
-2920 -2924 4030 0
-2920 -2925 4031 0
-2920 -2926 4032 0
-2921 -2923 4030 0
-2921 -2924 4031 0
-2921 -2925 4032 0
-2921 -2926 4033 0
-2922 -2923 4031 0
-2922 -2924 4032 0
-2922 -2925 4033 0
-2922 -2926 4034 0
-2931 4035 0
-2932 4036 0
-2933 4037 0
-2934 4038 0
-2927 4035 0
-2928 4036 0
-2929 4037 0
-2930 4038 0
-2927 -2931 4036 0
-2927 -2932 4037 0
-2927 -2933 4038 0
-2927 -2934 4039 0
-2928 -2931 4037 0
-2928 -2932 4038 0
-2928 -2933 4039 0
-2928 -2934 4040 0
-2929 -2931 4038 0
-2929 -2932 4039 0
-2929 -2933 4040 0
-2929 -2934 4041 0
-2930 -2931 4039 0
-2930 -2932 4040 0
-2930 -2933 4041 0
-2930 -2934 4042 0
-2939 4043 0
-2940 4044 0
-2941 4045 0
-2942 4046 0
-2935 4043 0
-2936 4044 0
-2937 4045 0
-2938 4046 0
-2935 -2939 4044 0
-2935 -2940 4045 0
-2935 -2941 4046 0
-2935 -2942 4047 0
-2936 -2939 4045 0
-2936 -2940 4046 0
-2936 -2941 4047 0
-2936 -2942 4048 0
-2937 -2939 4046 0
-2937 -2940 4047 0
-2937 -2941 4048 0
-2937 -2942 4049 0
-2938 -2939 4047 0
-2938 -2940 4048 0
-2938 -2941 4049 0
-2938 -2942 4050 0
-2947 4051 0
-2948 4052 0
-2949 4053 0
-2950 4054 0
-2943 4051 0
-2944 4052 0
-2945 4053 0
-2946 4054 0
-2943 -2947 4052 0
-2943 -2948 4053 0
-2943 -2949 4054 0
-2943 -2950 4055 0
-2944 -2947 4053 0
-2944 -2948 4054 0
-2944 -2949 4055 0
-2944 -2950 4056 0
-2945 -2947 4054 0
-2945 -2948 4055 0
-2945 -2949 4056 0
-2945 -2950 4057 0
-2946 -2947 4055 0
-2946 -2948 4056 0
-2946 -2949 4057 0
-2946 -2950 4058 0
-2955 4059 0
-2956 4060 0
-2957 4061 0
-2958 4062 0
-2951 4059 0
-2952 4060 0
-2953 4061 0
-2954 4062 0
-2951 -2955 4060 0
-2951 -2956 4061 0
-2951 -2957 4062 0
-2951 -2958 4063 0
-2952 -2955 4061 0
-2952 -2956 4062 0
-2952 -2957 4063 0
-2952 -2958 4064 0
-2953 -2955 4062 0
-2953 -2956 4063 0
-2953 -2957 4064 0
-2953 -2958 4065 0
-2954 -2955 4063 0
-2954 -2956 4064 0
-2954 -2957 4065 0
-2954 -2958 4066 0
-2963 4067 0
-2964 4068 0
-2965 4069 0
-2966 4070 0
-2959 4067 0
-2960 4068 0
-2961 4069 0
-2962 4070 0
-2959 -2963 4068 0
-2959 -2964 4069 0
-2959 -2965 4070 0
-2959 -2966 4071 0
-2960 -2963 4069 0
-2960 -2964 4070 0
-2960 -2965 4071 0
-2960 -2966 4072 0
-2961 -2963 4070 0
-2961 -2964 4071 0
-2961 -2965 4072 0
-2961 -2966 4073 0
-2962 -2963 4071 0
-2962 -2964 4072 0
-2962 -2965 4073 0
-2962 -2966 4074 0
-2971 4075 0
-2972 4076 0
-2973 4077 0
-2974 4078 0
-2967 4075 0
-2968 4076 0
-2969 4077 0
-2970 4078 0
-2967 -2971 4076 0
-2967 -2972 4077 0
-2967 -2973 4078 0
-2967 -2974 4079 0
-2968 -2971 4077 0
-2968 -2972 4078 0
-2968 -2973 4079 0
-2968 -2974 4080 0
-2969 -2971 4078 0
-2969 -2972 4079 0
-2969 -2973 4080 0
-2969 -2974 4081 0
-2970 -2971 4079 0
-2970 -2972 4080 0
-2970 -2973 4081 0
-2970 -2974 4082 0
-2979 4083 0
-2980 4084 0
-2981 4085 0
-2982 4086 0
-2975 4083 0
-2976 4084 0
-2977 4085 0
-2978 4086 0
-2975 -2979 4084 0
-2975 -2980 4085 0
-2975 -2981 4086 0
-2975 -2982 4087 0
-2976 -2979 4085 0
-2976 -2980 4086 0
-2976 -2981 4087 0
-2976 -2982 4088 0
-2977 -2979 4086 0
-2977 -2980 4087 0
-2977 -2981 4088 0
-2977 -2982 4089 0
-2978 -2979 4087 0
-2978 -2980 4088 0
-2978 -2981 4089 0
-2978 -2982 4090 0
-2987 4091 0
-2988 4092 0
-2989 4093 0
-2990 4094 0
-2983 4091 0
-2984 4092 0
-2985 4093 0
-2986 4094 0
-2983 -2987 4092 0
-2983 -2988 4093 0
-2983 -2989 4094 0
-2983 -2990 4095 0
-2984 -2987 4093 0
-2984 -2988 4094 0
-2984 -2989 4095 0
-2984 -2990 4096 0
-2985 -2987 4094 0
-2985 -2988 4095 0
-2985 -2989 4096 0
-2985 -2990 4097 0
-2986 -2987 4095 0
-2986 -2988 4096 0
-2986 -2989 4097 0
-2986 -2990 4098 0
-2995 4099 0
-2996 4100 0
-2997 4101 0
-2998 4102 0
-2991 4099 0
-2992 4100 0
-2993 4101 0
-2994 4102 0
-2991 -2995 4100 0
-2991 -2996 4101 0
-2991 -2997 4102 0
-2991 -2998 4103 0
-2992 -2995 4101 0
-2992 -2996 4102 0
-2992 -2997 4103 0
-2992 -2998 4104 0
-2993 -2995 4102 0
-2993 -2996 4103 0
-2993 -2997 4104 0
-2993 -2998 4105 0
-2994 -2995 4103 0
-2994 -2996 4104 0
-2994 -2997 4105 0
-2994 -2998 4106 0
-3003 4107 0
-3004 4108 0
-3005 4109 0
-3006 4110 0
-2999 4107 0
-3000 4108 0
-3001 4109 0
-3002 4110 0
-2999 -3003 4108 0
-2999 -3004 4109 0
-2999 -3005 4110 0
-2999 -3006 4111 0
-3000 -3003 4109 0
-3000 -3004 4110 0
-3000 -3005 4111 0
-3000 -3006 4112 0
-3001 -3003 4110 0
-3001 -3004 4111 0
-3001 -3005 4112 0
-3001 -3006 4113 0
-3002 -3003 4111 0
-3002 -3004 4112 0
-3002 -3005 4113 0
-3002 -3006 4114 0
-3011 4115 0
-3012 4116 0
-3013 4117 0
-3014 4118 0
-3007 4115 0
-3008 4116 0
-3009 4117 0
-3010 4118 0
-3007 -3011 4116 0
-3007 -3012 4117 0
-3007 -3013 4118 0
-3007 -3014 4119 0
-3008 -3011 4117 0
-3008 -3012 4118 0
-3008 -3013 4119 0
-3008 -3014 4120 0
-3009 -3011 4118 0
-3009 -3012 4119 0
-3009 -3013 4120 0
-3009 -3014 4121 0
-3010 -3011 4119 0
-3010 -3012 4120 0
-3010 -3013 4121 0
-3010 -3014 4122 0
-3019 4123 0
-3020 4124 0
-3021 4125 0
-3022 4126 0
-3015 4123 0
-3016 4124 0
-3017 4125 0
-3018 4126 0
-3015 -3019 4124 0
-3015 -3020 4125 0
-3015 -3021 4126 0
-3015 -3022 4127 0
-3016 -3019 4125 0
-3016 -3020 4126 0
-3016 -3021 4127 0
-3016 -3022 4128 0
-3017 -3019 4126 0
-3017 -3020 4127 0
-3017 -3021 4128 0
-3017 -3022 4129 0
-3018 -3019 4127 0
-3018 -3020 4128 0
-3018 -3021 4129 0
-3018 -3022 4130 0
-3027 4131 0
-3028 4132 0
-3029 4133 0
-3030 4134 0
-3023 4131 0
-3024 4132 0
-3025 4133 0
-3026 4134 0
-3023 -3027 4132 0
-3023 -3028 4133 0
-3023 -3029 4134 0
-3023 -3030 4135 0
-3024 -3027 4133 0
-3024 -3028 4134 0
-3024 -3029 4135 0
-3024 -3030 4136 0
-3025 -3027 4134 0
-3025 -3028 4135 0
-3025 -3029 4136 0
-3025 -3030 4137 0
-3026 -3027 4135 0
-3026 -3028 4136 0
-3026 -3029 4137 0
-3026 -3030 4138 0
-3035 4139 0
-3036 4140 0
-3037 4141 0
-3038 4142 0
-3031 4139 0
-3032 4140 0
-3033 4141 0
-3034 4142 0
-3031 -3035 4140 0
-3031 -3036 4141 0
-3031 -3037 4142 0
-3031 -3038 4143 0
-3032 -3035 4141 0
-3032 -3036 4142 0
-3032 -3037 4143 0
-3032 -3038 4144 0
-3033 -3035 4142 0
-3033 -3036 4143 0
-3033 -3037 4144 0
-3033 -3038 4145 0
-3034 -3035 4143 0
-3034 -3036 4144 0
-3034 -3037 4145 0
-3034 -3038 4146 0
-3043 4147 0
-3044 4148 0
-3045 4149 0
-3046 4150 0
-3039 4147 0
-3040 4148 0
-3041 4149 0
-3042 4150 0
-3039 -3043 4148 0
-3039 -3044 4149 0
-3039 -3045 4150 0
-3039 -3046 4151 0
-3040 -3043 4149 0
-3040 -3044 4150 0
-3040 -3045 4151 0
-3040 -3046 4152 0
-3041 -3043 4150 0
-3041 -3044 4151 0
-3041 -3045 4152 0
-3041 -3046 4153 0
-3042 -3043 4151 0
-3042 -3044 4152 0
-3042 -3045 4153 0
-3042 -3046 4154 0
-3051 4155 0
-3052 4156 0
-3053 4157 0
-3054 4158 0
-3047 4155 0
-3048 4156 0
-3049 4157 0
-3050 4158 0
-3047 -3051 4156 0
-3047 -3052 4157 0
-3047 -3053 4158 0
-3047 -3054 4159 0
-3048 -3051 4157 0
-3048 -3052 4158 0
-3048 -3053 4159 0
-3048 -3054 4160 0
-3049 -3051 4158 0
-3049 -3052 4159 0
-3049 -3053 4160 0
-3049 -3054 4161 0
-3050 -3051 4159 0
-3050 -3052 4160 0
-3050 -3053 4161 0
-3050 -3054 4162 0
-3059 4163 0
-3060 4164 0
-3061 4165 0
-3062 4166 0
-3055 4163 0
-3056 4164 0
-3057 4165 0
-3058 4166 0
-3055 -3059 4164 0
-3055 -3060 4165 0
-3055 -3061 4166 0
-3055 -3062 4167 0
-3056 -3059 4165 0
-3056 -3060 4166 0
-3056 -3061 4167 0
-3056 -3062 4168 0
-3057 -3059 4166 0
-3057 -3060 4167 0
-3057 -3061 4168 0
-3057 -3062 4169 0
-3058 -3059 4167 0
-3058 -3060 4168 0
-3058 -3061 4169 0
-3058 -3062 4170 0
-3067 4171 0
-3068 4172 0
-3069 4173 0
-3070 4174 0
-3063 4171 0
-3064 4172 0
-3065 4173 0
-3066 4174 0
-3063 -3067 4172 0
-3063 -3068 4173 0
-3063 -3069 4174 0
-3063 -3070 4175 0
-3064 -3067 4173 0
-3064 -3068 4174 0
-3064 -3069 4175 0
-3064 -3070 4176 0
-3065 -3067 4174 0
-3065 -3068 4175 0
-3065 -3069 4176 0
-3065 -3070 4177 0
-3066 -3067 4175 0
-3066 -3068 4176 0
-3066 -3069 4177 0
-3066 -3070 4178 0
-3075 4179 0
-3076 4180 0
-3077 4181 0
-3078 4182 0
-3071 4179 0
-3072 4180 0
-3073 4181 0
-3074 4182 0
-3071 -3075 4180 0
-3071 -3076 4181 0
-3071 -3077 4182 0
-3071 -3078 4183 0
-3072 -3075 4181 0
-3072 -3076 4182 0
-3072 -3077 4183 0
-3072 -3078 4184 0
-3073 -3075 4182 0
-3073 -3076 4183 0
-3073 -3077 4184 0
-3073 -3078 4185 0
-3074 -3075 4183 0
-3074 -3076 4184 0
-3074 -3077 4185 0
-3074 -3078 4186 0
-3083 4187 0
-3084 4188 0
-3085 4189 0
-3086 4190 0
-3079 4187 0
-3080 4188 0
-3081 4189 0
-3082 4190 0
-3079 -3083 4188 0
-3079 -3084 4189 0
-3079 -3085 4190 0
-3079 -3086 4191 0
-3080 -3083 4189 0
-3080 -3084 4190 0
-3080 -3085 4191 0
-3080 -3086 4192 0
-3081 -3083 4190 0
-3081 -3084 4191 0
-3081 -3085 4192 0
-3081 -3086 4193 0
-3082 -3083 4191 0
-3082 -3084 4192 0
-3082 -3085 4193 0
-3082 -3086 4194 0
-3091 4195 0
-3092 4196 0
-3093 4197 0
-3094 4198 0
-3087 4195 0
-3088 4196 0
-3089 4197 0
-3090 4198 0
-3087 -3091 4196 0
-3087 -3092 4197 0
-3087 -3093 4198 0
-3087 -3094 4199 0
-3088 -3091 4197 0
-3088 -3092 4198 0
-3088 -3093 4199 0
-3088 -3094 4200 0
-3089 -3091 4198 0
-3089 -3092 4199 0
-3089 -3093 4200 0
-3089 -3094 4201 0
-3090 -3091 4199 0
-3090 -3092 4200 0
-3090 -3093 4201 0
-3090 -3094 4202 0
-3099 4203 0
-3100 4204 0
-3101 4205 0
-3102 4206 0
-3095 4203 0
-3096 4204 0
-3097 4205 0
-3098 4206 0
-3095 -3099 4204 0
-3095 -3100 4205 0
-3095 -3101 4206 0
-3095 -3102 4207 0
-3096 -3099 4205 0
-3096 -3100 4206 0
-3096 -3101 4207 0
-3096 -3102 4208 0
-3097 -3099 4206 0
-3097 -3100 4207 0
-3097 -3101 4208 0
-3097 -3102 4209 0
-3098 -3099 4207 0
-3098 -3100 4208 0
-3098 -3101 4209 0
-3098 -3102 4210 0
-3107 4211 0
-3108 4212 0
-3109 4213 0
-3110 4214 0
-3103 4211 0
-3104 4212 0
-3105 4213 0
-3106 4214 0
-3103 -3107 4212 0
-3103 -3108 4213 0
-3103 -3109 4214 0
-3103 -3110 4215 0
-3104 -3107 4213 0
-3104 -3108 4214 0
-3104 -3109 4215 0
-3104 -3110 4216 0
-3105 -3107 4214 0
-3105 -3108 4215 0
-3105 -3109 4216 0
-3105 -3110 4217 0
-3106 -3107 4215 0
-3106 -3108 4216 0
-3106 -3109 4217 0
-3106 -3110 4218 0
-3115 4219 0
-3116 4220 0
-3117 4221 0
-3118 4222 0
-3111 4219 0
-3112 4220 0
-3113 4221 0
-3114 4222 0
-3111 -3115 4220 0
-3111 -3116 4221 0
-3111 -3117 4222 0
-3111 -3118 4223 0
-3112 -3115 4221 0
-3112 -3116 4222 0
-3112 -3117 4223 0
-3112 -3118 4224 0
-3113 -3115 4222 0
-3113 -3116 4223 0
-3113 -3117 4224 0
-3113 -3118 4225 0
-3114 -3115 4223 0
-3114 -3116 4224 0
-3114 -3117 4225 0
-3114 -3118 4226 0
-3123 4227 0
-3124 4228 0
-3125 4229 0
-3126 4230 0
-3119 4227 0
-3120 4228 0
-3121 4229 0
-3122 4230 0
-3119 -3123 4228 0
-3119 -3124 4229 0
-3119 -3125 4230 0
-3119 -3126 4231 0
-3120 -3123 4229 0
-3120 -3124 4230 0
-3120 -3125 4231 0
-3120 -3126 4232 0
-3121 -3123 4230 0
-3121 -3124 4231 0
-3121 -3125 4232 0
-3121 -3126 4233 0
-3122 -3123 4231 0
-3122 -3124 4232 0
-3122 -3125 4233 0
-3122 -3126 4234 0
-3131 4235 0
-3132 4236 0
-3133 4237 0
-3134 4238 0
-3127 4235 0
-3128 4236 0
-3129 4237 0
-3130 4238 0
-3127 -3131 4236 0
-3127 -3132 4237 0
-3127 -3133 4238 0
-3127 -3134 4239 0
-3128 -3131 4237 0
-3128 -3132 4238 0
-3128 -3133 4239 0
-3128 -3134 4240 0
-3129 -3131 4238 0
-3129 -3132 4239 0
-3129 -3133 4240 0
-3129 -3134 4241 0
-3130 -3131 4239 0
-3130 -3132 4240 0
-3130 -3133 4241 0
-3130 -3134 4242 0
-3139 4243 0
-3140 4244 0
-3141 4245 0
-3142 4246 0
-3135 4243 0
-3136 4244 0
-3137 4245 0
-3138 4246 0
-3135 -3139 4244 0
-3135 -3140 4245 0
-3135 -3141 4246 0
-3135 -3142 4247 0
-3136 -3139 4245 0
-3136 -3140 4246 0
-3136 -3141 4247 0
-3136 -3142 4248 0
-3137 -3139 4246 0
-3137 -3140 4247 0
-3137 -3141 4248 0
-3137 -3142 4249 0
-3138 -3139 4247 0
-3138 -3140 4248 0
-3138 -3141 4249 0
-3138 -3142 4250 0
-3147 4251 0
-3148 4252 0
-3149 4253 0
-3150 4254 0
-3143 4251 0
-3144 4252 0
-3145 4253 0
-3146 4254 0
-3143 -3147 4252 0
-3143 -3148 4253 0
-3143 -3149 4254 0
-3143 -3150 4255 0
-3144 -3147 4253 0
-3144 -3148 4254 0
-3144 -3149 4255 0
-3144 -3150 4256 0
-3145 -3147 4254 0
-3145 -3148 4255 0
-3145 -3149 4256 0
-3145 -3150 4257 0
-3146 -3147 4255 0
-3146 -3148 4256 0
-3146 -3149 4257 0
-3146 -3150 4258 0
-3155 4259 0
-3156 4260 0
-3157 4261 0
-3158 4262 0
-3151 4259 0
-3152 4260 0
-3153 4261 0
-3154 4262 0
-3151 -3155 4260 0
-3151 -3156 4261 0
-3151 -3157 4262 0
-3151 -3158 4263 0
-3152 -3155 4261 0
-3152 -3156 4262 0
-3152 -3157 4263 0
-3152 -3158 4264 0
-3153 -3155 4262 0
-3153 -3156 4263 0
-3153 -3157 4264 0
-3153 -3158 4265 0
-3154 -3155 4263 0
-3154 -3156 4264 0
-3154 -3157 4265 0
-3154 -3158 4266 0
-3163 4267 0
-3164 4268 0
-3165 4269 0
-3166 4270 0
-3159 4267 0
-3160 4268 0
-3161 4269 0
-3162 4270 0
-3159 -3163 4268 0
-3159 -3164 4269 0
-3159 -3165 4270 0
-3159 -3166 4271 0
-3160 -3163 4269 0
-3160 -3164 4270 0
-3160 -3165 4271 0
-3160 -3166 4272 0
-3161 -3163 4270 0
-3161 -3164 4271 0
-3161 -3165 4272 0
-3161 -3166 4273 0
-3162 -3163 4271 0
-3162 -3164 4272 0
-3162 -3165 4273 0
-3162 -3166 4274 0
-3171 4275 0
-3172 4276 0
-3173 4277 0
-3174 4278 0
-3167 4275 0
-3168 4276 0
-3169 4277 0
-3170 4278 0
-3167 -3171 4276 0
-3167 -3172 4277 0
-3167 -3173 4278 0
-3167 -3174 4279 0
-3168 -3171 4277 0
-3168 -3172 4278 0
-3168 -3173 4279 0
-3168 -3174 4280 0
-3169 -3171 4278 0
-3169 -3172 4279 0
-3169 -3173 4280 0
-3169 -3174 4281 0
-3170 -3171 4279 0
-3170 -3172 4280 0
-3170 -3173 4281 0
-3170 -3174 4282 0
-3179 4283 0
-3180 4284 0
-3181 4285 0
-3182 4286 0
-3175 4283 0
-3176 4284 0
-3177 4285 0
-3178 4286 0
-3175 -3179 4284 0
-3175 -3180 4285 0
-3175 -3181 4286 0
-3175 -3182 4287 0
-3176 -3179 4285 0
-3176 -3180 4286 0
-3176 -3181 4287 0
-3176 -3182 4288 0
-3177 -3179 4286 0
-3177 -3180 4287 0
-3177 -3181 4288 0
-3177 -3182 4289 0
-3178 -3179 4287 0
-3178 -3180 4288 0
-3178 -3181 4289 0
-3178 -3182 4290 0
-3187 4291 0
-3188 4292 0
-3189 4293 0
-3190 4294 0
-3183 4291 0
-3184 4292 0
-3185 4293 0
-3186 4294 0
-3183 -3187 4292 0
-3183 -3188 4293 0
-3183 -3189 4294 0
-3183 -3190 4295 0
-3184 -3187 4293 0
-3184 -3188 4294 0
-3184 -3189 4295 0
-3184 -3190 4296 0
-3185 -3187 4294 0
-3185 -3188 4295 0
-3185 -3189 4296 0
-3185 -3190 4297 0
-3186 -3187 4295 0
-3186 -3188 4296 0
-3186 -3189 4297 0
-3186 -3190 4298 0
-3195 4299 0
-3196 4300 0
-3197 4301 0
-3198 4302 0
-3191 4299 0
-3192 4300 0
-3193 4301 0
-3194 4302 0
-3191 -3195 4300 0
-3191 -3196 4301 0
-3191 -3197 4302 0
-3191 -3198 4303 0
-3192 -3195 4301 0
-3192 -3196 4302 0
-3192 -3197 4303 0
-3192 -3198 4304 0
-3193 -3195 4302 0
-3193 -3196 4303 0
-3193 -3197 4304 0
-3193 -3198 4305 0
-3194 -3195 4303 0
-3194 -3196 4304 0
-3194 -3197 4305 0
-3194 -3198 4306 0
-3203 4307 0
-3204 4308 0
-3205 4309 0
-3206 4310 0
-3199 4307 0
-3200 4308 0
-3201 4309 0
-3202 4310 0
-3199 -3203 4308 0
-3199 -3204 4309 0
-3199 -3205 4310 0
-3199 -3206 4311 0
-3200 -3203 4309 0
-3200 -3204 4310 0
-3200 -3205 4311 0
-3200 -3206 4312 0
-3201 -3203 4310 0
-3201 -3204 4311 0
-3201 -3205 4312 0
-3201 -3206 4313 0
-3202 -3203 4311 0
-3202 -3204 4312 0
-3202 -3205 4313 0
-3202 -3206 4314 0
-3211 4315 0
-3212 4316 0
-3213 4317 0
-3214 4318 0
-3207 4315 0
-3208 4316 0
-3209 4317 0
-3210 4318 0
-3207 -3211 4316 0
-3207 -3212 4317 0
-3207 -3213 4318 0
-3207 -3214 4319 0
-3208 -3211 4317 0
-3208 -3212 4318 0
-3208 -3213 4319 0
-3208 -3214 4320 0
-3209 -3211 4318 0
-3209 -3212 4319 0
-3209 -3213 4320 0
-3209 -3214 4321 0
-3210 -3211 4319 0
-3210 -3212 4320 0
-3210 -3213 4321 0
-3210 -3214 4322 0
-3219 4323 0
-3220 4324 0
-3221 4325 0
-3222 4326 0
-3215 4323 0
-3216 4324 0
-3217 4325 0
-3218 4326 0
-3215 -3219 4324 0
-3215 -3220 4325 0
-3215 -3221 4326 0
-3215 -3222 4327 0
-3216 -3219 4325 0
-3216 -3220 4326 0
-3216 -3221 4327 0
-3216 -3222 4328 0
-3217 -3219 4326 0
-3217 -3220 4327 0
-3217 -3221 4328 0
-3217 -3222 4329 0
-3218 -3219 4327 0
-3218 -3220 4328 0
-3218 -3221 4329 0
-3218 -3222 4330 0
-3227 4331 0
-3228 4332 0
-3229 4333 0
-3230 4334 0
-3223 4331 0
-3224 4332 0
-3225 4333 0
-3226 4334 0
-3223 -3227 4332 0
-3223 -3228 4333 0
-3223 -3229 4334 0
-3223 -3230 4335 0
-3224 -3227 4333 0
-3224 -3228 4334 0
-3224 -3229 4335 0
-3224 -3230 4336 0
-3225 -3227 4334 0
-3225 -3228 4335 0
-3225 -3229 4336 0
-3225 -3230 4337 0
-3226 -3227 4335 0
-3226 -3228 4336 0
-3226 -3229 4337 0
-3226 -3230 4338 0
-3235 4339 0
-3236 4340 0
-3237 4341 0
-3238 4342 0
-3231 4339 0
-3232 4340 0
-3233 4341 0
-3234 4342 0
-3231 -3235 4340 0
-3231 -3236 4341 0
-3231 -3237 4342 0
-3231 -3238 4343 0
-3232 -3235 4341 0
-3232 -3236 4342 0
-3232 -3237 4343 0
-3232 -3238 4344 0
-3233 -3235 4342 0
-3233 -3236 4343 0
-3233 -3237 4344 0
-3233 -3238 4345 0
-3234 -3235 4343 0
-3234 -3236 4344 0
-3234 -3237 4345 0
-3234 -3238 4346 0
-3243 4347 0
-3244 4348 0
-3245 4349 0
-3246 4350 0
-3239 4347 0
-3240 4348 0
-3241 4349 0
-3242 4350 0
-3239 -3243 4348 0
-3239 -3244 4349 0
-3239 -3245 4350 0
-3239 -3246 4351 0
-3240 -3243 4349 0
-3240 -3244 4350 0
-3240 -3245 4351 0
-3240 -3246 4352 0
-3241 -3243 4350 0
-3241 -3244 4351 0
-3241 -3245 4352 0
-3241 -3246 4353 0
-3242 -3243 4351 0
-3242 -3244 4352 0
-3242 -3245 4353 0
-3242 -3246 4354 0
-3251 4355 0
-3252 4356 0
-3253 4357 0
-3254 4358 0
-3247 4355 0
-3248 4356 0
-3249 4357 0
-3250 4358 0
-3247 -3251 4356 0
-3247 -3252 4357 0
-3247 -3253 4358 0
-3247 -3254 4359 0
-3248 -3251 4357 0
-3248 -3252 4358 0
-3248 -3253 4359 0
-3248 -3254 4360 0
-3249 -3251 4358 0
-3249 -3252 4359 0
-3249 -3253 4360 0
-3249 -3254 4361 0
-3250 -3251 4359 0
-3250 -3252 4360 0
-3250 -3253 4361 0
-3250 -3254 4362 0
-3259 4363 0
-3260 4364 0
-3261 4365 0
-3262 4366 0
-3255 4363 0
-3256 4364 0
-3257 4365 0
-3258 4366 0
-3255 -3259 4364 0
-3255 -3260 4365 0
-3255 -3261 4366 0
-3255 -3262 4367 0
-3256 -3259 4365 0
-3256 -3260 4366 0
-3256 -3261 4367 0
-3256 -3262 4368 0
-3257 -3259 4366 0
-3257 -3260 4367 0
-3257 -3261 4368 0
-3257 -3262 4369 0
-3258 -3259 4367 0
-3258 -3260 4368 0
-3258 -3261 4369 0
-3258 -3262 4370 0
-3267 4371 0
-3268 4372 0
-3269 4373 0
-3270 4374 0
-3263 4371 0
-3264 4372 0
-3265 4373 0
-3266 4374 0
-3263 -3267 4372 0
-3263 -3268 4373 0
-3263 -3269 4374 0
-3263 -3270 4375 0
-3264 -3267 4373 0
-3264 -3268 4374 0
-3264 -3269 4375 0
-3264 -3270 4376 0
-3265 -3267 4374 0
-3265 -3268 4375 0
-3265 -3269 4376 0
-3265 -3270 4377 0
-3266 -3267 4375 0
-3266 -3268 4376 0
-3266 -3269 4377 0
-3266 -3270 4378 0
-3275 4379 0
-3276 4380 0
-3277 4381 0
-3278 4382 0
-3271 4379 0
-3272 4380 0
-3273 4381 0
-3274 4382 0
-3271 -3275 4380 0
-3271 -3276 4381 0
-3271 -3277 4382 0
-3271 -3278 4383 0
-3272 -3275 4381 0
-3272 -3276 4382 0
-3272 -3277 4383 0
-3272 -3278 4384 0
-3273 -3275 4382 0
-3273 -3276 4383 0
-3273 -3277 4384 0
-3273 -3278 4385 0
-3274 -3275 4383 0
-3274 -3276 4384 0
-3274 -3277 4385 0
-3274 -3278 4386 0
-3283 4387 0
-3284 4388 0
-3285 4389 0
-3286 4390 0
-3279 4387 0
-3280 4388 0
-3281 4389 0
-3282 4390 0
-3279 -3283 4388 0
-3279 -3284 4389 0
-3279 -3285 4390 0
-3279 -3286 4391 0
-3280 -3283 4389 0
-3280 -3284 4390 0
-3280 -3285 4391 0
-3280 -3286 4392 0
-3281 -3283 4390 0
-3281 -3284 4391 0
-3281 -3285 4392 0
-3281 -3286 4393 0
-3282 -3283 4391 0
-3282 -3284 4392 0
-3282 -3285 4393 0
-3282 -3286 4394 0
-3291 4395 0
-3292 4396 0
-3293 4397 0
-3294 4398 0
-3287 4395 0
-3288 4396 0
-3289 4397 0
-3290 4398 0
-3287 -3291 4396 0
-3287 -3292 4397 0
-3287 -3293 4398 0
-3287 -3294 4399 0
-3288 -3291 4397 0
-3288 -3292 4398 0
-3288 -3293 4399 0
-3288 -3294 4400 0
-3289 -3291 4398 0
-3289 -3292 4399 0
-3289 -3293 4400 0
-3289 -3294 4401 0
-3290 -3291 4399 0
-3290 -3292 4400 0
-3290 -3293 4401 0
-3290 -3294 4402 0
-3299 4403 0
-3300 4404 0
-3301 4405 0
-3302 4406 0
-3295 4403 0
-3296 4404 0
-3297 4405 0
-3298 4406 0
-3295 -3299 4404 0
-3295 -3300 4405 0
-3295 -3301 4406 0
-3295 -3302 4407 0
-3296 -3299 4405 0
-3296 -3300 4406 0
-3296 -3301 4407 0
-3296 -3302 4408 0
-3297 -3299 4406 0
-3297 -3300 4407 0
-3297 -3301 4408 0
-3297 -3302 4409 0
-3298 -3299 4407 0
-3298 -3300 4408 0
-3298 -3301 4409 0
-3298 -3302 4410 0
-3307 4411 0
-3308 4412 0
-3309 4413 0
-3310 4414 0
-3303 4411 0
-3304 4412 0
-3305 4413 0
-3306 4414 0
-3303 -3307 4412 0
-3303 -3308 4413 0
-3303 -3309 4414 0
-3303 -3310 4415 0
-3304 -3307 4413 0
-3304 -3308 4414 0
-3304 -3309 4415 0
-3304 -3310 4416 0
-3305 -3307 4414 0
-3305 -3308 4415 0
-3305 -3309 4416 0
-3305 -3310 4417 0
-3306 -3307 4415 0
-3306 -3308 4416 0
-3306 -3309 4417 0
-3306 -3310 4418 0
-3315 4419 0
-3316 4420 0
-3317 4421 0
-3318 4422 0
-3311 4419 0
-3312 4420 0
-3313 4421 0
-3314 4422 0
-3311 -3315 4420 0
-3311 -3316 4421 0
-3311 -3317 4422 0
-3311 -3318 4423 0
-3312 -3315 4421 0
-3312 -3316 4422 0
-3312 -3317 4423 0
-3312 -3318 4424 0
-3313 -3315 4422 0
-3313 -3316 4423 0
-3313 -3317 4424 0
-3313 -3318 4425 0
-3314 -3315 4423 0
-3314 -3316 4424 0
-3314 -3317 4425 0
-3314 -3318 4426 0
-3323 4427 0
-3324 4428 0
-3325 4429 0
-3326 4430 0
-3319 4427 0
-3320 4428 0
-3321 4429 0
-3322 4430 0
-3319 -3323 4428 0
-3319 -3324 4429 0
-3319 -3325 4430 0
-3319 -3326 4431 0
-3320 -3323 4429 0
-3320 -3324 4430 0
-3320 -3325 4431 0
-3320 -3326 4432 0
-3321 -3323 4430 0
-3321 -3324 4431 0
-3321 -3325 4432 0
-3321 -3326 4433 0
-3322 -3323 4431 0
-3322 -3324 4432 0
-3322 -3325 4433 0
-3322 -3326 4434 0
-3331 4435 0
-3332 4436 0
-3333 4437 0
-3334 4438 0
-3327 4435 0
-3328 4436 0
-3329 4437 0
-3330 4438 0
-3327 -3331 4436 0
-3327 -3332 4437 0
-3327 -3333 4438 0
-3327 -3334 4439 0
-3328 -3331 4437 0
-3328 -3332 4438 0
-3328 -3333 4439 0
-3328 -3334 4440 0
-3329 -3331 4438 0
-3329 -3332 4439 0
-3329 -3333 4440 0
-3329 -3334 4441 0
-3330 -3331 4439 0
-3330 -3332 4440 0
-3330 -3333 4441 0
-3330 -3334 4442 0
-3339 4443 0
-3340 4444 0
-3341 4445 0
-3342 4446 0
-3335 4443 0
-3336 4444 0
-3337 4445 0
-3338 4446 0
-3335 -3339 4444 0
-3335 -3340 4445 0
-3335 -3341 4446 0
-3335 -3342 4447 0
-3336 -3339 4445 0
-3336 -3340 4446 0
-3336 -3341 4447 0
-3336 -3342 4448 0
-3337 -3339 4446 0
-3337 -3340 4447 0
-3337 -3341 4448 0
-3337 -3342 4449 0
-3338 -3339 4447 0
-3338 -3340 4448 0
-3338 -3341 4449 0
-3338 -3342 4450 0
-3347 4451 0
-3348 4452 0
-3349 4453 0
-3350 4454 0
-3343 4451 0
-3344 4452 0
-3345 4453 0
-3346 4454 0
-3343 -3347 4452 0
-3343 -3348 4453 0
-3343 -3349 4454 0
-3343 -3350 4455 0
-3344 -3347 4453 0
-3344 -3348 4454 0
-3344 -3349 4455 0
-3344 -3350 4456 0
-3345 -3347 4454 0
-3345 -3348 4455 0
-3345 -3349 4456 0
-3345 -3350 4457 0
-3346 -3347 4455 0
-3346 -3348 4456 0
-3346 -3349 4457 0
-3346 -3350 4458 0
-3355 4459 0
-3356 4460 0
-3357 4461 0
-3358 4462 0
-3351 4459 0
-3352 4460 0
-3353 4461 0
-3354 4462 0
-3351 -3355 4460 0
-3351 -3356 4461 0
-3351 -3357 4462 0
-3351 -3358 4463 0
-3352 -3355 4461 0
-3352 -3356 4462 0
-3352 -3357 4463 0
-3352 -3358 4464 0
-3353 -3355 4462 0
-3353 -3356 4463 0
-3353 -3357 4464 0
-3353 -3358 4465 0
-3354 -3355 4463 0
-3354 -3356 4464 0
-3354 -3357 4465 0
-3354 -3358 4466 0
-3363 4467 0
-3364 4468 0
-3365 4469 0
-3366 4470 0
-3359 4467 0
-3360 4468 0
-3361 4469 0
-3362 4470 0
-3359 -3363 4468 0
-3359 -3364 4469 0
-3359 -3365 4470 0
-3359 -3366 4471 0
-3360 -3363 4469 0
-3360 -3364 4470 0
-3360 -3365 4471 0
-3360 -3366 4472 0
-3361 -3363 4470 0
-3361 -3364 4471 0
-3361 -3365 4472 0
-3361 -3366 4473 0
-3362 -3363 4471 0
-3362 -3364 4472 0
-3362 -3365 4473 0
-3362 -3366 4474 0
-3371 4475 0
-3372 4476 0
-3373 4477 0
-3374 4478 0
-3367 4475 0
-3368 4476 0
-3369 4477 0
-3370 4478 0
-3367 -3371 4476 0
-3367 -3372 4477 0
-3367 -3373 4478 0
-3367 -3374 4479 0
-3368 -3371 4477 0
-3368 -3372 4478 0
-3368 -3373 4479 0
-3368 -3374 4480 0
-3369 -3371 4478 0
-3369 -3372 4479 0
-3369 -3373 4480 0
-3369 -3374 4481 0
-3370 -3371 4479 0
-3370 -3372 4480 0
-3370 -3373 4481 0
-3370 -3374 4482 0
-3379 4483 0
-3380 4484 0
-3381 4485 0
-3382 4486 0
-3375 4483 0
-3376 4484 0
-3377 4485 0
-3378 4486 0
-3375 -3379 4484 0
-3375 -3380 4485 0
-3375 -3381 4486 0
-3375 -3382 4487 0
-3376 -3379 4485 0
-3376 -3380 4486 0
-3376 -3381 4487 0
-3376 -3382 4488 0
-3377 -3379 4486 0
-3377 -3380 4487 0
-3377 -3381 4488 0
-3377 -3382 4489 0
-3378 -3379 4487 0
-3378 -3380 4488 0
-3378 -3381 4489 0
-3378 -3382 4490 0
-3387 4491 0
-3388 4492 0
-3389 4493 0
-3390 4494 0
-3383 4491 0
-3384 4492 0
-3385 4493 0
-3386 4494 0
-3383 -3387 4492 0
-3383 -3388 4493 0
-3383 -3389 4494 0
-3383 -3390 4495 0
-3384 -3387 4493 0
-3384 -3388 4494 0
-3384 -3389 4495 0
-3384 -3390 4496 0
-3385 -3387 4494 0
-3385 -3388 4495 0
-3385 -3389 4496 0
-3385 -3390 4497 0
-3386 -3387 4495 0
-3386 -3388 4496 0
-3386 -3389 4497 0
-3386 -3390 4498 0
-3395 4499 0
-3396 4500 0
-3397 4501 0
-3398 4502 0
-3391 4499 0
-3392 4500 0
-3393 4501 0
-3394 4502 0
-3391 -3395 4500 0
-3391 -3396 4501 0
-3391 -3397 4502 0
-3391 -3398 4503 0
-3392 -3395 4501 0
-3392 -3396 4502 0
-3392 -3397 4503 0
-3392 -3398 4504 0
-3393 -3395 4502 0
-3393 -3396 4503 0
-3393 -3397 4504 0
-3393 -3398 4505 0
-3394 -3395 4503 0
-3394 -3396 4504 0
-3394 -3397 4505 0
-3394 -3398 4506 0
-3403 4507 0
-3404 4508 0
-3405 4509 0
-3406 4510 0
-3399 4507 0
-3400 4508 0
-3401 4509 0
-3402 4510 0
-3399 -3403 4508 0
-3399 -3404 4509 0
-3399 -3405 4510 0
-3399 -3406 4511 0
-3400 -3403 4509 0
-3400 -3404 4510 0
-3400 -3405 4511 0
-3400 -3406 4512 0
-3401 -3403 4510 0
-3401 -3404 4511 0
-3401 -3405 4512 0
-3401 -3406 4513 0
-3402 -3403 4511 0
-3402 -3404 4512 0
-3402 -3405 4513 0
-3402 -3406 4514 0
-3411 4515 0
-3412 4516 0
-3413 4517 0
-3414 4518 0
-3407 4515 0
-3408 4516 0
-3409 4517 0
-3410 4518 0
-3407 -3411 4516 0
-3407 -3412 4517 0
-3407 -3413 4518 0
-3407 -3414 4519 0
-3408 -3411 4517 0
-3408 -3412 4518 0
-3408 -3413 4519 0
-3408 -3414 4520 0
-3409 -3411 4518 0
-3409 -3412 4519 0
-3409 -3413 4520 0
-3409 -3414 4521 0
-3410 -3411 4519 0
-3410 -3412 4520 0
-3410 -3413 4521 0
-3410 -3414 4522 0
-3419 4523 0
-3420 4524 0
-3421 4525 0
-3422 4526 0
-3415 4523 0
-3416 4524 0
-3417 4525 0
-3418 4526 0
-3415 -3419 4524 0
-3415 -3420 4525 0
-3415 -3421 4526 0
-3415 -3422 4527 0
-3416 -3419 4525 0
-3416 -3420 4526 0
-3416 -3421 4527 0
-3416 -3422 4528 0
-3417 -3419 4526 0
-3417 -3420 4527 0
-3417 -3421 4528 0
-3417 -3422 4529 0
-3418 -3419 4527 0
-3418 -3420 4528 0
-3418 -3421 4529 0
-3418 -3422 4530 0
-3427 4531 0
-3428 4532 0
-3429 4533 0
-3430 4534 0
-3423 4531 0
-3424 4532 0
-3425 4533 0
-3426 4534 0
-3423 -3427 4532 0
-3423 -3428 4533 0
-3423 -3429 4534 0
-3423 -3430 4535 0
-3424 -3427 4533 0
-3424 -3428 4534 0
-3424 -3429 4535 0
-3424 -3430 4536 0
-3425 -3427 4534 0
-3425 -3428 4535 0
-3425 -3429 4536 0
-3425 -3430 4537 0
-3426 -3427 4535 0
-3426 -3428 4536 0
-3426 -3429 4537 0
-3426 -3430 4538 0
-3435 4539 0
-3436 4540 0
-3437 4541 0
-3438 4542 0
-3431 4539 0
-3432 4540 0
-3433 4541 0
-3434 4542 0
-3431 -3435 4540 0
-3431 -3436 4541 0
-3431 -3437 4542 0
-3431 -3438 4543 0
-3432 -3435 4541 0
-3432 -3436 4542 0
-3432 -3437 4543 0
-3432 -3438 4544 0
-3433 -3435 4542 0
-3433 -3436 4543 0
-3433 -3437 4544 0
-3433 -3438 4545 0
-3434 -3435 4543 0
-3434 -3436 4544 0
-3434 -3437 4545 0
-3434 -3438 4546 0
-3443 4547 0
-3444 4548 0
-3445 4549 0
-3446 4550 0
-3439 4547 0
-3440 4548 0
-3441 4549 0
-3442 4550 0
-3439 -3443 4548 0
-3439 -3444 4549 0
-3439 -3445 4550 0
-3439 -3446 4551 0
-3440 -3443 4549 0
-3440 -3444 4550 0
-3440 -3445 4551 0
-3440 -3446 4552 0
-3441 -3443 4550 0
-3441 -3444 4551 0
-3441 -3445 4552 0
-3441 -3446 4553 0
-3442 -3443 4551 0
-3442 -3444 4552 0
-3442 -3445 4553 0
-3442 -3446 4554 0
-3451 4555 0
-3452 4556 0
-3453 4557 0
-3454 4558 0
-3447 4555 0
-3448 4556 0
-3449 4557 0
-3450 4558 0
-3447 -3451 4556 0
-3447 -3452 4557 0
-3447 -3453 4558 0
-3447 -3454 4559 0
-3448 -3451 4557 0
-3448 -3452 4558 0
-3448 -3453 4559 0
-3448 -3454 4560 0
-3449 -3451 4558 0
-3449 -3452 4559 0
-3449 -3453 4560 0
-3449 -3454 4561 0
-3450 -3451 4559 0
-3450 -3452 4560 0
-3450 -3453 4561 0
-3450 -3454 4562 0
-3459 4563 0
-3460 4564 0
-3461 4565 0
-3462 4566 0
-3455 4563 0
-3456 4564 0
-3457 4565 0
-3458 4566 0
-3455 -3459 4564 0
-3455 -3460 4565 0
-3455 -3461 4566 0
-3455 -3462 4567 0
-3456 -3459 4565 0
-3456 -3460 4566 0
-3456 -3461 4567 0
-3456 -3462 4568 0
-3457 -3459 4566 0
-3457 -3460 4567 0
-3457 -3461 4568 0
-3457 -3462 4569 0
-3458 -3459 4567 0
-3458 -3460 4568 0
-3458 -3461 4569 0
-3458 -3462 4570 0
-3467 4571 0
-3468 4572 0
-3469 4573 0
-3470 4574 0
-3463 4571 0
-3464 4572 0
-3465 4573 0
-3466 4574 0
-3463 -3467 4572 0
-3463 -3468 4573 0
-3463 -3469 4574 0
-3463 -3470 4575 0
-3464 -3467 4573 0
-3464 -3468 4574 0
-3464 -3469 4575 0
-3464 -3470 4576 0
-3465 -3467 4574 0
-3465 -3468 4575 0
-3465 -3469 4576 0
-3465 -3470 4577 0
-3466 -3467 4575 0
-3466 -3468 4576 0
-3466 -3469 4577 0
-3466 -3470 4578 0
-3475 4579 0
-3476 4580 0
-3477 4581 0
-3478 4582 0
-3471 4579 0
-3472 4580 0
-3473 4581 0
-3474 4582 0
-3471 -3475 4580 0
-3471 -3476 4581 0
-3471 -3477 4582 0
-3471 -3478 4583 0
-3472 -3475 4581 0
-3472 -3476 4582 0
-3472 -3477 4583 0
-3472 -3478 4584 0
-3473 -3475 4582 0
-3473 -3476 4583 0
-3473 -3477 4584 0
-3473 -3478 4585 0
-3474 -3475 4583 0
-3474 -3476 4584 0
-3474 -3477 4585 0
-3474 -3478 4586 0
-3483 4587 0
-3484 4588 0
-3485 4589 0
-3486 4590 0
-3479 4587 0
-3480 4588 0
-3481 4589 0
-3482 4590 0
-3479 -3483 4588 0
-3479 -3484 4589 0
-3479 -3485 4590 0
-3479 -3486 4591 0
-3480 -3483 4589 0
-3480 -3484 4590 0
-3480 -3485 4591 0
-3480 -3486 4592 0
-3481 -3483 4590 0
-3481 -3484 4591 0
-3481 -3485 4592 0
-3481 -3486 4593 0
-3482 -3483 4591 0
-3482 -3484 4592 0
-3482 -3485 4593 0
-3482 -3486 4594 0
-3491 4595 0
-3492 4596 0
-3493 4597 0
-3494 4598 0
-3487 4595 0
-3488 4596 0
-3489 4597 0
-3490 4598 0
-3487 -3491 4596 0
-3487 -3492 4597 0
-3487 -3493 4598 0
-3487 -3494 4599 0
-3488 -3491 4597 0
-3488 -3492 4598 0
-3488 -3493 4599 0
-3488 -3494 4600 0
-3489 -3491 4598 0
-3489 -3492 4599 0
-3489 -3493 4600 0
-3489 -3494 4601 0
-3490 -3491 4599 0
-3490 -3492 4600 0
-3490 -3493 4601 0
-3490 -3494 4602 0
-3499 4603 0
-3500 4604 0
-3501 4605 0
-3502 4606 0
-3495 4603 0
-3496 4604 0
-3497 4605 0
-3498 4606 0
-3495 -3499 4604 0
-3495 -3500 4605 0
-3495 -3501 4606 0
-3495 -3502 4607 0
-3496 -3499 4605 0
-3496 -3500 4606 0
-3496 -3501 4607 0
-3496 -3502 4608 0
-3497 -3499 4606 0
-3497 -3500 4607 0
-3497 -3501 4608 0
-3497 -3502 4609 0
-3498 -3499 4607 0
-3498 -3500 4608 0
-3498 -3501 4609 0
-3498 -3502 4610 0
-3507 4611 0
-3508 4612 0
-3509 4613 0
-3510 4614 0
-3503 4611 0
-3504 4612 0
-3505 4613 0
-3506 4614 0
-3503 -3507 4612 0
-3503 -3508 4613 0
-3503 -3509 4614 0
-3503 -3510 4615 0
-3504 -3507 4613 0
-3504 -3508 4614 0
-3504 -3509 4615 0
-3504 -3510 4616 0
-3505 -3507 4614 0
-3505 -3508 4615 0
-3505 -3509 4616 0
-3505 -3510 4617 0
-3506 -3507 4615 0
-3506 -3508 4616 0
-3506 -3509 4617 0
-3506 -3510 4618 0
-3515 4619 0
-3516 4620 0
-3517 4621 0
-3518 4622 0
-3511 4619 0
-3512 4620 0
-3513 4621 0
-3514 4622 0
-3511 -3515 4620 0
-3511 -3516 4621 0
-3511 -3517 4622 0
-3511 -3518 4623 0
-3512 -3515 4621 0
-3512 -3516 4622 0
-3512 -3517 4623 0
-3512 -3518 4624 0
-3513 -3515 4622 0
-3513 -3516 4623 0
-3513 -3517 4624 0
-3513 -3518 4625 0
-3514 -3515 4623 0
-3514 -3516 4624 0
-3514 -3517 4625 0
-3514 -3518 4626 0
-3523 4627 0
-3524 4628 0
-3525 4629 0
-3526 4630 0
-3519 4627 0
-3520 4628 0
-3521 4629 0
-3522 4630 0
-3519 -3523 4628 0
-3519 -3524 4629 0
-3519 -3525 4630 0
-3519 -3526 4631 0
-3520 -3523 4629 0
-3520 -3524 4630 0
-3520 -3525 4631 0
-3520 -3526 4632 0
-3521 -3523 4630 0
-3521 -3524 4631 0
-3521 -3525 4632 0
-3521 -3526 4633 0
-3522 -3523 4631 0
-3522 -3524 4632 0
-3522 -3525 4633 0
-3522 -3526 4634 0
-3531 4635 0
-3532 4636 0
-3533 4637 0
-3534 4638 0
-3527 4635 0
-3528 4636 0
-3529 4637 0
-3530 4638 0
-3527 -3531 4636 0
-3527 -3532 4637 0
-3527 -3533 4638 0
-3527 -3534 4639 0
-3528 -3531 4637 0
-3528 -3532 4638 0
-3528 -3533 4639 0
-3528 -3534 4640 0
-3529 -3531 4638 0
-3529 -3532 4639 0
-3529 -3533 4640 0
-3529 -3534 4641 0
-3530 -3531 4639 0
-3530 -3532 4640 0
-3530 -3533 4641 0
-3530 -3534 4642 0
-3539 4643 0
-3540 4644 0
-3541 4645 0
-3542 4646 0
-3535 4643 0
-3536 4644 0
-3537 4645 0
-3538 4646 0
-3535 -3539 4644 0
-3535 -3540 4645 0
-3535 -3541 4646 0
-3535 -3542 4647 0
-3536 -3539 4645 0
-3536 -3540 4646 0
-3536 -3541 4647 0
-3536 -3542 4648 0
-3537 -3539 4646 0
-3537 -3540 4647 0
-3537 -3541 4648 0
-3537 -3542 4649 0
-3538 -3539 4647 0
-3538 -3540 4648 0
-3538 -3541 4649 0
-3538 -3542 4650 0
-3547 4651 0
-3548 4652 0
-3549 4653 0
-3550 4654 0
-3543 4651 0
-3544 4652 0
-3545 4653 0
-3546 4654 0
-3543 -3547 4652 0
-3543 -3548 4653 0
-3543 -3549 4654 0
-3543 -3550 4655 0
-3544 -3547 4653 0
-3544 -3548 4654 0
-3544 -3549 4655 0
-3544 -3550 4656 0
-3545 -3547 4654 0
-3545 -3548 4655 0
-3545 -3549 4656 0
-3545 -3550 4657 0
-3546 -3547 4655 0
-3546 -3548 4656 0
-3546 -3549 4657 0
-3546 -3550 4658 0
-3555 4659 0
-3556 4660 0
-3557 4661 0
-3558 4662 0
-3551 4659 0
-3552 4660 0
-3553 4661 0
-3554 4662 0
-3551 -3555 4660 0
-3551 -3556 4661 0
-3551 -3557 4662 0
-3551 -3558 4663 0
-3552 -3555 4661 0
-3552 -3556 4662 0
-3552 -3557 4663 0
-3552 -3558 4664 0
-3553 -3555 4662 0
-3553 -3556 4663 0
-3553 -3557 4664 0
-3553 -3558 4665 0
-3554 -3555 4663 0
-3554 -3556 4664 0
-3554 -3557 4665 0
-3554 -3558 4666 0
-3563 4667 0
-3564 4668 0
-3565 4669 0
-3566 4670 0
-3559 4667 0
-3560 4668 0
-3561 4669 0
-3562 4670 0
-3559 -3563 4668 0
-3559 -3564 4669 0
-3559 -3565 4670 0
-3559 -3566 4671 0
-3560 -3563 4669 0
-3560 -3564 4670 0
-3560 -3565 4671 0
-3560 -3566 4672 0
-3561 -3563 4670 0
-3561 -3564 4671 0
-3561 -3565 4672 0
-3561 -3566 4673 0
-3562 -3563 4671 0
-3562 -3564 4672 0
-3562 -3565 4673 0
-3562 -3566 4674 0
-3571 4675 0
-3572 4676 0
-3573 4677 0
-3574 4678 0
-3567 4675 0
-3568 4676 0
-3569 4677 0
-3570 4678 0
-3567 -3571 4676 0
-3567 -3572 4677 0
-3567 -3573 4678 0
-3567 -3574 4679 0
-3568 -3571 4677 0
-3568 -3572 4678 0
-3568 -3573 4679 0
-3568 -3574 4680 0
-3569 -3571 4678 0
-3569 -3572 4679 0
-3569 -3573 4680 0
-3569 -3574 4681 0
-3570 -3571 4679 0
-3570 -3572 4680 0
-3570 -3573 4681 0
-3570 -3574 4682 0
-3579 4683 0
-3580 4684 0
-3581 4685 0
-3582 4686 0
-3575 4683 0
-3576 4684 0
-3577 4685 0
-3578 4686 0
-3575 -3579 4684 0
-3575 -3580 4685 0
-3575 -3581 4686 0
-3575 -3582 4687 0
-3576 -3579 4685 0
-3576 -3580 4686 0
-3576 -3581 4687 0
-3576 -3582 4688 0
-3577 -3579 4686 0
-3577 -3580 4687 0
-3577 -3581 4688 0
-3577 -3582 4689 0
-3578 -3579 4687 0
-3578 -3580 4688 0
-3578 -3581 4689 0
-3578 -3582 4690 0
-3587 4691 0
-3588 4692 0
-3589 4693 0
-3590 4694 0
-3583 4691 0
-3584 4692 0
-3585 4693 0
-3586 4694 0
-3583 -3587 4692 0
-3583 -3588 4693 0
-3583 -3589 4694 0
-3583 -3590 4695 0
-3584 -3587 4693 0
-3584 -3588 4694 0
-3584 -3589 4695 0
-3584 -3590 4696 0
-3585 -3587 4694 0
-3585 -3588 4695 0
-3585 -3589 4696 0
-3585 -3590 4697 0
-3586 -3587 4695 0
-3586 -3588 4696 0
-3586 -3589 4697 0
-3586 -3590 4698 0
-3595 4699 0
-3596 4700 0
-3597 4701 0
-3598 4702 0
-3591 4699 0
-3592 4700 0
-3593 4701 0
-3594 4702 0
-3591 -3595 4700 0
-3591 -3596 4701 0
-3591 -3597 4702 0
-3591 -3598 4703 0
-3592 -3595 4701 0
-3592 -3596 4702 0
-3592 -3597 4703 0
-3592 -3598 4704 0
-3593 -3595 4702 0
-3593 -3596 4703 0
-3593 -3597 4704 0
-3593 -3598 4705 0
-3594 -3595 4703 0
-3594 -3596 4704 0
-3594 -3597 4705 0
-3594 -3598 4706 0
-3603 4707 0
-3604 4708 0
-3605 4709 0
-3606 4710 0
-3599 4707 0
-3600 4708 0
-3601 4709 0
-3602 4710 0
-3599 -3603 4708 0
-3599 -3604 4709 0
-3599 -3605 4710 0
-3599 -3606 4711 0
-3600 -3603 4709 0
-3600 -3604 4710 0
-3600 -3605 4711 0
-3600 -3606 4712 0
-3601 -3603 4710 0
-3601 -3604 4711 0
-3601 -3605 4712 0
-3601 -3606 4713 0
-3602 -3603 4711 0
-3602 -3604 4712 0
-3602 -3605 4713 0
-3602 -3606 4714 0
-3611 4715 0
-3612 4716 0
-3613 4717 0
-3614 4718 0
-3607 4715 0
-3608 4716 0
-3609 4717 0
-3610 4718 0
-3607 -3611 4716 0
-3607 -3612 4717 0
-3607 -3613 4718 0
-3607 -3614 4719 0
-3608 -3611 4717 0
-3608 -3612 4718 0
-3608 -3613 4719 0
-3608 -3614 4720 0
-3609 -3611 4718 0
-3609 -3612 4719 0
-3609 -3613 4720 0
-3609 -3614 4721 0
-3610 -3611 4719 0
-3610 -3612 4720 0
-3610 -3613 4721 0
-3610 -3614 4722 0
-3619 4723 0
-3620 4724 0
-3621 4725 0
-3622 4726 0
-3615 4723 0
-3616 4724 0
-3617 4725 0
-3618 4726 0
-3615 -3619 4724 0
-3615 -3620 4725 0
-3615 -3621 4726 0
-3615 -3622 4727 0
-3616 -3619 4725 0
-3616 -3620 4726 0
-3616 -3621 4727 0
-3616 -3622 4728 0
-3617 -3619 4726 0
-3617 -3620 4727 0
-3617 -3621 4728 0
-3617 -3622 4729 0
-3618 -3619 4727 0
-3618 -3620 4728 0
-3618 -3621 4729 0
-3618 -3622 4730 0
-3627 4731 0
-3628 4732 0
-3629 4733 0
-3630 4734 0
-3623 4731 0
-3624 4732 0
-3625 4733 0
-3626 4734 0
-3623 -3627 4732 0
-3623 -3628 4733 0
-3623 -3629 4734 0
-3623 -3630 4735 0
-3624 -3627 4733 0
-3624 -3628 4734 0
-3624 -3629 4735 0
-3624 -3630 4736 0
-3625 -3627 4734 0
-3625 -3628 4735 0
-3625 -3629 4736 0
-3625 -3630 4737 0
-3626 -3627 4735 0
-3626 -3628 4736 0
-3626 -3629 4737 0
-3626 -3630 4738 0
-3635 4739 0
-3636 4740 0
-3637 4741 0
-3638 4742 0
-3631 4739 0
-3632 4740 0
-3633 4741 0
-3634 4742 0
-3631 -3635 4740 0
-3631 -3636 4741 0
-3631 -3637 4742 0
-3631 -3638 4743 0
-3632 -3635 4741 0
-3632 -3636 4742 0
-3632 -3637 4743 0
-3632 -3638 4744 0
-3633 -3635 4742 0
-3633 -3636 4743 0
-3633 -3637 4744 0
-3633 -3638 4745 0
-3634 -3635 4743 0
-3634 -3636 4744 0
-3634 -3637 4745 0
-3634 -3638 4746 0
-3643 4747 0
-3644 4748 0
-3645 4749 0
-3646 4750 0
-3639 4747 0
-3640 4748 0
-3641 4749 0
-3642 4750 0
-3639 -3643 4748 0
-3639 -3644 4749 0
-3639 -3645 4750 0
-3639 -3646 4751 0
-3640 -3643 4749 0
-3640 -3644 4750 0
-3640 -3645 4751 0
-3640 -3646 4752 0
-3641 -3643 4750 0
-3641 -3644 4751 0
-3641 -3645 4752 0
-3641 -3646 4753 0
-3642 -3643 4751 0
-3642 -3644 4752 0
-3642 -3645 4753 0
-3642 -3646 4754 0
-3651 4755 0
-3652 4756 0
-3653 4757 0
-3654 4758 0
-3647 4755 0
-3648 4756 0
-3649 4757 0
-3650 4758 0
-3647 -3651 4756 0
-3647 -3652 4757 0
-3647 -3653 4758 0
-3647 -3654 4759 0
-3648 -3651 4757 0
-3648 -3652 4758 0
-3648 -3653 4759 0
-3648 -3654 4760 0
-3649 -3651 4758 0
-3649 -3652 4759 0
-3649 -3653 4760 0
-3649 -3654 4761 0
-3650 -3651 4759 0
-3650 -3652 4760 0
-3650 -3653 4761 0
-3650 -3654 4762 0
-3659 4763 0
-3660 4764 0
-3661 4765 0
-3662 4766 0
-3655 4763 0
-3656 4764 0
-3657 4765 0
-3658 4766 0
-3655 -3659 4764 0
-3655 -3660 4765 0
-3655 -3661 4766 0
-3655 -3662 4767 0
-3656 -3659 4765 0
-3656 -3660 4766 0
-3656 -3661 4767 0
-3656 -3662 4768 0
-3657 -3659 4766 0
-3657 -3660 4767 0
-3657 -3661 4768 0
-3657 -3662 4769 0
-3658 -3659 4767 0
-3658 -3660 4768 0
-3658 -3661 4769 0
-3658 -3662 4770 0
-3667 4771 0
-3668 4772 0
-3669 4773 0
-3670 4774 0
-3663 4771 0
-3664 4772 0
-3665 4773 0
-3666 4774 0
-3663 -3667 4772 0
-3663 -3668 4773 0
-3663 -3669 4774 0
-3663 -3670 4775 0
-3664 -3667 4773 0
-3664 -3668 4774 0
-3664 -3669 4775 0
-3664 -3670 4776 0
-3665 -3667 4774 0
-3665 -3668 4775 0
-3665 -3669 4776 0
-3665 -3670 4777 0
-3666 -3667 4775 0
-3666 -3668 4776 0
-3666 -3669 4777 0
-3666 -3670 4778 0
-3675 4779 0
-3676 4780 0
-3677 4781 0
-3678 4782 0
-3671 4779 0
-3672 4780 0
-3673 4781 0
-3674 4782 0
-3671 -3675 4780 0
-3671 -3676 4781 0
-3671 -3677 4782 0
-3671 -3678 4783 0
-3672 -3675 4781 0
-3672 -3676 4782 0
-3672 -3677 4783 0
-3672 -3678 4784 0
-3673 -3675 4782 0
-3673 -3676 4783 0
-3673 -3677 4784 0
-3673 -3678 4785 0
-3674 -3675 4783 0
-3674 -3676 4784 0
-3674 -3677 4785 0
-3674 -3678 4786 0
-3683 4787 0
-3684 4788 0
-3685 4789 0
-3686 4790 0
-3679 4787 0
-3680 4788 0
-3681 4789 0
-3682 4790 0
-3679 -3683 4788 0
-3679 -3684 4789 0
-3679 -3685 4790 0
-3679 -3686 4791 0
-3680 -3683 4789 0
-3680 -3684 4790 0
-3680 -3685 4791 0
-3680 -3686 4792 0
-3681 -3683 4790 0
-3681 -3684 4791 0
-3681 -3685 4792 0
-3681 -3686 4793 0
-3682 -3683 4791 0
-3682 -3684 4792 0
-3682 -3685 4793 0
-3682 -3686 4794 0
-3691 4795 0
-3692 4796 0
-3693 4797 0
-3694 4798 0
-3687 4795 0
-3688 4796 0
-3689 4797 0
-3690 4798 0
-3687 -3691 4796 0
-3687 -3692 4797 0
-3687 -3693 4798 0
-3687 -3694 4799 0
-3688 -3691 4797 0
-3688 -3692 4798 0
-3688 -3693 4799 0
-3688 -3694 4800 0
-3689 -3691 4798 0
-3689 -3692 4799 0
-3689 -3693 4800 0
-3689 -3694 4801 0
-3690 -3691 4799 0
-3690 -3692 4800 0
-3690 -3693 4801 0
-3690 -3694 4802 0
-3699 4803 0
-3700 4804 0
-3701 4805 0
-3702 4806 0
-3695 4803 0
-3696 4804 0
-3697 4805 0
-3698 4806 0
-3695 -3699 4804 0
-3695 -3700 4805 0
-3695 -3701 4806 0
-3695 -3702 4807 0
-3696 -3699 4805 0
-3696 -3700 4806 0
-3696 -3701 4807 0
-3696 -3702 4808 0
-3697 -3699 4806 0
-3697 -3700 4807 0
-3697 -3701 4808 0
-3697 -3702 4809 0
-3698 -3699 4807 0
-3698 -3700 4808 0
-3698 -3701 4809 0
-3698 -3702 4810 0
-3707 4811 0
-3708 4812 0
-3709 4813 0
-3710 4814 0
-3703 4811 0
-3704 4812 0
-3705 4813 0
-3706 4814 0
-3703 -3707 4812 0
-3703 -3708 4813 0
-3703 -3709 4814 0
-3703 -3710 4815 0
-3704 -3707 4813 0
-3704 -3708 4814 0
-3704 -3709 4815 0
-3704 -3710 4816 0
-3705 -3707 4814 0
-3705 -3708 4815 0
-3705 -3709 4816 0
-3705 -3710 4817 0
-3706 -3707 4815 0
-3706 -3708 4816 0
-3706 -3709 4817 0
-3706 -3710 4818 0
-3715 4819 0
-3716 4820 0
-3717 4821 0
-3718 4822 0
-3711 4819 0
-3712 4820 0
-3713 4821 0
-3714 4822 0
-3711 -3715 4820 0
-3711 -3716 4821 0
-3711 -3717 4822 0
-3711 -3718 4823 0
-3712 -3715 4821 0
-3712 -3716 4822 0
-3712 -3717 4823 0
-3712 -3718 4824 0
-3713 -3715 4822 0
-3713 -3716 4823 0
-3713 -3717 4824 0
-3713 -3718 4825 0
-3714 -3715 4823 0
-3714 -3716 4824 0
-3714 -3717 4825 0
-3714 -3718 4826 0
-3723 4827 0
-3724 4828 0
-3725 4829 0
-3726 4830 0
-3719 4827 0
-3720 4828 0
-3721 4829 0
-3722 4830 0
-3719 -3723 4828 0
-3719 -3724 4829 0
-3719 -3725 4830 0
-3719 -3726 4831 0
-3720 -3723 4829 0
-3720 -3724 4830 0
-3720 -3725 4831 0
-3720 -3726 4832 0
-3721 -3723 4830 0
-3721 -3724 4831 0
-3721 -3725 4832 0
-3721 -3726 4833 0
-3722 -3723 4831 0
-3722 -3724 4832 0
-3722 -3725 4833 0
-3722 -3726 4834 0
-3731 4835 0
-3732 4836 0
-3733 4837 0
-3734 4838 0
-3727 4835 0
-3728 4836 0
-3729 4837 0
-3730 4838 0
-3727 -3731 4836 0
-3727 -3732 4837 0
-3727 -3733 4838 0
-3727 -3734 4839 0
-3728 -3731 4837 0
-3728 -3732 4838 0
-3728 -3733 4839 0
-3728 -3734 4840 0
-3729 -3731 4838 0
-3729 -3732 4839 0
-3729 -3733 4840 0
-3729 -3734 4841 0
-3730 -3731 4839 0
-3730 -3732 4840 0
-3730 -3733 4841 0
-3730 -3734 4842 0
-3739 4843 0
-3740 4844 0
-3741 4845 0
-3742 4846 0
-3735 4843 0
-3736 4844 0
-3737 4845 0
-3738 4846 0
-3735 -3739 4844 0
-3735 -3740 4845 0
-3735 -3741 4846 0
-3735 -3742 4847 0
-3736 -3739 4845 0
-3736 -3740 4846 0
-3736 -3741 4847 0
-3736 -3742 4848 0
-3737 -3739 4846 0
-3737 -3740 4847 0
-3737 -3741 4848 0
-3737 -3742 4849 0
-3738 -3739 4847 0
-3738 -3740 4848 0
-3738 -3741 4849 0
-3738 -3742 4850 0
-3747 4851 0
-3748 4852 0
-3749 4853 0
-3750 4854 0
-3743 4851 0
-3744 4852 0
-3745 4853 0
-3746 4854 0
-3743 -3747 4852 0
-3743 -3748 4853 0
-3743 -3749 4854 0
-3743 -3750 4855 0
-3744 -3747 4853 0
-3744 -3748 4854 0
-3744 -3749 4855 0
-3744 -3750 4856 0
-3745 -3747 4854 0
-3745 -3748 4855 0
-3745 -3749 4856 0
-3745 -3750 4857 0
-3746 -3747 4855 0
-3746 -3748 4856 0
-3746 -3749 4857 0
-3746 -3750 4858 0
-3755 4859 0
-3756 4860 0
-3757 4861 0
-3758 4862 0
-3751 4859 0
-3752 4860 0
-3753 4861 0
-3754 4862 0
-3751 -3755 4860 0
-3751 -3756 4861 0
-3751 -3757 4862 0
-3751 -3758 4863 0
-3752 -3755 4861 0
-3752 -3756 4862 0
-3752 -3757 4863 0
-3752 -3758 4864 0
-3753 -3755 4862 0
-3753 -3756 4863 0
-3753 -3757 4864 0
-3753 -3758 4865 0
-3754 -3755 4863 0
-3754 -3756 4864 0
-3754 -3757 4865 0
-3754 -3758 4866 0
-3763 4867 0
-3764 4868 0
-3765 4869 0
-3766 4870 0
-3759 4867 0
-3760 4868 0
-3761 4869 0
-3762 4870 0
-3759 -3763 4868 0
-3759 -3764 4869 0
-3759 -3765 4870 0
-3759 -3766 4871 0
-3760 -3763 4869 0
-3760 -3764 4870 0
-3760 -3765 4871 0
-3760 -3766 4872 0
-3761 -3763 4870 0
-3761 -3764 4871 0
-3761 -3765 4872 0
-3761 -3766 4873 0
-3762 -3763 4871 0
-3762 -3764 4872 0
-3762 -3765 4873 0
-3762 -3766 4874 0
-3771 4875 0
-3772 4876 0
-3773 4877 0
-3774 4878 0
-3767 4875 0
-3768 4876 0
-3769 4877 0
-3770 4878 0
-3767 -3771 4876 0
-3767 -3772 4877 0
-3767 -3773 4878 0
-3767 -3774 4879 0
-3768 -3771 4877 0
-3768 -3772 4878 0
-3768 -3773 4879 0
-3768 -3774 4880 0
-3769 -3771 4878 0
-3769 -3772 4879 0
-3769 -3773 4880 0
-3769 -3774 4881 0
-3770 -3771 4879 0
-3770 -3772 4880 0
-3770 -3773 4881 0
-3770 -3774 4882 0
-3779 4883 0
-3780 4884 0
-3781 4885 0
-3782 4886 0
-3775 4883 0
-3776 4884 0
-3777 4885 0
-3778 4886 0
-3775 -3779 4884 0
-3775 -3780 4885 0
-3775 -3781 4886 0
-3775 -3782 4887 0
-3776 -3779 4885 0
-3776 -3780 4886 0
-3776 -3781 4887 0
-3776 -3782 4888 0
-3777 -3779 4886 0
-3777 -3780 4887 0
-3777 -3781 4888 0
-3777 -3782 4889 0
-3778 -3779 4887 0
-3778 -3780 4888 0
-3778 -3781 4889 0
-3778 -3782 4890 0
-3787 4891 0
-3788 4892 0
-3789 4893 0
-3790 4894 0
-3783 4891 0
-3784 4892 0
-3785 4893 0
-3786 4894 0
-3783 -3787 4892 0
-3783 -3788 4893 0
-3783 -3789 4894 0
-3783 -3790 4895 0
-3784 -3787 4893 0
-3784 -3788 4894 0
-3784 -3789 4895 0
-3784 -3790 4896 0
-3785 -3787 4894 0
-3785 -3788 4895 0
-3785 -3789 4896 0
-3785 -3790 4897 0
-3786 -3787 4895 0
-3786 -3788 4896 0
-3786 -3789 4897 0
-3786 -3790 4898 0
-3795 4899 0
-3796 4900 0
-3797 4901 0
-3798 4902 0
-3791 4899 0
-3792 4900 0
-3793 4901 0
-3794 4902 0
-3791 -3795 4900 0
-3791 -3796 4901 0
-3791 -3797 4902 0
-3791 -3798 4903 0
-3792 -3795 4901 0
-3792 -3796 4902 0
-3792 -3797 4903 0
-3792 -3798 4904 0
-3793 -3795 4902 0
-3793 -3796 4903 0
-3793 -3797 4904 0
-3793 -3798 4905 0
-3794 -3795 4903 0
-3794 -3796 4904 0
-3794 -3797 4905 0
-3794 -3798 4906 0
-3803 4907 0
-3804 4908 0
-3805 4909 0
-3806 4910 0
-3799 4907 0
-3800 4908 0
-3801 4909 0
-3802 4910 0
-3799 -3803 4908 0
-3799 -3804 4909 0
-3799 -3805 4910 0
-3799 -3806 4911 0
-3800 -3803 4909 0
-3800 -3804 4910 0
-3800 -3805 4911 0
-3800 -3806 4912 0
-3801 -3803 4910 0
-3801 -3804 4911 0
-3801 -3805 4912 0
-3801 -3806 4913 0
-3802 -3803 4911 0
-3802 -3804 4912 0
-3802 -3805 4913 0
-3802 -3806 4914 0
-3811 4915 0
-3812 4916 0
-3813 4917 0
-3814 4918 0
-3807 4915 0
-3808 4916 0
-3809 4917 0
-3810 4918 0
-3807 -3811 4916 0
-3807 -3812 4917 0
-3807 -3813 4918 0
-3807 -3814 4919 0
-3808 -3811 4917 0
-3808 -3812 4918 0
-3808 -3813 4919 0
-3808 -3814 4920 0
-3809 -3811 4918 0
-3809 -3812 4919 0
-3809 -3813 4920 0
-3809 -3814 4921 0
-3810 -3811 4919 0
-3810 -3812 4920 0
-3810 -3813 4921 0
-3810 -3814 4922 0
-3819 4923 0
-3820 4924 0
-3821 4925 0
-3822 4926 0
-3823 4927 0
-3824 4928 0
-3825 4929 0
-3826 4930 0
-3815 4923 0
-3816 4924 0
-3817 4925 0
-3818 4926 0
-3815 -3819 4924 0
-3815 -3820 4925 0
-3815 -3821 4926 0
-3815 -3822 4927 0
-3815 -3823 4928 0
-3815 -3824 4929 0
-3815 -3825 4930 0
-3815 -3826 4931 0
-3816 -3819 4925 0
-3816 -3820 4926 0
-3816 -3821 4927 0
-3816 -3822 4928 0
-3816 -3823 4929 0
-3816 -3824 4930 0
-3816 -3825 4931 0
-3816 -3826 4932 0
-3817 -3819 4926 0
-3817 -3820 4927 0
-3817 -3821 4928 0
-3817 -3822 4929 0
-3817 -3823 4930 0
-3817 -3824 4931 0
-3817 -3825 4932 0
-3817 -3826 4933 0
-3818 -3819 4927 0
-3818 -3820 4928 0
-3818 -3821 4929 0
-3818 -3822 4930 0
-3818 -3823 4931 0
-3818 -3824 4932 0
-3818 -3825 4933 0
-3818 -3826 4934 0
-3835 4935 0
-3836 4936 0
-3837 4937 0
-3838 4938 0
-3839 4939 0
-3840 4940 0
-3841 4941 0
-3842 4942 0
-3827 4935 0
-3828 4936 0
-3829 4937 0
-3830 4938 0
-3831 4939 0
-3832 4940 0
-3833 4941 0
-3834 4942 0
-3827 -3835 4936 0
-3827 -3836 4937 0
-3827 -3837 4938 0
-3827 -3838 4939 0
-3827 -3839 4940 0
-3827 -3840 4941 0
-3827 -3841 4942 0
-3827 -3842 4943 0
-3828 -3835 4937 0
-3828 -3836 4938 0
-3828 -3837 4939 0
-3828 -3838 4940 0
-3828 -3839 4941 0
-3828 -3840 4942 0
-3828 -3841 4943 0
-3828 -3842 4944 0
-3829 -3835 4938 0
-3829 -3836 4939 0
-3829 -3837 4940 0
-3829 -3838 4941 0
-3829 -3839 4942 0
-3829 -3840 4943 0
-3829 -3841 4944 0
-3829 -3842 4945 0
-3830 -3835 4939 0
-3830 -3836 4940 0
-3830 -3837 4941 0
-3830 -3838 4942 0
-3830 -3839 4943 0
-3830 -3840 4944 0
-3830 -3841 4945 0
-3830 -3842 4946 0
-3831 -3835 4940 0
-3831 -3836 4941 0
-3831 -3837 4942 0
-3831 -3838 4943 0
-3831 -3839 4944 0
-3831 -3840 4945 0
-3831 -3841 4946 0
-3831 -3842 4947 0
-3832 -3835 4941 0
-3832 -3836 4942 0
-3832 -3837 4943 0
-3832 -3838 4944 0
-3832 -3839 4945 0
-3832 -3840 4946 0
-3832 -3841 4947 0
-3832 -3842 4948 0
-3833 -3835 4942 0
-3833 -3836 4943 0
-3833 -3837 4944 0
-3833 -3838 4945 0
-3833 -3839 4946 0
-3833 -3840 4947 0
-3833 -3841 4948 0
-3833 -3842 4949 0
-3834 -3835 4943 0
-3834 -3836 4944 0
-3834 -3837 4945 0
-3834 -3838 4946 0
-3834 -3839 4947 0
-3834 -3840 4948 0
-3834 -3841 4949 0
-3851 4950 0
-3852 4951 0
-3853 4952 0
-3854 4953 0
-3855 4954 0
-3856 4955 0
-3857 4956 0
-3858 4957 0
-3843 4950 0
-3844 4951 0
-3845 4952 0
-3846 4953 0
-3847 4954 0
-3848 4955 0
-3849 4956 0
-3850 4957 0
-3843 -3851 4951 0
-3843 -3852 4952 0
-3843 -3853 4953 0
-3843 -3854 4954 0
-3843 -3855 4955 0
-3843 -3856 4956 0
-3843 -3857 4957 0
-3843 -3858 4958 0
-3844 -3851 4952 0
-3844 -3852 4953 0
-3844 -3853 4954 0
-3844 -3854 4955 0
-3844 -3855 4956 0
-3844 -3856 4957 0
-3844 -3857 4958 0
-3844 -3858 4959 0
-3845 -3851 4953 0
-3845 -3852 4954 0
-3845 -3853 4955 0
-3845 -3854 4956 0
-3845 -3855 4957 0
-3845 -3856 4958 0
-3845 -3857 4959 0
-3845 -3858 4960 0
-3846 -3851 4954 0
-3846 -3852 4955 0
-3846 -3853 4956 0
-3846 -3854 4957 0
-3846 -3855 4958 0
-3846 -3856 4959 0
-3846 -3857 4960 0
-3846 -3858 4961 0
-3847 -3851 4955 0
-3847 -3852 4956 0
-3847 -3853 4957 0
-3847 -3854 4958 0
-3847 -3855 4959 0
-3847 -3856 4960 0
-3847 -3857 4961 0
-3847 -3858 4962 0
-3848 -3851 4956 0
-3848 -3852 4957 0
-3848 -3853 4958 0
-3848 -3854 4959 0
-3848 -3855 4960 0
-3848 -3856 4961 0
-3848 -3857 4962 0
-3848 -3858 4963 0
-3849 -3851 4957 0
-3849 -3852 4958 0
-3849 -3853 4959 0
-3849 -3854 4960 0
-3849 -3855 4961 0
-3849 -3856 4962 0
-3849 -3857 4963 0
-3849 -3858 4964 0
-3850 -3851 4958 0
-3850 -3852 4959 0
-3850 -3853 4960 0
-3850 -3854 4961 0
-3850 -3855 4962 0
-3850 -3856 4963 0
-3850 -3857 4964 0
-3867 4965 0
-3868 4966 0
-3869 4967 0
-3870 4968 0
-3871 4969 0
-3872 4970 0
-3873 4971 0
-3874 4972 0
-3859 4965 0
-3860 4966 0
-3861 4967 0
-3862 4968 0
-3863 4969 0
-3864 4970 0
-3865 4971 0
-3866 4972 0
-3859 -3867 4966 0
-3859 -3868 4967 0
-3859 -3869 4968 0
-3859 -3870 4969 0
-3859 -3871 4970 0
-3859 -3872 4971 0
-3859 -3873 4972 0
-3859 -3874 4973 0
-3860 -3867 4967 0
-3860 -3868 4968 0
-3860 -3869 4969 0
-3860 -3870 4970 0
-3860 -3871 4971 0
-3860 -3872 4972 0
-3860 -3873 4973 0
-3860 -3874 4974 0
-3861 -3867 4968 0
-3861 -3868 4969 0
-3861 -3869 4970 0
-3861 -3870 4971 0
-3861 -3871 4972 0
-3861 -3872 4973 0
-3861 -3873 4974 0
-3861 -3874 4975 0
-3862 -3867 4969 0
-3862 -3868 4970 0
-3862 -3869 4971 0
-3862 -3870 4972 0
-3862 -3871 4973 0
-3862 -3872 4974 0
-3862 -3873 4975 0
-3862 -3874 4976 0
-3863 -3867 4970 0
-3863 -3868 4971 0
-3863 -3869 4972 0
-3863 -3870 4973 0
-3863 -3871 4974 0
-3863 -3872 4975 0
-3863 -3873 4976 0
-3863 -3874 4977 0
-3864 -3867 4971 0
-3864 -3868 4972 0
-3864 -3869 4973 0
-3864 -3870 4974 0
-3864 -3871 4975 0
-3864 -3872 4976 0
-3864 -3873 4977 0
-3864 -3874 4978 0
-3865 -3867 4972 0
-3865 -3868 4973 0
-3865 -3869 4974 0
-3865 -3870 4975 0
-3865 -3871 4976 0
-3865 -3872 4977 0
-3865 -3873 4978 0
-3865 -3874 4979 0
-3866 -3867 4973 0
-3866 -3868 4974 0
-3866 -3869 4975 0
-3866 -3870 4976 0
-3866 -3871 4977 0
-3866 -3872 4978 0
-3866 -3873 4979 0
-3883 4980 0
-3884 4981 0
-3885 4982 0
-3886 4983 0
-3887 4984 0
-3888 4985 0
-3889 4986 0
-3890 4987 0
-3875 4980 0
-3876 4981 0
-3877 4982 0
-3878 4983 0
-3879 4984 0
-3880 4985 0
-3881 4986 0
-3882 4987 0
-3875 -3883 4981 0
-3875 -3884 4982 0
-3875 -3885 4983 0
-3875 -3886 4984 0
-3875 -3887 4985 0
-3875 -3888 4986 0
-3875 -3889 4987 0
-3875 -3890 4988 0
-3876 -3883 4982 0
-3876 -3884 4983 0
-3876 -3885 4984 0
-3876 -3886 4985 0
-3876 -3887 4986 0
-3876 -3888 4987 0
-3876 -3889 4988 0
-3876 -3890 4989 0
-3877 -3883 4983 0
-3877 -3884 4984 0
-3877 -3885 4985 0
-3877 -3886 4986 0
-3877 -3887 4987 0
-3877 -3888 4988 0
-3877 -3889 4989 0
-3877 -3890 4990 0
-3878 -3883 4984 0
-3878 -3884 4985 0
-3878 -3885 4986 0
-3878 -3886 4987 0
-3878 -3887 4988 0
-3878 -3888 4989 0
-3878 -3889 4990 0
-3878 -3890 4991 0
-3879 -3883 4985 0
-3879 -3884 4986 0
-3879 -3885 4987 0
-3879 -3886 4988 0
-3879 -3887 4989 0
-3879 -3888 4990 0
-3879 -3889 4991 0
-3879 -3890 4992 0
-3880 -3883 4986 0
-3880 -3884 4987 0
-3880 -3885 4988 0
-3880 -3886 4989 0
-3880 -3887 4990 0
-3880 -3888 4991 0
-3880 -3889 4992 0
-3880 -3890 4993 0
-3881 -3883 4987 0
-3881 -3884 4988 0
-3881 -3885 4989 0
-3881 -3886 4990 0
-3881 -3887 4991 0
-3881 -3888 4992 0
-3881 -3889 4993 0
-3881 -3890 4994 0
-3882 -3883 4988 0
-3882 -3884 4989 0
-3882 -3885 4990 0
-3882 -3886 4991 0
-3882 -3887 4992 0
-3882 -3888 4993 0
-3882 -3889 4994 0
-3899 4995 0
-3900 4996 0
-3901 4997 0
-3902 4998 0
-3903 4999 0
-3904 5000 0
-3905 5001 0
-3906 5002 0
-3891 4995 0
-3892 4996 0
-3893 4997 0
-3894 4998 0
-3895 4999 0
-3896 5000 0
-3897 5001 0
-3898 5002 0
-3891 -3899 4996 0
-3891 -3900 4997 0
-3891 -3901 4998 0
-3891 -3902 4999 0
-3891 -3903 5000 0
-3891 -3904 5001 0
-3891 -3905 5002 0
-3891 -3906 5003 0
-3892 -3899 4997 0
-3892 -3900 4998 0
-3892 -3901 4999 0
-3892 -3902 5000 0
-3892 -3903 5001 0
-3892 -3904 5002 0
-3892 -3905 5003 0
-3892 -3906 5004 0
-3893 -3899 4998 0
-3893 -3900 4999 0
-3893 -3901 5000 0
-3893 -3902 5001 0
-3893 -3903 5002 0
-3893 -3904 5003 0
-3893 -3905 5004 0
-3893 -3906 5005 0
-3894 -3899 4999 0
-3894 -3900 5000 0
-3894 -3901 5001 0
-3894 -3902 5002 0
-3894 -3903 5003 0
-3894 -3904 5004 0
-3894 -3905 5005 0
-3894 -3906 5006 0
-3895 -3899 5000 0
-3895 -3900 5001 0
-3895 -3901 5002 0
-3895 -3902 5003 0
-3895 -3903 5004 0
-3895 -3904 5005 0
-3895 -3905 5006 0
-3895 -3906 5007 0
-3896 -3899 5001 0
-3896 -3900 5002 0
-3896 -3901 5003 0
-3896 -3902 5004 0
-3896 -3903 5005 0
-3896 -3904 5006 0
-3896 -3905 5007 0
-3896 -3906 5008 0
-3897 -3899 5002 0
-3897 -3900 5003 0
-3897 -3901 5004 0
-3897 -3902 5005 0
-3897 -3903 5006 0
-3897 -3904 5007 0
-3897 -3905 5008 0
-3897 -3906 5009 0
-3898 -3899 5003 0
-3898 -3900 5004 0
-3898 -3901 5005 0
-3898 -3902 5006 0
-3898 -3903 5007 0
-3898 -3904 5008 0
-3898 -3905 5009 0
-3915 5010 0
-3916 5011 0
-3917 5012 0
-3918 5013 0
-3919 5014 0
-3920 5015 0
-3921 5016 0
-3922 5017 0
-3907 5010 0
-3908 5011 0
-3909 5012 0
-3910 5013 0
-3911 5014 0
-3912 5015 0
-3913 5016 0
-3914 5017 0
-3907 -3915 5011 0
-3907 -3916 5012 0
-3907 -3917 5013 0
-3907 -3918 5014 0
-3907 -3919 5015 0
-3907 -3920 5016 0
-3907 -3921 5017 0
-3907 -3922 5018 0
-3908 -3915 5012 0
-3908 -3916 5013 0
-3908 -3917 5014 0
-3908 -3918 5015 0
-3908 -3919 5016 0
-3908 -3920 5017 0
-3908 -3921 5018 0
-3908 -3922 5019 0
-3909 -3915 5013 0
-3909 -3916 5014 0
-3909 -3917 5015 0
-3909 -3918 5016 0
-3909 -3919 5017 0
-3909 -3920 5018 0
-3909 -3921 5019 0
-3909 -3922 5020 0
-3910 -3915 5014 0
-3910 -3916 5015 0
-3910 -3917 5016 0
-3910 -3918 5017 0
-3910 -3919 5018 0
-3910 -3920 5019 0
-3910 -3921 5020 0
-3910 -3922 5021 0
-3911 -3915 5015 0
-3911 -3916 5016 0
-3911 -3917 5017 0
-3911 -3918 5018 0
-3911 -3919 5019 0
-3911 -3920 5020 0
-3911 -3921 5021 0
-3911 -3922 5022 0
-3912 -3915 5016 0
-3912 -3916 5017 0
-3912 -3917 5018 0
-3912 -3918 5019 0
-3912 -3919 5020 0
-3912 -3920 5021 0
-3912 -3921 5022 0
-3912 -3922 5023 0
-3913 -3915 5017 0
-3913 -3916 5018 0
-3913 -3917 5019 0
-3913 -3918 5020 0
-3913 -3919 5021 0
-3913 -3920 5022 0
-3913 -3921 5023 0
-3913 -3922 5024 0
-3914 -3915 5018 0
-3914 -3916 5019 0
-3914 -3917 5020 0
-3914 -3918 5021 0
-3914 -3919 5022 0
-3914 -3920 5023 0
-3914 -3921 5024 0
-3931 5025 0
-3932 5026 0
-3933 5027 0
-3934 5028 0
-3935 5029 0
-3936 5030 0
-3937 5031 0
-3938 5032 0
-3923 5025 0
-3924 5026 0
-3925 5027 0
-3926 5028 0
-3927 5029 0
-3928 5030 0
-3929 5031 0
-3930 5032 0
-3923 -3931 5026 0
-3923 -3932 5027 0
-3923 -3933 5028 0
-3923 -3934 5029 0
-3923 -3935 5030 0
-3923 -3936 5031 0
-3923 -3937 5032 0
-3923 -3938 5033 0
-3924 -3931 5027 0
-3924 -3932 5028 0
-3924 -3933 5029 0
-3924 -3934 5030 0
-3924 -3935 5031 0
-3924 -3936 5032 0
-3924 -3937 5033 0
-3924 -3938 5034 0
-3925 -3931 5028 0
-3925 -3932 5029 0
-3925 -3933 5030 0
-3925 -3934 5031 0
-3925 -3935 5032 0
-3925 -3936 5033 0
-3925 -3937 5034 0
-3925 -3938 5035 0
-3926 -3931 5029 0
-3926 -3932 5030 0
-3926 -3933 5031 0
-3926 -3934 5032 0
-3926 -3935 5033 0
-3926 -3936 5034 0
-3926 -3937 5035 0
-3926 -3938 5036 0
-3927 -3931 5030 0
-3927 -3932 5031 0
-3927 -3933 5032 0
-3927 -3934 5033 0
-3927 -3935 5034 0
-3927 -3936 5035 0
-3927 -3937 5036 0
-3927 -3938 5037 0
-3928 -3931 5031 0
-3928 -3932 5032 0
-3928 -3933 5033 0
-3928 -3934 5034 0
-3928 -3935 5035 0
-3928 -3936 5036 0
-3928 -3937 5037 0
-3928 -3938 5038 0
-3929 -3931 5032 0
-3929 -3932 5033 0
-3929 -3933 5034 0
-3929 -3934 5035 0
-3929 -3935 5036 0
-3929 -3936 5037 0
-3929 -3937 5038 0
-3929 -3938 5039 0
-3930 -3931 5033 0
-3930 -3932 5034 0
-3930 -3933 5035 0
-3930 -3934 5036 0
-3930 -3935 5037 0
-3930 -3936 5038 0
-3930 -3937 5039 0
-3947 5040 0
-3948 5041 0
-3949 5042 0
-3950 5043 0
-3951 5044 0
-3952 5045 0
-3953 5046 0
-3954 5047 0
-3939 5040 0
-3940 5041 0
-3941 5042 0
-3942 5043 0
-3943 5044 0
-3944 5045 0
-3945 5046 0
-3946 5047 0
-3939 -3947 5041 0
-3939 -3948 5042 0
-3939 -3949 5043 0
-3939 -3950 5044 0
-3939 -3951 5045 0
-3939 -3952 5046 0
-3939 -3953 5047 0
-3939 -3954 5048 0
-3940 -3947 5042 0
-3940 -3948 5043 0
-3940 -3949 5044 0
-3940 -3950 5045 0
-3940 -3951 5046 0
-3940 -3952 5047 0
-3940 -3953 5048 0
-3940 -3954 5049 0
-3941 -3947 5043 0
-3941 -3948 5044 0
-3941 -3949 5045 0
-3941 -3950 5046 0
-3941 -3951 5047 0
-3941 -3952 5048 0
-3941 -3953 5049 0
-3941 -3954 5050 0
-3942 -3947 5044 0
-3942 -3948 5045 0
-3942 -3949 5046 0
-3942 -3950 5047 0
-3942 -3951 5048 0
-3942 -3952 5049 0
-3942 -3953 5050 0
-3942 -3954 5051 0
-3943 -3947 5045 0
-3943 -3948 5046 0
-3943 -3949 5047 0
-3943 -3950 5048 0
-3943 -3951 5049 0
-3943 -3952 5050 0
-3943 -3953 5051 0
-3943 -3954 5052 0
-3944 -3947 5046 0
-3944 -3948 5047 0
-3944 -3949 5048 0
-3944 -3950 5049 0
-3944 -3951 5050 0
-3944 -3952 5051 0
-3944 -3953 5052 0
-3944 -3954 5053 0
-3945 -3947 5047 0
-3945 -3948 5048 0
-3945 -3949 5049 0
-3945 -3950 5050 0
-3945 -3951 5051 0
-3945 -3952 5052 0
-3945 -3953 5053 0
-3945 -3954 5054 0
-3946 -3947 5048 0
-3946 -3948 5049 0
-3946 -3949 5050 0
-3946 -3950 5051 0
-3946 -3951 5052 0
-3946 -3952 5053 0
-3946 -3953 5054 0
-3963 5055 0
-3964 5056 0
-3965 5057 0
-3966 5058 0
-3967 5059 0
-3968 5060 0
-3969 5061 0
-3970 5062 0
-3955 5055 0
-3956 5056 0
-3957 5057 0
-3958 5058 0
-3959 5059 0
-3960 5060 0
-3961 5061 0
-3962 5062 0
-3955 -3963 5056 0
-3955 -3964 5057 0
-3955 -3965 5058 0
-3955 -3966 5059 0
-3955 -3967 5060 0
-3955 -3968 5061 0
-3955 -3969 5062 0
-3955 -3970 5063 0
-3956 -3963 5057 0
-3956 -3964 5058 0
-3956 -3965 5059 0
-3956 -3966 5060 0
-3956 -3967 5061 0
-3956 -3968 5062 0
-3956 -3969 5063 0
-3956 -3970 5064 0
-3957 -3963 5058 0
-3957 -3964 5059 0
-3957 -3965 5060 0
-3957 -3966 5061 0
-3957 -3967 5062 0
-3957 -3968 5063 0
-3957 -3969 5064 0
-3957 -3970 5065 0
-3958 -3963 5059 0
-3958 -3964 5060 0
-3958 -3965 5061 0
-3958 -3966 5062 0
-3958 -3967 5063 0
-3958 -3968 5064 0
-3958 -3969 5065 0
-3958 -3970 5066 0
-3959 -3963 5060 0
-3959 -3964 5061 0
-3959 -3965 5062 0
-3959 -3966 5063 0
-3959 -3967 5064 0
-3959 -3968 5065 0
-3959 -3969 5066 0
-3959 -3970 5067 0
-3960 -3963 5061 0
-3960 -3964 5062 0
-3960 -3965 5063 0
-3960 -3966 5064 0
-3960 -3967 5065 0
-3960 -3968 5066 0
-3960 -3969 5067 0
-3960 -3970 5068 0
-3961 -3963 5062 0
-3961 -3964 5063 0
-3961 -3965 5064 0
-3961 -3966 5065 0
-3961 -3967 5066 0
-3961 -3968 5067 0
-3961 -3969 5068 0
-3961 -3970 5069 0
-3962 -3963 5063 0
-3962 -3964 5064 0
-3962 -3965 5065 0
-3962 -3966 5066 0
-3962 -3967 5067 0
-3962 -3968 5068 0
-3962 -3969 5069 0
-3979 5070 0
-3980 5071 0
-3981 5072 0
-3982 5073 0
-3983 5074 0
-3984 5075 0
-3985 5076 0
-3986 5077 0
-3971 5070 0
-3972 5071 0
-3973 5072 0
-3974 5073 0
-3975 5074 0
-3976 5075 0
-3977 5076 0
-3978 5077 0
-3971 -3979 5071 0
-3971 -3980 5072 0
-3971 -3981 5073 0
-3971 -3982 5074 0
-3971 -3983 5075 0
-3971 -3984 5076 0
-3971 -3985 5077 0
-3971 -3986 5078 0
-3972 -3979 5072 0
-3972 -3980 5073 0
-3972 -3981 5074 0
-3972 -3982 5075 0
-3972 -3983 5076 0
-3972 -3984 5077 0
-3972 -3985 5078 0
-3972 -3986 5079 0
-3973 -3979 5073 0
-3973 -3980 5074 0
-3973 -3981 5075 0
-3973 -3982 5076 0
-3973 -3983 5077 0
-3973 -3984 5078 0
-3973 -3985 5079 0
-3973 -3986 5080 0
-3974 -3979 5074 0
-3974 -3980 5075 0
-3974 -3981 5076 0
-3974 -3982 5077 0
-3974 -3983 5078 0
-3974 -3984 5079 0
-3974 -3985 5080 0
-3974 -3986 5081 0
-3975 -3979 5075 0
-3975 -3980 5076 0
-3975 -3981 5077 0
-3975 -3982 5078 0
-3975 -3983 5079 0
-3975 -3984 5080 0
-3975 -3985 5081 0
-3975 -3986 5082 0
-3976 -3979 5076 0
-3976 -3980 5077 0
-3976 -3981 5078 0
-3976 -3982 5079 0
-3976 -3983 5080 0
-3976 -3984 5081 0
-3976 -3985 5082 0
-3976 -3986 5083 0
-3977 -3979 5077 0
-3977 -3980 5078 0
-3977 -3981 5079 0
-3977 -3982 5080 0
-3977 -3983 5081 0
-3977 -3984 5082 0
-3977 -3985 5083 0
-3977 -3986 5084 0
-3978 -3979 5078 0
-3978 -3980 5079 0
-3978 -3981 5080 0
-3978 -3982 5081 0
-3978 -3983 5082 0
-3978 -3984 5083 0
-3978 -3985 5084 0
-3995 5085 0
-3996 5086 0
-3997 5087 0
-3998 5088 0
-3999 5089 0
-4000 5090 0
-4001 5091 0
-4002 5092 0
-3987 5085 0
-3988 5086 0
-3989 5087 0
-3990 5088 0
-3991 5089 0
-3992 5090 0
-3993 5091 0
-3994 5092 0
-3987 -3995 5086 0
-3987 -3996 5087 0
-3987 -3997 5088 0
-3987 -3998 5089 0
-3987 -3999 5090 0
-3987 -4000 5091 0
-3987 -4001 5092 0
-3987 -4002 5093 0
-3988 -3995 5087 0
-3988 -3996 5088 0
-3988 -3997 5089 0
-3988 -3998 5090 0
-3988 -3999 5091 0
-3988 -4000 5092 0
-3988 -4001 5093 0
-3988 -4002 5094 0
-3989 -3995 5088 0
-3989 -3996 5089 0
-3989 -3997 5090 0
-3989 -3998 5091 0
-3989 -3999 5092 0
-3989 -4000 5093 0
-3989 -4001 5094 0
-3989 -4002 5095 0
-3990 -3995 5089 0
-3990 -3996 5090 0
-3990 -3997 5091 0
-3990 -3998 5092 0
-3990 -3999 5093 0
-3990 -4000 5094 0
-3990 -4001 5095 0
-3990 -4002 5096 0
-3991 -3995 5090 0
-3991 -3996 5091 0
-3991 -3997 5092 0
-3991 -3998 5093 0
-3991 -3999 5094 0
-3991 -4000 5095 0
-3991 -4001 5096 0
-3991 -4002 5097 0
-3992 -3995 5091 0
-3992 -3996 5092 0
-3992 -3997 5093 0
-3992 -3998 5094 0
-3992 -3999 5095 0
-3992 -4000 5096 0
-3992 -4001 5097 0
-3992 -4002 5098 0
-3993 -3995 5092 0
-3993 -3996 5093 0
-3993 -3997 5094 0
-3993 -3998 5095 0
-3993 -3999 5096 0
-3993 -4000 5097 0
-3993 -4001 5098 0
-3993 -4002 5099 0
-3994 -3995 5093 0
-3994 -3996 5094 0
-3994 -3997 5095 0
-3994 -3998 5096 0
-3994 -3999 5097 0
-3994 -4000 5098 0
-3994 -4001 5099 0
-4011 5100 0
-4012 5101 0
-4013 5102 0
-4014 5103 0
-4015 5104 0
-4016 5105 0
-4017 5106 0
-4018 5107 0
-4003 5100 0
-4004 5101 0
-4005 5102 0
-4006 5103 0
-4007 5104 0
-4008 5105 0
-4009 5106 0
-4010 5107 0
-4003 -4011 5101 0
-4003 -4012 5102 0
-4003 -4013 5103 0
-4003 -4014 5104 0
-4003 -4015 5105 0
-4003 -4016 5106 0
-4003 -4017 5107 0
-4003 -4018 5108 0
-4004 -4011 5102 0
-4004 -4012 5103 0
-4004 -4013 5104 0
-4004 -4014 5105 0
-4004 -4015 5106 0
-4004 -4016 5107 0
-4004 -4017 5108 0
-4004 -4018 5109 0
-4005 -4011 5103 0
-4005 -4012 5104 0
-4005 -4013 5105 0
-4005 -4014 5106 0
-4005 -4015 5107 0
-4005 -4016 5108 0
-4005 -4017 5109 0
-4005 -4018 5110 0
-4006 -4011 5104 0
-4006 -4012 5105 0
-4006 -4013 5106 0
-4006 -4014 5107 0
-4006 -4015 5108 0
-4006 -4016 5109 0
-4006 -4017 5110 0
-4006 -4018 5111 0
-4007 -4011 5105 0
-4007 -4012 5106 0
-4007 -4013 5107 0
-4007 -4014 5108 0
-4007 -4015 5109 0
-4007 -4016 5110 0
-4007 -4017 5111 0
-4007 -4018 5112 0
-4008 -4011 5106 0
-4008 -4012 5107 0
-4008 -4013 5108 0
-4008 -4014 5109 0
-4008 -4015 5110 0
-4008 -4016 5111 0
-4008 -4017 5112 0
-4008 -4018 5113 0
-4009 -4011 5107 0
-4009 -4012 5108 0
-4009 -4013 5109 0
-4009 -4014 5110 0
-4009 -4015 5111 0
-4009 -4016 5112 0
-4009 -4017 5113 0
-4009 -4018 5114 0
-4010 -4011 5108 0
-4010 -4012 5109 0
-4010 -4013 5110 0
-4010 -4014 5111 0
-4010 -4015 5112 0
-4010 -4016 5113 0
-4010 -4017 5114 0
-4027 5115 0
-4028 5116 0
-4029 5117 0
-4030 5118 0
-4031 5119 0
-4032 5120 0
-4033 5121 0
-4034 5122 0
-4019 5115 0
-4020 5116 0
-4021 5117 0
-4022 5118 0
-4023 5119 0
-4024 5120 0
-4025 5121 0
-4026 5122 0
-4019 -4027 5116 0
-4019 -4028 5117 0
-4019 -4029 5118 0
-4019 -4030 5119 0
-4019 -4031 5120 0
-4019 -4032 5121 0
-4019 -4033 5122 0
-4019 -4034 5123 0
-4020 -4027 5117 0
-4020 -4028 5118 0
-4020 -4029 5119 0
-4020 -4030 5120 0
-4020 -4031 5121 0
-4020 -4032 5122 0
-4020 -4033 5123 0
-4020 -4034 5124 0
-4021 -4027 5118 0
-4021 -4028 5119 0
-4021 -4029 5120 0
-4021 -4030 5121 0
-4021 -4031 5122 0
-4021 -4032 5123 0
-4021 -4033 5124 0
-4021 -4034 5125 0
-4022 -4027 5119 0
-4022 -4028 5120 0
-4022 -4029 5121 0
-4022 -4030 5122 0
-4022 -4031 5123 0
-4022 -4032 5124 0
-4022 -4033 5125 0
-4022 -4034 5126 0
-4023 -4027 5120 0
-4023 -4028 5121 0
-4023 -4029 5122 0
-4023 -4030 5123 0
-4023 -4031 5124 0
-4023 -4032 5125 0
-4023 -4033 5126 0
-4023 -4034 5127 0
-4024 -4027 5121 0
-4024 -4028 5122 0
-4024 -4029 5123 0
-4024 -4030 5124 0
-4024 -4031 5125 0
-4024 -4032 5126 0
-4024 -4033 5127 0
-4024 -4034 5128 0
-4025 -4027 5122 0
-4025 -4028 5123 0
-4025 -4029 5124 0
-4025 -4030 5125 0
-4025 -4031 5126 0
-4025 -4032 5127 0
-4025 -4033 5128 0
-4025 -4034 5129 0
-4026 -4027 5123 0
-4026 -4028 5124 0
-4026 -4029 5125 0
-4026 -4030 5126 0
-4026 -4031 5127 0
-4026 -4032 5128 0
-4026 -4033 5129 0
-4043 5130 0
-4044 5131 0
-4045 5132 0
-4046 5133 0
-4047 5134 0
-4048 5135 0
-4049 5136 0
-4050 5137 0
-4035 5130 0
-4036 5131 0
-4037 5132 0
-4038 5133 0
-4039 5134 0
-4040 5135 0
-4041 5136 0
-4042 5137 0
-4035 -4043 5131 0
-4035 -4044 5132 0
-4035 -4045 5133 0
-4035 -4046 5134 0
-4035 -4047 5135 0
-4035 -4048 5136 0
-4035 -4049 5137 0
-4035 -4050 5138 0
-4036 -4043 5132 0
-4036 -4044 5133 0
-4036 -4045 5134 0
-4036 -4046 5135 0
-4036 -4047 5136 0
-4036 -4048 5137 0
-4036 -4049 5138 0
-4036 -4050 5139 0
-4037 -4043 5133 0
-4037 -4044 5134 0
-4037 -4045 5135 0
-4037 -4046 5136 0
-4037 -4047 5137 0
-4037 -4048 5138 0
-4037 -4049 5139 0
-4037 -4050 5140 0
-4038 -4043 5134 0
-4038 -4044 5135 0
-4038 -4045 5136 0
-4038 -4046 5137 0
-4038 -4047 5138 0
-4038 -4048 5139 0
-4038 -4049 5140 0
-4038 -4050 5141 0
-4039 -4043 5135 0
-4039 -4044 5136 0
-4039 -4045 5137 0
-4039 -4046 5138 0
-4039 -4047 5139 0
-4039 -4048 5140 0
-4039 -4049 5141 0
-4039 -4050 5142 0
-4040 -4043 5136 0
-4040 -4044 5137 0
-4040 -4045 5138 0
-4040 -4046 5139 0
-4040 -4047 5140 0
-4040 -4048 5141 0
-4040 -4049 5142 0
-4040 -4050 5143 0
-4041 -4043 5137 0
-4041 -4044 5138 0
-4041 -4045 5139 0
-4041 -4046 5140 0
-4041 -4047 5141 0
-4041 -4048 5142 0
-4041 -4049 5143 0
-4041 -4050 5144 0
-4042 -4043 5138 0
-4042 -4044 5139 0
-4042 -4045 5140 0
-4042 -4046 5141 0
-4042 -4047 5142 0
-4042 -4048 5143 0
-4042 -4049 5144 0
-4059 5145 0
-4060 5146 0
-4061 5147 0
-4062 5148 0
-4063 5149 0
-4064 5150 0
-4065 5151 0
-4066 5152 0
-4051 5145 0
-4052 5146 0
-4053 5147 0
-4054 5148 0
-4055 5149 0
-4056 5150 0
-4057 5151 0
-4058 5152 0
-4051 -4059 5146 0
-4051 -4060 5147 0
-4051 -4061 5148 0
-4051 -4062 5149 0
-4051 -4063 5150 0
-4051 -4064 5151 0
-4051 -4065 5152 0
-4051 -4066 5153 0
-4052 -4059 5147 0
-4052 -4060 5148 0
-4052 -4061 5149 0
-4052 -4062 5150 0
-4052 -4063 5151 0
-4052 -4064 5152 0
-4052 -4065 5153 0
-4052 -4066 5154 0
-4053 -4059 5148 0
-4053 -4060 5149 0
-4053 -4061 5150 0
-4053 -4062 5151 0
-4053 -4063 5152 0
-4053 -4064 5153 0
-4053 -4065 5154 0
-4053 -4066 5155 0
-4054 -4059 5149 0
-4054 -4060 5150 0
-4054 -4061 5151 0
-4054 -4062 5152 0
-4054 -4063 5153 0
-4054 -4064 5154 0
-4054 -4065 5155 0
-4054 -4066 5156 0
-4055 -4059 5150 0
-4055 -4060 5151 0
-4055 -4061 5152 0
-4055 -4062 5153 0
-4055 -4063 5154 0
-4055 -4064 5155 0
-4055 -4065 5156 0
-4055 -4066 5157 0
-4056 -4059 5151 0
-4056 -4060 5152 0
-4056 -4061 5153 0
-4056 -4062 5154 0
-4056 -4063 5155 0
-4056 -4064 5156 0
-4056 -4065 5157 0
-4056 -4066 5158 0
-4057 -4059 5152 0
-4057 -4060 5153 0
-4057 -4061 5154 0
-4057 -4062 5155 0
-4057 -4063 5156 0
-4057 -4064 5157 0
-4057 -4065 5158 0
-4057 -4066 5159 0
-4058 -4059 5153 0
-4058 -4060 5154 0
-4058 -4061 5155 0
-4058 -4062 5156 0
-4058 -4063 5157 0
-4058 -4064 5158 0
-4058 -4065 5159 0
-4075 5160 0
-4076 5161 0
-4077 5162 0
-4078 5163 0
-4079 5164 0
-4080 5165 0
-4081 5166 0
-4082 5167 0
-4067 5160 0
-4068 5161 0
-4069 5162 0
-4070 5163 0
-4071 5164 0
-4072 5165 0
-4073 5166 0
-4074 5167 0
-4067 -4075 5161 0
-4067 -4076 5162 0
-4067 -4077 5163 0
-4067 -4078 5164 0
-4067 -4079 5165 0
-4067 -4080 5166 0
-4067 -4081 5167 0
-4067 -4082 5168 0
-4068 -4075 5162 0
-4068 -4076 5163 0
-4068 -4077 5164 0
-4068 -4078 5165 0
-4068 -4079 5166 0
-4068 -4080 5167 0
-4068 -4081 5168 0
-4068 -4082 5169 0
-4069 -4075 5163 0
-4069 -4076 5164 0
-4069 -4077 5165 0
-4069 -4078 5166 0
-4069 -4079 5167 0
-4069 -4080 5168 0
-4069 -4081 5169 0
-4069 -4082 5170 0
-4070 -4075 5164 0
-4070 -4076 5165 0
-4070 -4077 5166 0
-4070 -4078 5167 0
-4070 -4079 5168 0
-4070 -4080 5169 0
-4070 -4081 5170 0
-4070 -4082 5171 0
-4071 -4075 5165 0
-4071 -4076 5166 0
-4071 -4077 5167 0
-4071 -4078 5168 0
-4071 -4079 5169 0
-4071 -4080 5170 0
-4071 -4081 5171 0
-4071 -4082 5172 0
-4072 -4075 5166 0
-4072 -4076 5167 0
-4072 -4077 5168 0
-4072 -4078 5169 0
-4072 -4079 5170 0
-4072 -4080 5171 0
-4072 -4081 5172 0
-4072 -4082 5173 0
-4073 -4075 5167 0
-4073 -4076 5168 0
-4073 -4077 5169 0
-4073 -4078 5170 0
-4073 -4079 5171 0
-4073 -4080 5172 0
-4073 -4081 5173 0
-4073 -4082 5174 0
-4074 -4075 5168 0
-4074 -4076 5169 0
-4074 -4077 5170 0
-4074 -4078 5171 0
-4074 -4079 5172 0
-4074 -4080 5173 0
-4074 -4081 5174 0
-4091 5175 0
-4092 5176 0
-4093 5177 0
-4094 5178 0
-4095 5179 0
-4096 5180 0
-4097 5181 0
-4098 5182 0
-4083 5175 0
-4084 5176 0
-4085 5177 0
-4086 5178 0
-4087 5179 0
-4088 5180 0
-4089 5181 0
-4090 5182 0
-4083 -4091 5176 0
-4083 -4092 5177 0
-4083 -4093 5178 0
-4083 -4094 5179 0
-4083 -4095 5180 0
-4083 -4096 5181 0
-4083 -4097 5182 0
-4083 -4098 5183 0
-4084 -4091 5177 0
-4084 -4092 5178 0
-4084 -4093 5179 0
-4084 -4094 5180 0
-4084 -4095 5181 0
-4084 -4096 5182 0
-4084 -4097 5183 0
-4084 -4098 5184 0
-4085 -4091 5178 0
-4085 -4092 5179 0
-4085 -4093 5180 0
-4085 -4094 5181 0
-4085 -4095 5182 0
-4085 -4096 5183 0
-4085 -4097 5184 0
-4085 -4098 5185 0
-4086 -4091 5179 0
-4086 -4092 5180 0
-4086 -4093 5181 0
-4086 -4094 5182 0
-4086 -4095 5183 0
-4086 -4096 5184 0
-4086 -4097 5185 0
-4086 -4098 5186 0
-4087 -4091 5180 0
-4087 -4092 5181 0
-4087 -4093 5182 0
-4087 -4094 5183 0
-4087 -4095 5184 0
-4087 -4096 5185 0
-4087 -4097 5186 0
-4087 -4098 5187 0
-4088 -4091 5181 0
-4088 -4092 5182 0
-4088 -4093 5183 0
-4088 -4094 5184 0
-4088 -4095 5185 0
-4088 -4096 5186 0
-4088 -4097 5187 0
-4088 -4098 5188 0
-4089 -4091 5182 0
-4089 -4092 5183 0
-4089 -4093 5184 0
-4089 -4094 5185 0
-4089 -4095 5186 0
-4089 -4096 5187 0
-4089 -4097 5188 0
-4089 -4098 5189 0
-4090 -4091 5183 0
-4090 -4092 5184 0
-4090 -4093 5185 0
-4090 -4094 5186 0
-4090 -4095 5187 0
-4090 -4096 5188 0
-4090 -4097 5189 0
-4107 5190 0
-4108 5191 0
-4109 5192 0
-4110 5193 0
-4111 5194 0
-4112 5195 0
-4113 5196 0
-4114 5197 0
-4099 5190 0
-4100 5191 0
-4101 5192 0
-4102 5193 0
-4103 5194 0
-4104 5195 0
-4105 5196 0
-4106 5197 0
-4099 -4107 5191 0
-4099 -4108 5192 0
-4099 -4109 5193 0
-4099 -4110 5194 0
-4099 -4111 5195 0
-4099 -4112 5196 0
-4099 -4113 5197 0
-4099 -4114 5198 0
-4100 -4107 5192 0
-4100 -4108 5193 0
-4100 -4109 5194 0
-4100 -4110 5195 0
-4100 -4111 5196 0
-4100 -4112 5197 0
-4100 -4113 5198 0
-4100 -4114 5199 0
-4101 -4107 5193 0
-4101 -4108 5194 0
-4101 -4109 5195 0
-4101 -4110 5196 0
-4101 -4111 5197 0
-4101 -4112 5198 0
-4101 -4113 5199 0
-4101 -4114 5200 0
-4102 -4107 5194 0
-4102 -4108 5195 0
-4102 -4109 5196 0
-4102 -4110 5197 0
-4102 -4111 5198 0
-4102 -4112 5199 0
-4102 -4113 5200 0
-4102 -4114 5201 0
-4103 -4107 5195 0
-4103 -4108 5196 0
-4103 -4109 5197 0
-4103 -4110 5198 0
-4103 -4111 5199 0
-4103 -4112 5200 0
-4103 -4113 5201 0
-4103 -4114 5202 0
-4104 -4107 5196 0
-4104 -4108 5197 0
-4104 -4109 5198 0
-4104 -4110 5199 0
-4104 -4111 5200 0
-4104 -4112 5201 0
-4104 -4113 5202 0
-4104 -4114 5203 0
-4105 -4107 5197 0
-4105 -4108 5198 0
-4105 -4109 5199 0
-4105 -4110 5200 0
-4105 -4111 5201 0
-4105 -4112 5202 0
-4105 -4113 5203 0
-4105 -4114 5204 0
-4106 -4107 5198 0
-4106 -4108 5199 0
-4106 -4109 5200 0
-4106 -4110 5201 0
-4106 -4111 5202 0
-4106 -4112 5203 0
-4106 -4113 5204 0
-4123 5205 0
-4124 5206 0
-4125 5207 0
-4126 5208 0
-4127 5209 0
-4128 5210 0
-4129 5211 0
-4130 5212 0
-4115 5205 0
-4116 5206 0
-4117 5207 0
-4118 5208 0
-4119 5209 0
-4120 5210 0
-4121 5211 0
-4122 5212 0
-4115 -4123 5206 0
-4115 -4124 5207 0
-4115 -4125 5208 0
-4115 -4126 5209 0
-4115 -4127 5210 0
-4115 -4128 5211 0
-4115 -4129 5212 0
-4115 -4130 5213 0
-4116 -4123 5207 0
-4116 -4124 5208 0
-4116 -4125 5209 0
-4116 -4126 5210 0
-4116 -4127 5211 0
-4116 -4128 5212 0
-4116 -4129 5213 0
-4116 -4130 5214 0
-4117 -4123 5208 0
-4117 -4124 5209 0
-4117 -4125 5210 0
-4117 -4126 5211 0
-4117 -4127 5212 0
-4117 -4128 5213 0
-4117 -4129 5214 0
-4117 -4130 5215 0
-4118 -4123 5209 0
-4118 -4124 5210 0
-4118 -4125 5211 0
-4118 -4126 5212 0
-4118 -4127 5213 0
-4118 -4128 5214 0
-4118 -4129 5215 0
-4118 -4130 5216 0
-4119 -4123 5210 0
-4119 -4124 5211 0
-4119 -4125 5212 0
-4119 -4126 5213 0
-4119 -4127 5214 0
-4119 -4128 5215 0
-4119 -4129 5216 0
-4119 -4130 5217 0
-4120 -4123 5211 0
-4120 -4124 5212 0
-4120 -4125 5213 0
-4120 -4126 5214 0
-4120 -4127 5215 0
-4120 -4128 5216 0
-4120 -4129 5217 0
-4120 -4130 5218 0
-4121 -4123 5212 0
-4121 -4124 5213 0
-4121 -4125 5214 0
-4121 -4126 5215 0
-4121 -4127 5216 0
-4121 -4128 5217 0
-4121 -4129 5218 0
-4121 -4130 5219 0
-4122 -4123 5213 0
-4122 -4124 5214 0
-4122 -4125 5215 0
-4122 -4126 5216 0
-4122 -4127 5217 0
-4122 -4128 5218 0
-4122 -4129 5219 0
-4139 5220 0
-4140 5221 0
-4141 5222 0
-4142 5223 0
-4143 5224 0
-4144 5225 0
-4145 5226 0
-4146 5227 0
-4131 5220 0
-4132 5221 0
-4133 5222 0
-4134 5223 0
-4135 5224 0
-4136 5225 0
-4137 5226 0
-4138 5227 0
-4131 -4139 5221 0
-4131 -4140 5222 0
-4131 -4141 5223 0
-4131 -4142 5224 0
-4131 -4143 5225 0
-4131 -4144 5226 0
-4131 -4145 5227 0
-4131 -4146 5228 0
-4132 -4139 5222 0
-4132 -4140 5223 0
-4132 -4141 5224 0
-4132 -4142 5225 0
-4132 -4143 5226 0
-4132 -4144 5227 0
-4132 -4145 5228 0
-4132 -4146 5229 0
-4133 -4139 5223 0
-4133 -4140 5224 0
-4133 -4141 5225 0
-4133 -4142 5226 0
-4133 -4143 5227 0
-4133 -4144 5228 0
-4133 -4145 5229 0
-4133 -4146 5230 0
-4134 -4139 5224 0
-4134 -4140 5225 0
-4134 -4141 5226 0
-4134 -4142 5227 0
-4134 -4143 5228 0
-4134 -4144 5229 0
-4134 -4145 5230 0
-4134 -4146 5231 0
-4135 -4139 5225 0
-4135 -4140 5226 0
-4135 -4141 5227 0
-4135 -4142 5228 0
-4135 -4143 5229 0
-4135 -4144 5230 0
-4135 -4145 5231 0
-4135 -4146 5232 0
-4136 -4139 5226 0
-4136 -4140 5227 0
-4136 -4141 5228 0
-4136 -4142 5229 0
-4136 -4143 5230 0
-4136 -4144 5231 0
-4136 -4145 5232 0
-4136 -4146 5233 0
-4137 -4139 5227 0
-4137 -4140 5228 0
-4137 -4141 5229 0
-4137 -4142 5230 0
-4137 -4143 5231 0
-4137 -4144 5232 0
-4137 -4145 5233 0
-4137 -4146 5234 0
-4138 -4139 5228 0
-4138 -4140 5229 0
-4138 -4141 5230 0
-4138 -4142 5231 0
-4138 -4143 5232 0
-4138 -4144 5233 0
-4138 -4145 5234 0
-4155 5235 0
-4156 5236 0
-4157 5237 0
-4158 5238 0
-4159 5239 0
-4160 5240 0
-4161 5241 0
-4162 5242 0
-4147 5235 0
-4148 5236 0
-4149 5237 0
-4150 5238 0
-4151 5239 0
-4152 5240 0
-4153 5241 0
-4154 5242 0
-4147 -4155 5236 0
-4147 -4156 5237 0
-4147 -4157 5238 0
-4147 -4158 5239 0
-4147 -4159 5240 0
-4147 -4160 5241 0
-4147 -4161 5242 0
-4147 -4162 5243 0
-4148 -4155 5237 0
-4148 -4156 5238 0
-4148 -4157 5239 0
-4148 -4158 5240 0
-4148 -4159 5241 0
-4148 -4160 5242 0
-4148 -4161 5243 0
-4148 -4162 5244 0
-4149 -4155 5238 0
-4149 -4156 5239 0
-4149 -4157 5240 0
-4149 -4158 5241 0
-4149 -4159 5242 0
-4149 -4160 5243 0
-4149 -4161 5244 0
-4149 -4162 5245 0
-4150 -4155 5239 0
-4150 -4156 5240 0
-4150 -4157 5241 0
-4150 -4158 5242 0
-4150 -4159 5243 0
-4150 -4160 5244 0
-4150 -4161 5245 0
-4150 -4162 5246 0
-4151 -4155 5240 0
-4151 -4156 5241 0
-4151 -4157 5242 0
-4151 -4158 5243 0
-4151 -4159 5244 0
-4151 -4160 5245 0
-4151 -4161 5246 0
-4151 -4162 5247 0
-4152 -4155 5241 0
-4152 -4156 5242 0
-4152 -4157 5243 0
-4152 -4158 5244 0
-4152 -4159 5245 0
-4152 -4160 5246 0
-4152 -4161 5247 0
-4152 -4162 5248 0
-4153 -4155 5242 0
-4153 -4156 5243 0
-4153 -4157 5244 0
-4153 -4158 5245 0
-4153 -4159 5246 0
-4153 -4160 5247 0
-4153 -4161 5248 0
-4153 -4162 5249 0
-4154 -4155 5243 0
-4154 -4156 5244 0
-4154 -4157 5245 0
-4154 -4158 5246 0
-4154 -4159 5247 0
-4154 -4160 5248 0
-4154 -4161 5249 0
-4171 5250 0
-4172 5251 0
-4173 5252 0
-4174 5253 0
-4175 5254 0
-4176 5255 0
-4177 5256 0
-4178 5257 0
-4163 5250 0
-4164 5251 0
-4165 5252 0
-4166 5253 0
-4167 5254 0
-4168 5255 0
-4169 5256 0
-4170 5257 0
-4163 -4171 5251 0
-4163 -4172 5252 0
-4163 -4173 5253 0
-4163 -4174 5254 0
-4163 -4175 5255 0
-4163 -4176 5256 0
-4163 -4177 5257 0
-4163 -4178 5258 0
-4164 -4171 5252 0
-4164 -4172 5253 0
-4164 -4173 5254 0
-4164 -4174 5255 0
-4164 -4175 5256 0
-4164 -4176 5257 0
-4164 -4177 5258 0
-4164 -4178 5259 0
-4165 -4171 5253 0
-4165 -4172 5254 0
-4165 -4173 5255 0
-4165 -4174 5256 0
-4165 -4175 5257 0
-4165 -4176 5258 0
-4165 -4177 5259 0
-4165 -4178 5260 0
-4166 -4171 5254 0
-4166 -4172 5255 0
-4166 -4173 5256 0
-4166 -4174 5257 0
-4166 -4175 5258 0
-4166 -4176 5259 0
-4166 -4177 5260 0
-4166 -4178 5261 0
-4167 -4171 5255 0
-4167 -4172 5256 0
-4167 -4173 5257 0
-4167 -4174 5258 0
-4167 -4175 5259 0
-4167 -4176 5260 0
-4167 -4177 5261 0
-4167 -4178 5262 0
-4168 -4171 5256 0
-4168 -4172 5257 0
-4168 -4173 5258 0
-4168 -4174 5259 0
-4168 -4175 5260 0
-4168 -4176 5261 0
-4168 -4177 5262 0
-4168 -4178 5263 0
-4169 -4171 5257 0
-4169 -4172 5258 0
-4169 -4173 5259 0
-4169 -4174 5260 0
-4169 -4175 5261 0
-4169 -4176 5262 0
-4169 -4177 5263 0
-4169 -4178 5264 0
-4170 -4171 5258 0
-4170 -4172 5259 0
-4170 -4173 5260 0
-4170 -4174 5261 0
-4170 -4175 5262 0
-4170 -4176 5263 0
-4170 -4177 5264 0
-4187 5265 0
-4188 5266 0
-4189 5267 0
-4190 5268 0
-4191 5269 0
-4192 5270 0
-4193 5271 0
-4194 5272 0
-4179 5265 0
-4180 5266 0
-4181 5267 0
-4182 5268 0
-4183 5269 0
-4184 5270 0
-4185 5271 0
-4186 5272 0
-4179 -4187 5266 0
-4179 -4188 5267 0
-4179 -4189 5268 0
-4179 -4190 5269 0
-4179 -4191 5270 0
-4179 -4192 5271 0
-4179 -4193 5272 0
-4179 -4194 5273 0
-4180 -4187 5267 0
-4180 -4188 5268 0
-4180 -4189 5269 0
-4180 -4190 5270 0
-4180 -4191 5271 0
-4180 -4192 5272 0
-4180 -4193 5273 0
-4180 -4194 5274 0
-4181 -4187 5268 0
-4181 -4188 5269 0
-4181 -4189 5270 0
-4181 -4190 5271 0
-4181 -4191 5272 0
-4181 -4192 5273 0
-4181 -4193 5274 0
-4181 -4194 5275 0
-4182 -4187 5269 0
-4182 -4188 5270 0
-4182 -4189 5271 0
-4182 -4190 5272 0
-4182 -4191 5273 0
-4182 -4192 5274 0
-4182 -4193 5275 0
-4182 -4194 5276 0
-4183 -4187 5270 0
-4183 -4188 5271 0
-4183 -4189 5272 0
-4183 -4190 5273 0
-4183 -4191 5274 0
-4183 -4192 5275 0
-4183 -4193 5276 0
-4183 -4194 5277 0
-4184 -4187 5271 0
-4184 -4188 5272 0
-4184 -4189 5273 0
-4184 -4190 5274 0
-4184 -4191 5275 0
-4184 -4192 5276 0
-4184 -4193 5277 0
-4184 -4194 5278 0
-4185 -4187 5272 0
-4185 -4188 5273 0
-4185 -4189 5274 0
-4185 -4190 5275 0
-4185 -4191 5276 0
-4185 -4192 5277 0
-4185 -4193 5278 0
-4185 -4194 5279 0
-4186 -4187 5273 0
-4186 -4188 5274 0
-4186 -4189 5275 0
-4186 -4190 5276 0
-4186 -4191 5277 0
-4186 -4192 5278 0
-4186 -4193 5279 0
-4203 5280 0
-4204 5281 0
-4205 5282 0
-4206 5283 0
-4207 5284 0
-4208 5285 0
-4209 5286 0
-4210 5287 0
-4195 5280 0
-4196 5281 0
-4197 5282 0
-4198 5283 0
-4199 5284 0
-4200 5285 0
-4201 5286 0
-4202 5287 0
-4195 -4203 5281 0
-4195 -4204 5282 0
-4195 -4205 5283 0
-4195 -4206 5284 0
-4195 -4207 5285 0
-4195 -4208 5286 0
-4195 -4209 5287 0
-4195 -4210 5288 0
-4196 -4203 5282 0
-4196 -4204 5283 0
-4196 -4205 5284 0
-4196 -4206 5285 0
-4196 -4207 5286 0
-4196 -4208 5287 0
-4196 -4209 5288 0
-4196 -4210 5289 0
-4197 -4203 5283 0
-4197 -4204 5284 0
-4197 -4205 5285 0
-4197 -4206 5286 0
-4197 -4207 5287 0
-4197 -4208 5288 0
-4197 -4209 5289 0
-4197 -4210 5290 0
-4198 -4203 5284 0
-4198 -4204 5285 0
-4198 -4205 5286 0
-4198 -4206 5287 0
-4198 -4207 5288 0
-4198 -4208 5289 0
-4198 -4209 5290 0
-4198 -4210 5291 0
-4199 -4203 5285 0
-4199 -4204 5286 0
-4199 -4205 5287 0
-4199 -4206 5288 0
-4199 -4207 5289 0
-4199 -4208 5290 0
-4199 -4209 5291 0
-4199 -4210 5292 0
-4200 -4203 5286 0
-4200 -4204 5287 0
-4200 -4205 5288 0
-4200 -4206 5289 0
-4200 -4207 5290 0
-4200 -4208 5291 0
-4200 -4209 5292 0
-4200 -4210 5293 0
-4201 -4203 5287 0
-4201 -4204 5288 0
-4201 -4205 5289 0
-4201 -4206 5290 0
-4201 -4207 5291 0
-4201 -4208 5292 0
-4201 -4209 5293 0
-4201 -4210 5294 0
-4202 -4203 5288 0
-4202 -4204 5289 0
-4202 -4205 5290 0
-4202 -4206 5291 0
-4202 -4207 5292 0
-4202 -4208 5293 0
-4202 -4209 5294 0
-4219 5295 0
-4220 5296 0
-4221 5297 0
-4222 5298 0
-4223 5299 0
-4224 5300 0
-4225 5301 0
-4226 5302 0
-4211 5295 0
-4212 5296 0
-4213 5297 0
-4214 5298 0
-4215 5299 0
-4216 5300 0
-4217 5301 0
-4218 5302 0
-4211 -4219 5296 0
-4211 -4220 5297 0
-4211 -4221 5298 0
-4211 -4222 5299 0
-4211 -4223 5300 0
-4211 -4224 5301 0
-4211 -4225 5302 0
-4211 -4226 5303 0
-4212 -4219 5297 0
-4212 -4220 5298 0
-4212 -4221 5299 0
-4212 -4222 5300 0
-4212 -4223 5301 0
-4212 -4224 5302 0
-4212 -4225 5303 0
-4212 -4226 5304 0
-4213 -4219 5298 0
-4213 -4220 5299 0
-4213 -4221 5300 0
-4213 -4222 5301 0
-4213 -4223 5302 0
-4213 -4224 5303 0
-4213 -4225 5304 0
-4213 -4226 5305 0
-4214 -4219 5299 0
-4214 -4220 5300 0
-4214 -4221 5301 0
-4214 -4222 5302 0
-4214 -4223 5303 0
-4214 -4224 5304 0
-4214 -4225 5305 0
-4214 -4226 5306 0
-4215 -4219 5300 0
-4215 -4220 5301 0
-4215 -4221 5302 0
-4215 -4222 5303 0
-4215 -4223 5304 0
-4215 -4224 5305 0
-4215 -4225 5306 0
-4215 -4226 5307 0
-4216 -4219 5301 0
-4216 -4220 5302 0
-4216 -4221 5303 0
-4216 -4222 5304 0
-4216 -4223 5305 0
-4216 -4224 5306 0
-4216 -4225 5307 0
-4216 -4226 5308 0
-4217 -4219 5302 0
-4217 -4220 5303 0
-4217 -4221 5304 0
-4217 -4222 5305 0
-4217 -4223 5306 0
-4217 -4224 5307 0
-4217 -4225 5308 0
-4217 -4226 5309 0
-4218 -4219 5303 0
-4218 -4220 5304 0
-4218 -4221 5305 0
-4218 -4222 5306 0
-4218 -4223 5307 0
-4218 -4224 5308 0
-4218 -4225 5309 0
-4235 5310 0
-4236 5311 0
-4237 5312 0
-4238 5313 0
-4239 5314 0
-4240 5315 0
-4241 5316 0
-4242 5317 0
-4227 5310 0
-4228 5311 0
-4229 5312 0
-4230 5313 0
-4231 5314 0
-4232 5315 0
-4233 5316 0
-4234 5317 0
-4227 -4235 5311 0
-4227 -4236 5312 0
-4227 -4237 5313 0
-4227 -4238 5314 0
-4227 -4239 5315 0
-4227 -4240 5316 0
-4227 -4241 5317 0
-4227 -4242 5318 0
-4228 -4235 5312 0
-4228 -4236 5313 0
-4228 -4237 5314 0
-4228 -4238 5315 0
-4228 -4239 5316 0
-4228 -4240 5317 0
-4228 -4241 5318 0
-4228 -4242 5319 0
-4229 -4235 5313 0
-4229 -4236 5314 0
-4229 -4237 5315 0
-4229 -4238 5316 0
-4229 -4239 5317 0
-4229 -4240 5318 0
-4229 -4241 5319 0
-4229 -4242 5320 0
-4230 -4235 5314 0
-4230 -4236 5315 0
-4230 -4237 5316 0
-4230 -4238 5317 0
-4230 -4239 5318 0
-4230 -4240 5319 0
-4230 -4241 5320 0
-4230 -4242 5321 0
-4231 -4235 5315 0
-4231 -4236 5316 0
-4231 -4237 5317 0
-4231 -4238 5318 0
-4231 -4239 5319 0
-4231 -4240 5320 0
-4231 -4241 5321 0
-4231 -4242 5322 0
-4232 -4235 5316 0
-4232 -4236 5317 0
-4232 -4237 5318 0
-4232 -4238 5319 0
-4232 -4239 5320 0
-4232 -4240 5321 0
-4232 -4241 5322 0
-4232 -4242 5323 0
-4233 -4235 5317 0
-4233 -4236 5318 0
-4233 -4237 5319 0
-4233 -4238 5320 0
-4233 -4239 5321 0
-4233 -4240 5322 0
-4233 -4241 5323 0
-4233 -4242 5324 0
-4234 -4235 5318 0
-4234 -4236 5319 0
-4234 -4237 5320 0
-4234 -4238 5321 0
-4234 -4239 5322 0
-4234 -4240 5323 0
-4234 -4241 5324 0
-4251 5325 0
-4252 5326 0
-4253 5327 0
-4254 5328 0
-4255 5329 0
-4256 5330 0
-4257 5331 0
-4258 5332 0
-4243 5325 0
-4244 5326 0
-4245 5327 0
-4246 5328 0
-4247 5329 0
-4248 5330 0
-4249 5331 0
-4250 5332 0
-4243 -4251 5326 0
-4243 -4252 5327 0
-4243 -4253 5328 0
-4243 -4254 5329 0
-4243 -4255 5330 0
-4243 -4256 5331 0
-4243 -4257 5332 0
-4243 -4258 5333 0
-4244 -4251 5327 0
-4244 -4252 5328 0
-4244 -4253 5329 0
-4244 -4254 5330 0
-4244 -4255 5331 0
-4244 -4256 5332 0
-4244 -4257 5333 0
-4244 -4258 5334 0
-4245 -4251 5328 0
-4245 -4252 5329 0
-4245 -4253 5330 0
-4245 -4254 5331 0
-4245 -4255 5332 0
-4245 -4256 5333 0
-4245 -4257 5334 0
-4245 -4258 5335 0
-4246 -4251 5329 0
-4246 -4252 5330 0
-4246 -4253 5331 0
-4246 -4254 5332 0
-4246 -4255 5333 0
-4246 -4256 5334 0
-4246 -4257 5335 0
-4246 -4258 5336 0
-4247 -4251 5330 0
-4247 -4252 5331 0
-4247 -4253 5332 0
-4247 -4254 5333 0
-4247 -4255 5334 0
-4247 -4256 5335 0
-4247 -4257 5336 0
-4247 -4258 5337 0
-4248 -4251 5331 0
-4248 -4252 5332 0
-4248 -4253 5333 0
-4248 -4254 5334 0
-4248 -4255 5335 0
-4248 -4256 5336 0
-4248 -4257 5337 0
-4248 -4258 5338 0
-4249 -4251 5332 0
-4249 -4252 5333 0
-4249 -4253 5334 0
-4249 -4254 5335 0
-4249 -4255 5336 0
-4249 -4256 5337 0
-4249 -4257 5338 0
-4249 -4258 5339 0
-4250 -4251 5333 0
-4250 -4252 5334 0
-4250 -4253 5335 0
-4250 -4254 5336 0
-4250 -4255 5337 0
-4250 -4256 5338 0
-4250 -4257 5339 0
-4267 5340 0
-4268 5341 0
-4269 5342 0
-4270 5343 0
-4271 5344 0
-4272 5345 0
-4273 5346 0
-4274 5347 0
-4259 5340 0
-4260 5341 0
-4261 5342 0
-4262 5343 0
-4263 5344 0
-4264 5345 0
-4265 5346 0
-4266 5347 0
-4259 -4267 5341 0
-4259 -4268 5342 0
-4259 -4269 5343 0
-4259 -4270 5344 0
-4259 -4271 5345 0
-4259 -4272 5346 0
-4259 -4273 5347 0
-4259 -4274 5348 0
-4260 -4267 5342 0
-4260 -4268 5343 0
-4260 -4269 5344 0
-4260 -4270 5345 0
-4260 -4271 5346 0
-4260 -4272 5347 0
-4260 -4273 5348 0
-4260 -4274 5349 0
-4261 -4267 5343 0
-4261 -4268 5344 0
-4261 -4269 5345 0
-4261 -4270 5346 0
-4261 -4271 5347 0
-4261 -4272 5348 0
-4261 -4273 5349 0
-4261 -4274 5350 0
-4262 -4267 5344 0
-4262 -4268 5345 0
-4262 -4269 5346 0
-4262 -4270 5347 0
-4262 -4271 5348 0
-4262 -4272 5349 0
-4262 -4273 5350 0
-4262 -4274 5351 0
-4263 -4267 5345 0
-4263 -4268 5346 0
-4263 -4269 5347 0
-4263 -4270 5348 0
-4263 -4271 5349 0
-4263 -4272 5350 0
-4263 -4273 5351 0
-4263 -4274 5352 0
-4264 -4267 5346 0
-4264 -4268 5347 0
-4264 -4269 5348 0
-4264 -4270 5349 0
-4264 -4271 5350 0
-4264 -4272 5351 0
-4264 -4273 5352 0
-4264 -4274 5353 0
-4265 -4267 5347 0
-4265 -4268 5348 0
-4265 -4269 5349 0
-4265 -4270 5350 0
-4265 -4271 5351 0
-4265 -4272 5352 0
-4265 -4273 5353 0
-4265 -4274 5354 0
-4266 -4267 5348 0
-4266 -4268 5349 0
-4266 -4269 5350 0
-4266 -4270 5351 0
-4266 -4271 5352 0
-4266 -4272 5353 0
-4266 -4273 5354 0
-4283 5355 0
-4284 5356 0
-4285 5357 0
-4286 5358 0
-4287 5359 0
-4288 5360 0
-4289 5361 0
-4290 5362 0
-4275 5355 0
-4276 5356 0
-4277 5357 0
-4278 5358 0
-4279 5359 0
-4280 5360 0
-4281 5361 0
-4282 5362 0
-4275 -4283 5356 0
-4275 -4284 5357 0
-4275 -4285 5358 0
-4275 -4286 5359 0
-4275 -4287 5360 0
-4275 -4288 5361 0
-4275 -4289 5362 0
-4275 -4290 5363 0
-4276 -4283 5357 0
-4276 -4284 5358 0
-4276 -4285 5359 0
-4276 -4286 5360 0
-4276 -4287 5361 0
-4276 -4288 5362 0
-4276 -4289 5363 0
-4276 -4290 5364 0
-4277 -4283 5358 0
-4277 -4284 5359 0
-4277 -4285 5360 0
-4277 -4286 5361 0
-4277 -4287 5362 0
-4277 -4288 5363 0
-4277 -4289 5364 0
-4277 -4290 5365 0
-4278 -4283 5359 0
-4278 -4284 5360 0
-4278 -4285 5361 0
-4278 -4286 5362 0
-4278 -4287 5363 0
-4278 -4288 5364 0
-4278 -4289 5365 0
-4278 -4290 5366 0
-4279 -4283 5360 0
-4279 -4284 5361 0
-4279 -4285 5362 0
-4279 -4286 5363 0
-4279 -4287 5364 0
-4279 -4288 5365 0
-4279 -4289 5366 0
-4279 -4290 5367 0
-4280 -4283 5361 0
-4280 -4284 5362 0
-4280 -4285 5363 0
-4280 -4286 5364 0
-4280 -4287 5365 0
-4280 -4288 5366 0
-4280 -4289 5367 0
-4280 -4290 5368 0
-4281 -4283 5362 0
-4281 -4284 5363 0
-4281 -4285 5364 0
-4281 -4286 5365 0
-4281 -4287 5366 0
-4281 -4288 5367 0
-4281 -4289 5368 0
-4281 -4290 5369 0
-4282 -4283 5363 0
-4282 -4284 5364 0
-4282 -4285 5365 0
-4282 -4286 5366 0
-4282 -4287 5367 0
-4282 -4288 5368 0
-4282 -4289 5369 0
-4299 5370 0
-4300 5371 0
-4301 5372 0
-4302 5373 0
-4303 5374 0
-4304 5375 0
-4305 5376 0
-4306 5377 0
-4291 5370 0
-4292 5371 0
-4293 5372 0
-4294 5373 0
-4295 5374 0
-4296 5375 0
-4297 5376 0
-4298 5377 0
-4291 -4299 5371 0
-4291 -4300 5372 0
-4291 -4301 5373 0
-4291 -4302 5374 0
-4291 -4303 5375 0
-4291 -4304 5376 0
-4291 -4305 5377 0
-4291 -4306 5378 0
-4292 -4299 5372 0
-4292 -4300 5373 0
-4292 -4301 5374 0
-4292 -4302 5375 0
-4292 -4303 5376 0
-4292 -4304 5377 0
-4292 -4305 5378 0
-4292 -4306 5379 0
-4293 -4299 5373 0
-4293 -4300 5374 0
-4293 -4301 5375 0
-4293 -4302 5376 0
-4293 -4303 5377 0
-4293 -4304 5378 0
-4293 -4305 5379 0
-4293 -4306 5380 0
-4294 -4299 5374 0
-4294 -4300 5375 0
-4294 -4301 5376 0
-4294 -4302 5377 0
-4294 -4303 5378 0
-4294 -4304 5379 0
-4294 -4305 5380 0
-4294 -4306 5381 0
-4295 -4299 5375 0
-4295 -4300 5376 0
-4295 -4301 5377 0
-4295 -4302 5378 0
-4295 -4303 5379 0
-4295 -4304 5380 0
-4295 -4305 5381 0
-4295 -4306 5382 0
-4296 -4299 5376 0
-4296 -4300 5377 0
-4296 -4301 5378 0
-4296 -4302 5379 0
-4296 -4303 5380 0
-4296 -4304 5381 0
-4296 -4305 5382 0
-4296 -4306 5383 0
-4297 -4299 5377 0
-4297 -4300 5378 0
-4297 -4301 5379 0
-4297 -4302 5380 0
-4297 -4303 5381 0
-4297 -4304 5382 0
-4297 -4305 5383 0
-4297 -4306 5384 0
-4298 -4299 5378 0
-4298 -4300 5379 0
-4298 -4301 5380 0
-4298 -4302 5381 0
-4298 -4303 5382 0
-4298 -4304 5383 0
-4298 -4305 5384 0
-4315 5385 0
-4316 5386 0
-4317 5387 0
-4318 5388 0
-4319 5389 0
-4320 5390 0
-4321 5391 0
-4322 5392 0
-4307 5385 0
-4308 5386 0
-4309 5387 0
-4310 5388 0
-4311 5389 0
-4312 5390 0
-4313 5391 0
-4314 5392 0
-4307 -4315 5386 0
-4307 -4316 5387 0
-4307 -4317 5388 0
-4307 -4318 5389 0
-4307 -4319 5390 0
-4307 -4320 5391 0
-4307 -4321 5392 0
-4307 -4322 5393 0
-4308 -4315 5387 0
-4308 -4316 5388 0
-4308 -4317 5389 0
-4308 -4318 5390 0
-4308 -4319 5391 0
-4308 -4320 5392 0
-4308 -4321 5393 0
-4308 -4322 5394 0
-4309 -4315 5388 0
-4309 -4316 5389 0
-4309 -4317 5390 0
-4309 -4318 5391 0
-4309 -4319 5392 0
-4309 -4320 5393 0
-4309 -4321 5394 0
-4309 -4322 5395 0
-4310 -4315 5389 0
-4310 -4316 5390 0
-4310 -4317 5391 0
-4310 -4318 5392 0
-4310 -4319 5393 0
-4310 -4320 5394 0
-4310 -4321 5395 0
-4310 -4322 5396 0
-4311 -4315 5390 0
-4311 -4316 5391 0
-4311 -4317 5392 0
-4311 -4318 5393 0
-4311 -4319 5394 0
-4311 -4320 5395 0
-4311 -4321 5396 0
-4311 -4322 5397 0
-4312 -4315 5391 0
-4312 -4316 5392 0
-4312 -4317 5393 0
-4312 -4318 5394 0
-4312 -4319 5395 0
-4312 -4320 5396 0
-4312 -4321 5397 0
-4312 -4322 5398 0
-4313 -4315 5392 0
-4313 -4316 5393 0
-4313 -4317 5394 0
-4313 -4318 5395 0
-4313 -4319 5396 0
-4313 -4320 5397 0
-4313 -4321 5398 0
-4313 -4322 5399 0
-4314 -4315 5393 0
-4314 -4316 5394 0
-4314 -4317 5395 0
-4314 -4318 5396 0
-4314 -4319 5397 0
-4314 -4320 5398 0
-4314 -4321 5399 0
-4331 5400 0
-4332 5401 0
-4333 5402 0
-4334 5403 0
-4335 5404 0
-4336 5405 0
-4337 5406 0
-4338 5407 0
-4323 5400 0
-4324 5401 0
-4325 5402 0
-4326 5403 0
-4327 5404 0
-4328 5405 0
-4329 5406 0
-4330 5407 0
-4323 -4331 5401 0
-4323 -4332 5402 0
-4323 -4333 5403 0
-4323 -4334 5404 0
-4323 -4335 5405 0
-4323 -4336 5406 0
-4323 -4337 5407 0
-4323 -4338 5408 0
-4324 -4331 5402 0
-4324 -4332 5403 0
-4324 -4333 5404 0
-4324 -4334 5405 0
-4324 -4335 5406 0
-4324 -4336 5407 0
-4324 -4337 5408 0
-4324 -4338 5409 0
-4325 -4331 5403 0
-4325 -4332 5404 0
-4325 -4333 5405 0
-4325 -4334 5406 0
-4325 -4335 5407 0
-4325 -4336 5408 0
-4325 -4337 5409 0
-4325 -4338 5410 0
-4326 -4331 5404 0
-4326 -4332 5405 0
-4326 -4333 5406 0
-4326 -4334 5407 0
-4326 -4335 5408 0
-4326 -4336 5409 0
-4326 -4337 5410 0
-4326 -4338 5411 0
-4327 -4331 5405 0
-4327 -4332 5406 0
-4327 -4333 5407 0
-4327 -4334 5408 0
-4327 -4335 5409 0
-4327 -4336 5410 0
-4327 -4337 5411 0
-4327 -4338 5412 0
-4328 -4331 5406 0
-4328 -4332 5407 0
-4328 -4333 5408 0
-4328 -4334 5409 0
-4328 -4335 5410 0
-4328 -4336 5411 0
-4328 -4337 5412 0
-4328 -4338 5413 0
-4329 -4331 5407 0
-4329 -4332 5408 0
-4329 -4333 5409 0
-4329 -4334 5410 0
-4329 -4335 5411 0
-4329 -4336 5412 0
-4329 -4337 5413 0
-4329 -4338 5414 0
-4330 -4331 5408 0
-4330 -4332 5409 0
-4330 -4333 5410 0
-4330 -4334 5411 0
-4330 -4335 5412 0
-4330 -4336 5413 0
-4330 -4337 5414 0
-4347 5415 0
-4348 5416 0
-4349 5417 0
-4350 5418 0
-4351 5419 0
-4352 5420 0
-4353 5421 0
-4354 5422 0
-4339 5415 0
-4340 5416 0
-4341 5417 0
-4342 5418 0
-4343 5419 0
-4344 5420 0
-4345 5421 0
-4346 5422 0
-4339 -4347 5416 0
-4339 -4348 5417 0
-4339 -4349 5418 0
-4339 -4350 5419 0
-4339 -4351 5420 0
-4339 -4352 5421 0
-4339 -4353 5422 0
-4339 -4354 5423 0
-4340 -4347 5417 0
-4340 -4348 5418 0
-4340 -4349 5419 0
-4340 -4350 5420 0
-4340 -4351 5421 0
-4340 -4352 5422 0
-4340 -4353 5423 0
-4340 -4354 5424 0
-4341 -4347 5418 0
-4341 -4348 5419 0
-4341 -4349 5420 0
-4341 -4350 5421 0
-4341 -4351 5422 0
-4341 -4352 5423 0
-4341 -4353 5424 0
-4341 -4354 5425 0
-4342 -4347 5419 0
-4342 -4348 5420 0
-4342 -4349 5421 0
-4342 -4350 5422 0
-4342 -4351 5423 0
-4342 -4352 5424 0
-4342 -4353 5425 0
-4342 -4354 5426 0
-4343 -4347 5420 0
-4343 -4348 5421 0
-4343 -4349 5422 0
-4343 -4350 5423 0
-4343 -4351 5424 0
-4343 -4352 5425 0
-4343 -4353 5426 0
-4343 -4354 5427 0
-4344 -4347 5421 0
-4344 -4348 5422 0
-4344 -4349 5423 0
-4344 -4350 5424 0
-4344 -4351 5425 0
-4344 -4352 5426 0
-4344 -4353 5427 0
-4344 -4354 5428 0
-4345 -4347 5422 0
-4345 -4348 5423 0
-4345 -4349 5424 0
-4345 -4350 5425 0
-4345 -4351 5426 0
-4345 -4352 5427 0
-4345 -4353 5428 0
-4345 -4354 5429 0
-4346 -4347 5423 0
-4346 -4348 5424 0
-4346 -4349 5425 0
-4346 -4350 5426 0
-4346 -4351 5427 0
-4346 -4352 5428 0
-4346 -4353 5429 0
-4363 5430 0
-4364 5431 0
-4365 5432 0
-4366 5433 0
-4367 5434 0
-4368 5435 0
-4369 5436 0
-4370 5437 0
-4355 5430 0
-4356 5431 0
-4357 5432 0
-4358 5433 0
-4359 5434 0
-4360 5435 0
-4361 5436 0
-4362 5437 0
-4355 -4363 5431 0
-4355 -4364 5432 0
-4355 -4365 5433 0
-4355 -4366 5434 0
-4355 -4367 5435 0
-4355 -4368 5436 0
-4355 -4369 5437 0
-4355 -4370 5438 0
-4356 -4363 5432 0
-4356 -4364 5433 0
-4356 -4365 5434 0
-4356 -4366 5435 0
-4356 -4367 5436 0
-4356 -4368 5437 0
-4356 -4369 5438 0
-4356 -4370 5439 0
-4357 -4363 5433 0
-4357 -4364 5434 0
-4357 -4365 5435 0
-4357 -4366 5436 0
-4357 -4367 5437 0
-4357 -4368 5438 0
-4357 -4369 5439 0
-4357 -4370 5440 0
-4358 -4363 5434 0
-4358 -4364 5435 0
-4358 -4365 5436 0
-4358 -4366 5437 0
-4358 -4367 5438 0
-4358 -4368 5439 0
-4358 -4369 5440 0
-4358 -4370 5441 0
-4359 -4363 5435 0
-4359 -4364 5436 0
-4359 -4365 5437 0
-4359 -4366 5438 0
-4359 -4367 5439 0
-4359 -4368 5440 0
-4359 -4369 5441 0
-4359 -4370 5442 0
-4360 -4363 5436 0
-4360 -4364 5437 0
-4360 -4365 5438 0
-4360 -4366 5439 0
-4360 -4367 5440 0
-4360 -4368 5441 0
-4360 -4369 5442 0
-4360 -4370 5443 0
-4361 -4363 5437 0
-4361 -4364 5438 0
-4361 -4365 5439 0
-4361 -4366 5440 0
-4361 -4367 5441 0
-4361 -4368 5442 0
-4361 -4369 5443 0
-4361 -4370 5444 0
-4362 -4363 5438 0
-4362 -4364 5439 0
-4362 -4365 5440 0
-4362 -4366 5441 0
-4362 -4367 5442 0
-4362 -4368 5443 0
-4362 -4369 5444 0
-4379 5445 0
-4380 5446 0
-4381 5447 0
-4382 5448 0
-4383 5449 0
-4384 5450 0
-4385 5451 0
-4386 5452 0
-4371 5445 0
-4372 5446 0
-4373 5447 0
-4374 5448 0
-4375 5449 0
-4376 5450 0
-4377 5451 0
-4378 5452 0
-4371 -4379 5446 0
-4371 -4380 5447 0
-4371 -4381 5448 0
-4371 -4382 5449 0
-4371 -4383 5450 0
-4371 -4384 5451 0
-4371 -4385 5452 0
-4371 -4386 5453 0
-4372 -4379 5447 0
-4372 -4380 5448 0
-4372 -4381 5449 0
-4372 -4382 5450 0
-4372 -4383 5451 0
-4372 -4384 5452 0
-4372 -4385 5453 0
-4372 -4386 5454 0
-4373 -4379 5448 0
-4373 -4380 5449 0
-4373 -4381 5450 0
-4373 -4382 5451 0
-4373 -4383 5452 0
-4373 -4384 5453 0
-4373 -4385 5454 0
-4373 -4386 5455 0
-4374 -4379 5449 0
-4374 -4380 5450 0
-4374 -4381 5451 0
-4374 -4382 5452 0
-4374 -4383 5453 0
-4374 -4384 5454 0
-4374 -4385 5455 0
-4374 -4386 5456 0
-4375 -4379 5450 0
-4375 -4380 5451 0
-4375 -4381 5452 0
-4375 -4382 5453 0
-4375 -4383 5454 0
-4375 -4384 5455 0
-4375 -4385 5456 0
-4375 -4386 5457 0
-4376 -4379 5451 0
-4376 -4380 5452 0
-4376 -4381 5453 0
-4376 -4382 5454 0
-4376 -4383 5455 0
-4376 -4384 5456 0
-4376 -4385 5457 0
-4376 -4386 5458 0
-4377 -4379 5452 0
-4377 -4380 5453 0
-4377 -4381 5454 0
-4377 -4382 5455 0
-4377 -4383 5456 0
-4377 -4384 5457 0
-4377 -4385 5458 0
-4377 -4386 5459 0
-4378 -4379 5453 0
-4378 -4380 5454 0
-4378 -4381 5455 0
-4378 -4382 5456 0
-4378 -4383 5457 0
-4378 -4384 5458 0
-4378 -4385 5459 0
-4395 5460 0
-4396 5461 0
-4397 5462 0
-4398 5463 0
-4399 5464 0
-4400 5465 0
-4401 5466 0
-4402 5467 0
-4387 5460 0
-4388 5461 0
-4389 5462 0
-4390 5463 0
-4391 5464 0
-4392 5465 0
-4393 5466 0
-4394 5467 0
-4387 -4395 5461 0
-4387 -4396 5462 0
-4387 -4397 5463 0
-4387 -4398 5464 0
-4387 -4399 5465 0
-4387 -4400 5466 0
-4387 -4401 5467 0
-4387 -4402 5468 0
-4388 -4395 5462 0
-4388 -4396 5463 0
-4388 -4397 5464 0
-4388 -4398 5465 0
-4388 -4399 5466 0
-4388 -4400 5467 0
-4388 -4401 5468 0
-4388 -4402 5469 0
-4389 -4395 5463 0
-4389 -4396 5464 0
-4389 -4397 5465 0
-4389 -4398 5466 0
-4389 -4399 5467 0
-4389 -4400 5468 0
-4389 -4401 5469 0
-4389 -4402 5470 0
-4390 -4395 5464 0
-4390 -4396 5465 0
-4390 -4397 5466 0
-4390 -4398 5467 0
-4390 -4399 5468 0
-4390 -4400 5469 0
-4390 -4401 5470 0
-4390 -4402 5471 0
-4391 -4395 5465 0
-4391 -4396 5466 0
-4391 -4397 5467 0
-4391 -4398 5468 0
-4391 -4399 5469 0
-4391 -4400 5470 0
-4391 -4401 5471 0
-4391 -4402 5472 0
-4392 -4395 5466 0
-4392 -4396 5467 0
-4392 -4397 5468 0
-4392 -4398 5469 0
-4392 -4399 5470 0
-4392 -4400 5471 0
-4392 -4401 5472 0
-4392 -4402 5473 0
-4393 -4395 5467 0
-4393 -4396 5468 0
-4393 -4397 5469 0
-4393 -4398 5470 0
-4393 -4399 5471 0
-4393 -4400 5472 0
-4393 -4401 5473 0
-4393 -4402 5474 0
-4394 -4395 5468 0
-4394 -4396 5469 0
-4394 -4397 5470 0
-4394 -4398 5471 0
-4394 -4399 5472 0
-4394 -4400 5473 0
-4394 -4401 5474 0
-4411 5475 0
-4412 5476 0
-4413 5477 0
-4414 5478 0
-4415 5479 0
-4416 5480 0
-4417 5481 0
-4418 5482 0
-4403 5475 0
-4404 5476 0
-4405 5477 0
-4406 5478 0
-4407 5479 0
-4408 5480 0
-4409 5481 0
-4410 5482 0
-4403 -4411 5476 0
-4403 -4412 5477 0
-4403 -4413 5478 0
-4403 -4414 5479 0
-4403 -4415 5480 0
-4403 -4416 5481 0
-4403 -4417 5482 0
-4403 -4418 5483 0
-4404 -4411 5477 0
-4404 -4412 5478 0
-4404 -4413 5479 0
-4404 -4414 5480 0
-4404 -4415 5481 0
-4404 -4416 5482 0
-4404 -4417 5483 0
-4404 -4418 5484 0
-4405 -4411 5478 0
-4405 -4412 5479 0
-4405 -4413 5480 0
-4405 -4414 5481 0
-4405 -4415 5482 0
-4405 -4416 5483 0
-4405 -4417 5484 0
-4405 -4418 5485 0
-4406 -4411 5479 0
-4406 -4412 5480 0
-4406 -4413 5481 0
-4406 -4414 5482 0
-4406 -4415 5483 0
-4406 -4416 5484 0
-4406 -4417 5485 0
-4406 -4418 5486 0
-4407 -4411 5480 0
-4407 -4412 5481 0
-4407 -4413 5482 0
-4407 -4414 5483 0
-4407 -4415 5484 0
-4407 -4416 5485 0
-4407 -4417 5486 0
-4407 -4418 5487 0
-4408 -4411 5481 0
-4408 -4412 5482 0
-4408 -4413 5483 0
-4408 -4414 5484 0
-4408 -4415 5485 0
-4408 -4416 5486 0
-4408 -4417 5487 0
-4408 -4418 5488 0
-4409 -4411 5482 0
-4409 -4412 5483 0
-4409 -4413 5484 0
-4409 -4414 5485 0
-4409 -4415 5486 0
-4409 -4416 5487 0
-4409 -4417 5488 0
-4409 -4418 5489 0
-4410 -4411 5483 0
-4410 -4412 5484 0
-4410 -4413 5485 0
-4410 -4414 5486 0
-4410 -4415 5487 0
-4410 -4416 5488 0
-4410 -4417 5489 0
-4427 5490 0
-4428 5491 0
-4429 5492 0
-4430 5493 0
-4431 5494 0
-4432 5495 0
-4433 5496 0
-4434 5497 0
-4419 5490 0
-4420 5491 0
-4421 5492 0
-4422 5493 0
-4423 5494 0
-4424 5495 0
-4425 5496 0
-4426 5497 0
-4419 -4427 5491 0
-4419 -4428 5492 0
-4419 -4429 5493 0
-4419 -4430 5494 0
-4419 -4431 5495 0
-4419 -4432 5496 0
-4419 -4433 5497 0
-4419 -4434 5498 0
-4420 -4427 5492 0
-4420 -4428 5493 0
-4420 -4429 5494 0
-4420 -4430 5495 0
-4420 -4431 5496 0
-4420 -4432 5497 0
-4420 -4433 5498 0
-4420 -4434 5499 0
-4421 -4427 5493 0
-4421 -4428 5494 0
-4421 -4429 5495 0
-4421 -4430 5496 0
-4421 -4431 5497 0
-4421 -4432 5498 0
-4421 -4433 5499 0
-4421 -4434 5500 0
-4422 -4427 5494 0
-4422 -4428 5495 0
-4422 -4429 5496 0
-4422 -4430 5497 0
-4422 -4431 5498 0
-4422 -4432 5499 0
-4422 -4433 5500 0
-4422 -4434 5501 0
-4423 -4427 5495 0
-4423 -4428 5496 0
-4423 -4429 5497 0
-4423 -4430 5498 0
-4423 -4431 5499 0
-4423 -4432 5500 0
-4423 -4433 5501 0
-4423 -4434 5502 0
-4424 -4427 5496 0
-4424 -4428 5497 0
-4424 -4429 5498 0
-4424 -4430 5499 0
-4424 -4431 5500 0
-4424 -4432 5501 0
-4424 -4433 5502 0
-4424 -4434 5503 0
-4425 -4427 5497 0
-4425 -4428 5498 0
-4425 -4429 5499 0
-4425 -4430 5500 0
-4425 -4431 5501 0
-4425 -4432 5502 0
-4425 -4433 5503 0
-4425 -4434 5504 0
-4426 -4427 5498 0
-4426 -4428 5499 0
-4426 -4429 5500 0
-4426 -4430 5501 0
-4426 -4431 5502 0
-4426 -4432 5503 0
-4426 -4433 5504 0
-4443 5505 0
-4444 5506 0
-4445 5507 0
-4446 5508 0
-4447 5509 0
-4448 5510 0
-4449 5511 0
-4450 5512 0
-4435 5505 0
-4436 5506 0
-4437 5507 0
-4438 5508 0
-4439 5509 0
-4440 5510 0
-4441 5511 0
-4442 5512 0
-4435 -4443 5506 0
-4435 -4444 5507 0
-4435 -4445 5508 0
-4435 -4446 5509 0
-4435 -4447 5510 0
-4435 -4448 5511 0
-4435 -4449 5512 0
-4435 -4450 5513 0
-4436 -4443 5507 0
-4436 -4444 5508 0
-4436 -4445 5509 0
-4436 -4446 5510 0
-4436 -4447 5511 0
-4436 -4448 5512 0
-4436 -4449 5513 0
-4436 -4450 5514 0
-4437 -4443 5508 0
-4437 -4444 5509 0
-4437 -4445 5510 0
-4437 -4446 5511 0
-4437 -4447 5512 0
-4437 -4448 5513 0
-4437 -4449 5514 0
-4437 -4450 5515 0
-4438 -4443 5509 0
-4438 -4444 5510 0
-4438 -4445 5511 0
-4438 -4446 5512 0
-4438 -4447 5513 0
-4438 -4448 5514 0
-4438 -4449 5515 0
-4438 -4450 5516 0
-4439 -4443 5510 0
-4439 -4444 5511 0
-4439 -4445 5512 0
-4439 -4446 5513 0
-4439 -4447 5514 0
-4439 -4448 5515 0
-4439 -4449 5516 0
-4439 -4450 5517 0
-4440 -4443 5511 0
-4440 -4444 5512 0
-4440 -4445 5513 0
-4440 -4446 5514 0
-4440 -4447 5515 0
-4440 -4448 5516 0
-4440 -4449 5517 0
-4440 -4450 5518 0
-4441 -4443 5512 0
-4441 -4444 5513 0
-4441 -4445 5514 0
-4441 -4446 5515 0
-4441 -4447 5516 0
-4441 -4448 5517 0
-4441 -4449 5518 0
-4441 -4450 5519 0
-4442 -4443 5513 0
-4442 -4444 5514 0
-4442 -4445 5515 0
-4442 -4446 5516 0
-4442 -4447 5517 0
-4442 -4448 5518 0
-4442 -4449 5519 0
-4459 5520 0
-4460 5521 0
-4461 5522 0
-4462 5523 0
-4463 5524 0
-4464 5525 0
-4465 5526 0
-4466 5527 0
-4451 5520 0
-4452 5521 0
-4453 5522 0
-4454 5523 0
-4455 5524 0
-4456 5525 0
-4457 5526 0
-4458 5527 0
-4451 -4459 5521 0
-4451 -4460 5522 0
-4451 -4461 5523 0
-4451 -4462 5524 0
-4451 -4463 5525 0
-4451 -4464 5526 0
-4451 -4465 5527 0
-4451 -4466 5528 0
-4452 -4459 5522 0
-4452 -4460 5523 0
-4452 -4461 5524 0
-4452 -4462 5525 0
-4452 -4463 5526 0
-4452 -4464 5527 0
-4452 -4465 5528 0
-4452 -4466 5529 0
-4453 -4459 5523 0
-4453 -4460 5524 0
-4453 -4461 5525 0
-4453 -4462 5526 0
-4453 -4463 5527 0
-4453 -4464 5528 0
-4453 -4465 5529 0
-4453 -4466 5530 0
-4454 -4459 5524 0
-4454 -4460 5525 0
-4454 -4461 5526 0
-4454 -4462 5527 0
-4454 -4463 5528 0
-4454 -4464 5529 0
-4454 -4465 5530 0
-4454 -4466 5531 0
-4455 -4459 5525 0
-4455 -4460 5526 0
-4455 -4461 5527 0
-4455 -4462 5528 0
-4455 -4463 5529 0
-4455 -4464 5530 0
-4455 -4465 5531 0
-4455 -4466 5532 0
-4456 -4459 5526 0
-4456 -4460 5527 0
-4456 -4461 5528 0
-4456 -4462 5529 0
-4456 -4463 5530 0
-4456 -4464 5531 0
-4456 -4465 5532 0
-4456 -4466 5533 0
-4457 -4459 5527 0
-4457 -4460 5528 0
-4457 -4461 5529 0
-4457 -4462 5530 0
-4457 -4463 5531 0
-4457 -4464 5532 0
-4457 -4465 5533 0
-4457 -4466 5534 0
-4458 -4459 5528 0
-4458 -4460 5529 0
-4458 -4461 5530 0
-4458 -4462 5531 0
-4458 -4463 5532 0
-4458 -4464 5533 0
-4458 -4465 5534 0
-4475 5535 0
-4476 5536 0
-4477 5537 0
-4478 5538 0
-4479 5539 0
-4480 5540 0
-4481 5541 0
-4482 5542 0
-4467 5535 0
-4468 5536 0
-4469 5537 0
-4470 5538 0
-4471 5539 0
-4472 5540 0
-4473 5541 0
-4474 5542 0
-4467 -4475 5536 0
-4467 -4476 5537 0
-4467 -4477 5538 0
-4467 -4478 5539 0
-4467 -4479 5540 0
-4467 -4480 5541 0
-4467 -4481 5542 0
-4467 -4482 5543 0
-4468 -4475 5537 0
-4468 -4476 5538 0
-4468 -4477 5539 0
-4468 -4478 5540 0
-4468 -4479 5541 0
-4468 -4480 5542 0
-4468 -4481 5543 0
-4468 -4482 5544 0
-4469 -4475 5538 0
-4469 -4476 5539 0
-4469 -4477 5540 0
-4469 -4478 5541 0
-4469 -4479 5542 0
-4469 -4480 5543 0
-4469 -4481 5544 0
-4469 -4482 5545 0
-4470 -4475 5539 0
-4470 -4476 5540 0
-4470 -4477 5541 0
-4470 -4478 5542 0
-4470 -4479 5543 0
-4470 -4480 5544 0
-4470 -4481 5545 0
-4470 -4482 5546 0
-4471 -4475 5540 0
-4471 -4476 5541 0
-4471 -4477 5542 0
-4471 -4478 5543 0
-4471 -4479 5544 0
-4471 -4480 5545 0
-4471 -4481 5546 0
-4471 -4482 5547 0
-4472 -4475 5541 0
-4472 -4476 5542 0
-4472 -4477 5543 0
-4472 -4478 5544 0
-4472 -4479 5545 0
-4472 -4480 5546 0
-4472 -4481 5547 0
-4472 -4482 5548 0
-4473 -4475 5542 0
-4473 -4476 5543 0
-4473 -4477 5544 0
-4473 -4478 5545 0
-4473 -4479 5546 0
-4473 -4480 5547 0
-4473 -4481 5548 0
-4473 -4482 5549 0
-4474 -4475 5543 0
-4474 -4476 5544 0
-4474 -4477 5545 0
-4474 -4478 5546 0
-4474 -4479 5547 0
-4474 -4480 5548 0
-4474 -4481 5549 0
-4491 5550 0
-4492 5551 0
-4493 5552 0
-4494 5553 0
-4495 5554 0
-4496 5555 0
-4497 5556 0
-4498 5557 0
-4483 5550 0
-4484 5551 0
-4485 5552 0
-4486 5553 0
-4487 5554 0
-4488 5555 0
-4489 5556 0
-4490 5557 0
-4483 -4491 5551 0
-4483 -4492 5552 0
-4483 -4493 5553 0
-4483 -4494 5554 0
-4483 -4495 5555 0
-4483 -4496 5556 0
-4483 -4497 5557 0
-4483 -4498 5558 0
-4484 -4491 5552 0
-4484 -4492 5553 0
-4484 -4493 5554 0
-4484 -4494 5555 0
-4484 -4495 5556 0
-4484 -4496 5557 0
-4484 -4497 5558 0
-4484 -4498 5559 0
-4485 -4491 5553 0
-4485 -4492 5554 0
-4485 -4493 5555 0
-4485 -4494 5556 0
-4485 -4495 5557 0
-4485 -4496 5558 0
-4485 -4497 5559 0
-4485 -4498 5560 0
-4486 -4491 5554 0
-4486 -4492 5555 0
-4486 -4493 5556 0
-4486 -4494 5557 0
-4486 -4495 5558 0
-4486 -4496 5559 0
-4486 -4497 5560 0
-4486 -4498 5561 0
-4487 -4491 5555 0
-4487 -4492 5556 0
-4487 -4493 5557 0
-4487 -4494 5558 0
-4487 -4495 5559 0
-4487 -4496 5560 0
-4487 -4497 5561 0
-4487 -4498 5562 0
-4488 -4491 5556 0
-4488 -4492 5557 0
-4488 -4493 5558 0
-4488 -4494 5559 0
-4488 -4495 5560 0
-4488 -4496 5561 0
-4488 -4497 5562 0
-4488 -4498 5563 0
-4489 -4491 5557 0
-4489 -4492 5558 0
-4489 -4493 5559 0
-4489 -4494 5560 0
-4489 -4495 5561 0
-4489 -4496 5562 0
-4489 -4497 5563 0
-4489 -4498 5564 0
-4490 -4491 5558 0
-4490 -4492 5559 0
-4490 -4493 5560 0
-4490 -4494 5561 0
-4490 -4495 5562 0
-4490 -4496 5563 0
-4490 -4497 5564 0
-4507 5565 0
-4508 5566 0
-4509 5567 0
-4510 5568 0
-4511 5569 0
-4512 5570 0
-4513 5571 0
-4514 5572 0
-4499 5565 0
-4500 5566 0
-4501 5567 0
-4502 5568 0
-4503 5569 0
-4504 5570 0
-4505 5571 0
-4506 5572 0
-4499 -4507 5566 0
-4499 -4508 5567 0
-4499 -4509 5568 0
-4499 -4510 5569 0
-4499 -4511 5570 0
-4499 -4512 5571 0
-4499 -4513 5572 0
-4499 -4514 5573 0
-4500 -4507 5567 0
-4500 -4508 5568 0
-4500 -4509 5569 0
-4500 -4510 5570 0
-4500 -4511 5571 0
-4500 -4512 5572 0
-4500 -4513 5573 0
-4500 -4514 5574 0
-4501 -4507 5568 0
-4501 -4508 5569 0
-4501 -4509 5570 0
-4501 -4510 5571 0
-4501 -4511 5572 0
-4501 -4512 5573 0
-4501 -4513 5574 0
-4501 -4514 5575 0
-4502 -4507 5569 0
-4502 -4508 5570 0
-4502 -4509 5571 0
-4502 -4510 5572 0
-4502 -4511 5573 0
-4502 -4512 5574 0
-4502 -4513 5575 0
-4502 -4514 5576 0
-4503 -4507 5570 0
-4503 -4508 5571 0
-4503 -4509 5572 0
-4503 -4510 5573 0
-4503 -4511 5574 0
-4503 -4512 5575 0
-4503 -4513 5576 0
-4503 -4514 5577 0
-4504 -4507 5571 0
-4504 -4508 5572 0
-4504 -4509 5573 0
-4504 -4510 5574 0
-4504 -4511 5575 0
-4504 -4512 5576 0
-4504 -4513 5577 0
-4504 -4514 5578 0
-4505 -4507 5572 0
-4505 -4508 5573 0
-4505 -4509 5574 0
-4505 -4510 5575 0
-4505 -4511 5576 0
-4505 -4512 5577 0
-4505 -4513 5578 0
-4505 -4514 5579 0
-4506 -4507 5573 0
-4506 -4508 5574 0
-4506 -4509 5575 0
-4506 -4510 5576 0
-4506 -4511 5577 0
-4506 -4512 5578 0
-4506 -4513 5579 0
-4523 5580 0
-4524 5581 0
-4525 5582 0
-4526 5583 0
-4527 5584 0
-4528 5585 0
-4529 5586 0
-4530 5587 0
-4515 5580 0
-4516 5581 0
-4517 5582 0
-4518 5583 0
-4519 5584 0
-4520 5585 0
-4521 5586 0
-4522 5587 0
-4515 -4523 5581 0
-4515 -4524 5582 0
-4515 -4525 5583 0
-4515 -4526 5584 0
-4515 -4527 5585 0
-4515 -4528 5586 0
-4515 -4529 5587 0
-4515 -4530 5588 0
-4516 -4523 5582 0
-4516 -4524 5583 0
-4516 -4525 5584 0
-4516 -4526 5585 0
-4516 -4527 5586 0
-4516 -4528 5587 0
-4516 -4529 5588 0
-4516 -4530 5589 0
-4517 -4523 5583 0
-4517 -4524 5584 0
-4517 -4525 5585 0
-4517 -4526 5586 0
-4517 -4527 5587 0
-4517 -4528 5588 0
-4517 -4529 5589 0
-4517 -4530 5590 0
-4518 -4523 5584 0
-4518 -4524 5585 0
-4518 -4525 5586 0
-4518 -4526 5587 0
-4518 -4527 5588 0
-4518 -4528 5589 0
-4518 -4529 5590 0
-4518 -4530 5591 0
-4519 -4523 5585 0
-4519 -4524 5586 0
-4519 -4525 5587 0
-4519 -4526 5588 0
-4519 -4527 5589 0
-4519 -4528 5590 0
-4519 -4529 5591 0
-4519 -4530 5592 0
-4520 -4523 5586 0
-4520 -4524 5587 0
-4520 -4525 5588 0
-4520 -4526 5589 0
-4520 -4527 5590 0
-4520 -4528 5591 0
-4520 -4529 5592 0
-4520 -4530 5593 0
-4521 -4523 5587 0
-4521 -4524 5588 0
-4521 -4525 5589 0
-4521 -4526 5590 0
-4521 -4527 5591 0
-4521 -4528 5592 0
-4521 -4529 5593 0
-4521 -4530 5594 0
-4522 -4523 5588 0
-4522 -4524 5589 0
-4522 -4525 5590 0
-4522 -4526 5591 0
-4522 -4527 5592 0
-4522 -4528 5593 0
-4522 -4529 5594 0
-4539 5595 0
-4540 5596 0
-4541 5597 0
-4542 5598 0
-4543 5599 0
-4544 5600 0
-4545 5601 0
-4546 5602 0
-4531 5595 0
-4532 5596 0
-4533 5597 0
-4534 5598 0
-4535 5599 0
-4536 5600 0
-4537 5601 0
-4538 5602 0
-4531 -4539 5596 0
-4531 -4540 5597 0
-4531 -4541 5598 0
-4531 -4542 5599 0
-4531 -4543 5600 0
-4531 -4544 5601 0
-4531 -4545 5602 0
-4531 -4546 5603 0
-4532 -4539 5597 0
-4532 -4540 5598 0
-4532 -4541 5599 0
-4532 -4542 5600 0
-4532 -4543 5601 0
-4532 -4544 5602 0
-4532 -4545 5603 0
-4532 -4546 5604 0
-4533 -4539 5598 0
-4533 -4540 5599 0
-4533 -4541 5600 0
-4533 -4542 5601 0
-4533 -4543 5602 0
-4533 -4544 5603 0
-4533 -4545 5604 0
-4533 -4546 5605 0
-4534 -4539 5599 0
-4534 -4540 5600 0
-4534 -4541 5601 0
-4534 -4542 5602 0
-4534 -4543 5603 0
-4534 -4544 5604 0
-4534 -4545 5605 0
-4534 -4546 5606 0
-4535 -4539 5600 0
-4535 -4540 5601 0
-4535 -4541 5602 0
-4535 -4542 5603 0
-4535 -4543 5604 0
-4535 -4544 5605 0
-4535 -4545 5606 0
-4535 -4546 5607 0
-4536 -4539 5601 0
-4536 -4540 5602 0
-4536 -4541 5603 0
-4536 -4542 5604 0
-4536 -4543 5605 0
-4536 -4544 5606 0
-4536 -4545 5607 0
-4536 -4546 5608 0
-4537 -4539 5602 0
-4537 -4540 5603 0
-4537 -4541 5604 0
-4537 -4542 5605 0
-4537 -4543 5606 0
-4537 -4544 5607 0
-4537 -4545 5608 0
-4537 -4546 5609 0
-4538 -4539 5603 0
-4538 -4540 5604 0
-4538 -4541 5605 0
-4538 -4542 5606 0
-4538 -4543 5607 0
-4538 -4544 5608 0
-4538 -4545 5609 0
-4555 5610 0
-4556 5611 0
-4557 5612 0
-4558 5613 0
-4559 5614 0
-4560 5615 0
-4561 5616 0
-4562 5617 0
-4547 5610 0
-4548 5611 0
-4549 5612 0
-4550 5613 0
-4551 5614 0
-4552 5615 0
-4553 5616 0
-4554 5617 0
-4547 -4555 5611 0
-4547 -4556 5612 0
-4547 -4557 5613 0
-4547 -4558 5614 0
-4547 -4559 5615 0
-4547 -4560 5616 0
-4547 -4561 5617 0
-4547 -4562 5618 0
-4548 -4555 5612 0
-4548 -4556 5613 0
-4548 -4557 5614 0
-4548 -4558 5615 0
-4548 -4559 5616 0
-4548 -4560 5617 0
-4548 -4561 5618 0
-4548 -4562 5619 0
-4549 -4555 5613 0
-4549 -4556 5614 0
-4549 -4557 5615 0
-4549 -4558 5616 0
-4549 -4559 5617 0
-4549 -4560 5618 0
-4549 -4561 5619 0
-4549 -4562 5620 0
-4550 -4555 5614 0
-4550 -4556 5615 0
-4550 -4557 5616 0
-4550 -4558 5617 0
-4550 -4559 5618 0
-4550 -4560 5619 0
-4550 -4561 5620 0
-4550 -4562 5621 0
-4551 -4555 5615 0
-4551 -4556 5616 0
-4551 -4557 5617 0
-4551 -4558 5618 0
-4551 -4559 5619 0
-4551 -4560 5620 0
-4551 -4561 5621 0
-4551 -4562 5622 0
-4552 -4555 5616 0
-4552 -4556 5617 0
-4552 -4557 5618 0
-4552 -4558 5619 0
-4552 -4559 5620 0
-4552 -4560 5621 0
-4552 -4561 5622 0
-4552 -4562 5623 0
-4553 -4555 5617 0
-4553 -4556 5618 0
-4553 -4557 5619 0
-4553 -4558 5620 0
-4553 -4559 5621 0
-4553 -4560 5622 0
-4553 -4561 5623 0
-4553 -4562 5624 0
-4554 -4555 5618 0
-4554 -4556 5619 0
-4554 -4557 5620 0
-4554 -4558 5621 0
-4554 -4559 5622 0
-4554 -4560 5623 0
-4554 -4561 5624 0
-4571 5625 0
-4572 5626 0
-4573 5627 0
-4574 5628 0
-4575 5629 0
-4576 5630 0
-4577 5631 0
-4578 5632 0
-4563 5625 0
-4564 5626 0
-4565 5627 0
-4566 5628 0
-4567 5629 0
-4568 5630 0
-4569 5631 0
-4570 5632 0
-4563 -4571 5626 0
-4563 -4572 5627 0
-4563 -4573 5628 0
-4563 -4574 5629 0
-4563 -4575 5630 0
-4563 -4576 5631 0
-4563 -4577 5632 0
-4563 -4578 5633 0
-4564 -4571 5627 0
-4564 -4572 5628 0
-4564 -4573 5629 0
-4564 -4574 5630 0
-4564 -4575 5631 0
-4564 -4576 5632 0
-4564 -4577 5633 0
-4564 -4578 5634 0
-4565 -4571 5628 0
-4565 -4572 5629 0
-4565 -4573 5630 0
-4565 -4574 5631 0
-4565 -4575 5632 0
-4565 -4576 5633 0
-4565 -4577 5634 0
-4565 -4578 5635 0
-4566 -4571 5629 0
-4566 -4572 5630 0
-4566 -4573 5631 0
-4566 -4574 5632 0
-4566 -4575 5633 0
-4566 -4576 5634 0
-4566 -4577 5635 0
-4566 -4578 5636 0
-4567 -4571 5630 0
-4567 -4572 5631 0
-4567 -4573 5632 0
-4567 -4574 5633 0
-4567 -4575 5634 0
-4567 -4576 5635 0
-4567 -4577 5636 0
-4567 -4578 5637 0
-4568 -4571 5631 0
-4568 -4572 5632 0
-4568 -4573 5633 0
-4568 -4574 5634 0
-4568 -4575 5635 0
-4568 -4576 5636 0
-4568 -4577 5637 0
-4568 -4578 5638 0
-4569 -4571 5632 0
-4569 -4572 5633 0
-4569 -4573 5634 0
-4569 -4574 5635 0
-4569 -4575 5636 0
-4569 -4576 5637 0
-4569 -4577 5638 0
-4569 -4578 5639 0
-4570 -4571 5633 0
-4570 -4572 5634 0
-4570 -4573 5635 0
-4570 -4574 5636 0
-4570 -4575 5637 0
-4570 -4576 5638 0
-4570 -4577 5639 0
-4587 5640 0
-4588 5641 0
-4589 5642 0
-4590 5643 0
-4591 5644 0
-4592 5645 0
-4593 5646 0
-4594 5647 0
-4579 5640 0
-4580 5641 0
-4581 5642 0
-4582 5643 0
-4583 5644 0
-4584 5645 0
-4585 5646 0
-4586 5647 0
-4579 -4587 5641 0
-4579 -4588 5642 0
-4579 -4589 5643 0
-4579 -4590 5644 0
-4579 -4591 5645 0
-4579 -4592 5646 0
-4579 -4593 5647 0
-4579 -4594 5648 0
-4580 -4587 5642 0
-4580 -4588 5643 0
-4580 -4589 5644 0
-4580 -4590 5645 0
-4580 -4591 5646 0
-4580 -4592 5647 0
-4580 -4593 5648 0
-4580 -4594 5649 0
-4581 -4587 5643 0
-4581 -4588 5644 0
-4581 -4589 5645 0
-4581 -4590 5646 0
-4581 -4591 5647 0
-4581 -4592 5648 0
-4581 -4593 5649 0
-4581 -4594 5650 0
-4582 -4587 5644 0
-4582 -4588 5645 0
-4582 -4589 5646 0
-4582 -4590 5647 0
-4582 -4591 5648 0
-4582 -4592 5649 0
-4582 -4593 5650 0
-4582 -4594 5651 0
-4583 -4587 5645 0
-4583 -4588 5646 0
-4583 -4589 5647 0
-4583 -4590 5648 0
-4583 -4591 5649 0
-4583 -4592 5650 0
-4583 -4593 5651 0
-4583 -4594 5652 0
-4584 -4587 5646 0
-4584 -4588 5647 0
-4584 -4589 5648 0
-4584 -4590 5649 0
-4584 -4591 5650 0
-4584 -4592 5651 0
-4584 -4593 5652 0
-4584 -4594 5653 0
-4585 -4587 5647 0
-4585 -4588 5648 0
-4585 -4589 5649 0
-4585 -4590 5650 0
-4585 -4591 5651 0
-4585 -4592 5652 0
-4585 -4593 5653 0
-4585 -4594 5654 0
-4586 -4587 5648 0
-4586 -4588 5649 0
-4586 -4589 5650 0
-4586 -4590 5651 0
-4586 -4591 5652 0
-4586 -4592 5653 0
-4586 -4593 5654 0
-4603 5655 0
-4604 5656 0
-4605 5657 0
-4606 5658 0
-4607 5659 0
-4608 5660 0
-4609 5661 0
-4610 5662 0
-4595 5655 0
-4596 5656 0
-4597 5657 0
-4598 5658 0
-4599 5659 0
-4600 5660 0
-4601 5661 0
-4602 5662 0
-4595 -4603 5656 0
-4595 -4604 5657 0
-4595 -4605 5658 0
-4595 -4606 5659 0
-4595 -4607 5660 0
-4595 -4608 5661 0
-4595 -4609 5662 0
-4595 -4610 5663 0
-4596 -4603 5657 0
-4596 -4604 5658 0
-4596 -4605 5659 0
-4596 -4606 5660 0
-4596 -4607 5661 0
-4596 -4608 5662 0
-4596 -4609 5663 0
-4596 -4610 5664 0
-4597 -4603 5658 0
-4597 -4604 5659 0
-4597 -4605 5660 0
-4597 -4606 5661 0
-4597 -4607 5662 0
-4597 -4608 5663 0
-4597 -4609 5664 0
-4597 -4610 5665 0
-4598 -4603 5659 0
-4598 -4604 5660 0
-4598 -4605 5661 0
-4598 -4606 5662 0
-4598 -4607 5663 0
-4598 -4608 5664 0
-4598 -4609 5665 0
-4598 -4610 5666 0
-4599 -4603 5660 0
-4599 -4604 5661 0
-4599 -4605 5662 0
-4599 -4606 5663 0
-4599 -4607 5664 0
-4599 -4608 5665 0
-4599 -4609 5666 0
-4599 -4610 5667 0
-4600 -4603 5661 0
-4600 -4604 5662 0
-4600 -4605 5663 0
-4600 -4606 5664 0
-4600 -4607 5665 0
-4600 -4608 5666 0
-4600 -4609 5667 0
-4600 -4610 5668 0
-4601 -4603 5662 0
-4601 -4604 5663 0
-4601 -4605 5664 0
-4601 -4606 5665 0
-4601 -4607 5666 0
-4601 -4608 5667 0
-4601 -4609 5668 0
-4601 -4610 5669 0
-4602 -4603 5663 0
-4602 -4604 5664 0
-4602 -4605 5665 0
-4602 -4606 5666 0
-4602 -4607 5667 0
-4602 -4608 5668 0
-4602 -4609 5669 0
-4619 5670 0
-4620 5671 0
-4621 5672 0
-4622 5673 0
-4623 5674 0
-4624 5675 0
-4625 5676 0
-4626 5677 0
-4611 5670 0
-4612 5671 0
-4613 5672 0
-4614 5673 0
-4615 5674 0
-4616 5675 0
-4617 5676 0
-4618 5677 0
-4611 -4619 5671 0
-4611 -4620 5672 0
-4611 -4621 5673 0
-4611 -4622 5674 0
-4611 -4623 5675 0
-4611 -4624 5676 0
-4611 -4625 5677 0
-4611 -4626 5678 0
-4612 -4619 5672 0
-4612 -4620 5673 0
-4612 -4621 5674 0
-4612 -4622 5675 0
-4612 -4623 5676 0
-4612 -4624 5677 0
-4612 -4625 5678 0
-4612 -4626 5679 0
-4613 -4619 5673 0
-4613 -4620 5674 0
-4613 -4621 5675 0
-4613 -4622 5676 0
-4613 -4623 5677 0
-4613 -4624 5678 0
-4613 -4625 5679 0
-4613 -4626 5680 0
-4614 -4619 5674 0
-4614 -4620 5675 0
-4614 -4621 5676 0
-4614 -4622 5677 0
-4614 -4623 5678 0
-4614 -4624 5679 0
-4614 -4625 5680 0
-4614 -4626 5681 0
-4615 -4619 5675 0
-4615 -4620 5676 0
-4615 -4621 5677 0
-4615 -4622 5678 0
-4615 -4623 5679 0
-4615 -4624 5680 0
-4615 -4625 5681 0
-4615 -4626 5682 0
-4616 -4619 5676 0
-4616 -4620 5677 0
-4616 -4621 5678 0
-4616 -4622 5679 0
-4616 -4623 5680 0
-4616 -4624 5681 0
-4616 -4625 5682 0
-4616 -4626 5683 0
-4617 -4619 5677 0
-4617 -4620 5678 0
-4617 -4621 5679 0
-4617 -4622 5680 0
-4617 -4623 5681 0
-4617 -4624 5682 0
-4617 -4625 5683 0
-4617 -4626 5684 0
-4618 -4619 5678 0
-4618 -4620 5679 0
-4618 -4621 5680 0
-4618 -4622 5681 0
-4618 -4623 5682 0
-4618 -4624 5683 0
-4618 -4625 5684 0
-4635 5685 0
-4636 5686 0
-4637 5687 0
-4638 5688 0
-4639 5689 0
-4640 5690 0
-4641 5691 0
-4642 5692 0
-4627 5685 0
-4628 5686 0
-4629 5687 0
-4630 5688 0
-4631 5689 0
-4632 5690 0
-4633 5691 0
-4634 5692 0
-4627 -4635 5686 0
-4627 -4636 5687 0
-4627 -4637 5688 0
-4627 -4638 5689 0
-4627 -4639 5690 0
-4627 -4640 5691 0
-4627 -4641 5692 0
-4627 -4642 5693 0
-4628 -4635 5687 0
-4628 -4636 5688 0
-4628 -4637 5689 0
-4628 -4638 5690 0
-4628 -4639 5691 0
-4628 -4640 5692 0
-4628 -4641 5693 0
-4628 -4642 5694 0
-4629 -4635 5688 0
-4629 -4636 5689 0
-4629 -4637 5690 0
-4629 -4638 5691 0
-4629 -4639 5692 0
-4629 -4640 5693 0
-4629 -4641 5694 0
-4629 -4642 5695 0
-4630 -4635 5689 0
-4630 -4636 5690 0
-4630 -4637 5691 0
-4630 -4638 5692 0
-4630 -4639 5693 0
-4630 -4640 5694 0
-4630 -4641 5695 0
-4630 -4642 5696 0
-4631 -4635 5690 0
-4631 -4636 5691 0
-4631 -4637 5692 0
-4631 -4638 5693 0
-4631 -4639 5694 0
-4631 -4640 5695 0
-4631 -4641 5696 0
-4631 -4642 5697 0
-4632 -4635 5691 0
-4632 -4636 5692 0
-4632 -4637 5693 0
-4632 -4638 5694 0
-4632 -4639 5695 0
-4632 -4640 5696 0
-4632 -4641 5697 0
-4632 -4642 5698 0
-4633 -4635 5692 0
-4633 -4636 5693 0
-4633 -4637 5694 0
-4633 -4638 5695 0
-4633 -4639 5696 0
-4633 -4640 5697 0
-4633 -4641 5698 0
-4633 -4642 5699 0
-4634 -4635 5693 0
-4634 -4636 5694 0
-4634 -4637 5695 0
-4634 -4638 5696 0
-4634 -4639 5697 0
-4634 -4640 5698 0
-4634 -4641 5699 0
-4651 5700 0
-4652 5701 0
-4653 5702 0
-4654 5703 0
-4655 5704 0
-4656 5705 0
-4657 5706 0
-4658 5707 0
-4643 5700 0
-4644 5701 0
-4645 5702 0
-4646 5703 0
-4647 5704 0
-4648 5705 0
-4649 5706 0
-4650 5707 0
-4643 -4651 5701 0
-4643 -4652 5702 0
-4643 -4653 5703 0
-4643 -4654 5704 0
-4643 -4655 5705 0
-4643 -4656 5706 0
-4643 -4657 5707 0
-4643 -4658 5708 0
-4644 -4651 5702 0
-4644 -4652 5703 0
-4644 -4653 5704 0
-4644 -4654 5705 0
-4644 -4655 5706 0
-4644 -4656 5707 0
-4644 -4657 5708 0
-4644 -4658 5709 0
-4645 -4651 5703 0
-4645 -4652 5704 0
-4645 -4653 5705 0
-4645 -4654 5706 0
-4645 -4655 5707 0
-4645 -4656 5708 0
-4645 -4657 5709 0
-4645 -4658 5710 0
-4646 -4651 5704 0
-4646 -4652 5705 0
-4646 -4653 5706 0
-4646 -4654 5707 0
-4646 -4655 5708 0
-4646 -4656 5709 0
-4646 -4657 5710 0
-4646 -4658 5711 0
-4647 -4651 5705 0
-4647 -4652 5706 0
-4647 -4653 5707 0
-4647 -4654 5708 0
-4647 -4655 5709 0
-4647 -4656 5710 0
-4647 -4657 5711 0
-4647 -4658 5712 0
-4648 -4651 5706 0
-4648 -4652 5707 0
-4648 -4653 5708 0
-4648 -4654 5709 0
-4648 -4655 5710 0
-4648 -4656 5711 0
-4648 -4657 5712 0
-4648 -4658 5713 0
-4649 -4651 5707 0
-4649 -4652 5708 0
-4649 -4653 5709 0
-4649 -4654 5710 0
-4649 -4655 5711 0
-4649 -4656 5712 0
-4649 -4657 5713 0
-4649 -4658 5714 0
-4650 -4651 5708 0
-4650 -4652 5709 0
-4650 -4653 5710 0
-4650 -4654 5711 0
-4650 -4655 5712 0
-4650 -4656 5713 0
-4650 -4657 5714 0
-4667 5715 0
-4668 5716 0
-4669 5717 0
-4670 5718 0
-4671 5719 0
-4672 5720 0
-4673 5721 0
-4674 5722 0
-4659 5715 0
-4660 5716 0
-4661 5717 0
-4662 5718 0
-4663 5719 0
-4664 5720 0
-4665 5721 0
-4666 5722 0
-4659 -4667 5716 0
-4659 -4668 5717 0
-4659 -4669 5718 0
-4659 -4670 5719 0
-4659 -4671 5720 0
-4659 -4672 5721 0
-4659 -4673 5722 0
-4659 -4674 5723 0
-4660 -4667 5717 0
-4660 -4668 5718 0
-4660 -4669 5719 0
-4660 -4670 5720 0
-4660 -4671 5721 0
-4660 -4672 5722 0
-4660 -4673 5723 0
-4660 -4674 5724 0
-4661 -4667 5718 0
-4661 -4668 5719 0
-4661 -4669 5720 0
-4661 -4670 5721 0
-4661 -4671 5722 0
-4661 -4672 5723 0
-4661 -4673 5724 0
-4661 -4674 5725 0
-4662 -4667 5719 0
-4662 -4668 5720 0
-4662 -4669 5721 0
-4662 -4670 5722 0
-4662 -4671 5723 0
-4662 -4672 5724 0
-4662 -4673 5725 0
-4662 -4674 5726 0
-4663 -4667 5720 0
-4663 -4668 5721 0
-4663 -4669 5722 0
-4663 -4670 5723 0
-4663 -4671 5724 0
-4663 -4672 5725 0
-4663 -4673 5726 0
-4663 -4674 5727 0
-4664 -4667 5721 0
-4664 -4668 5722 0
-4664 -4669 5723 0
-4664 -4670 5724 0
-4664 -4671 5725 0
-4664 -4672 5726 0
-4664 -4673 5727 0
-4664 -4674 5728 0
-4665 -4667 5722 0
-4665 -4668 5723 0
-4665 -4669 5724 0
-4665 -4670 5725 0
-4665 -4671 5726 0
-4665 -4672 5727 0
-4665 -4673 5728 0
-4665 -4674 5729 0
-4666 -4667 5723 0
-4666 -4668 5724 0
-4666 -4669 5725 0
-4666 -4670 5726 0
-4666 -4671 5727 0
-4666 -4672 5728 0
-4666 -4673 5729 0
-4683 5730 0
-4684 5731 0
-4685 5732 0
-4686 5733 0
-4687 5734 0
-4688 5735 0
-4689 5736 0
-4690 5737 0
-4675 5730 0
-4676 5731 0
-4677 5732 0
-4678 5733 0
-4679 5734 0
-4680 5735 0
-4681 5736 0
-4682 5737 0
-4675 -4683 5731 0
-4675 -4684 5732 0
-4675 -4685 5733 0
-4675 -4686 5734 0
-4675 -4687 5735 0
-4675 -4688 5736 0
-4675 -4689 5737 0
-4675 -4690 5738 0
-4676 -4683 5732 0
-4676 -4684 5733 0
-4676 -4685 5734 0
-4676 -4686 5735 0
-4676 -4687 5736 0
-4676 -4688 5737 0
-4676 -4689 5738 0
-4676 -4690 5739 0
-4677 -4683 5733 0
-4677 -4684 5734 0
-4677 -4685 5735 0
-4677 -4686 5736 0
-4677 -4687 5737 0
-4677 -4688 5738 0
-4677 -4689 5739 0
-4677 -4690 5740 0
-4678 -4683 5734 0
-4678 -4684 5735 0
-4678 -4685 5736 0
-4678 -4686 5737 0
-4678 -4687 5738 0
-4678 -4688 5739 0
-4678 -4689 5740 0
-4678 -4690 5741 0
-4679 -4683 5735 0
-4679 -4684 5736 0
-4679 -4685 5737 0
-4679 -4686 5738 0
-4679 -4687 5739 0
-4679 -4688 5740 0
-4679 -4689 5741 0
-4679 -4690 5742 0
-4680 -4683 5736 0
-4680 -4684 5737 0
-4680 -4685 5738 0
-4680 -4686 5739 0
-4680 -4687 5740 0
-4680 -4688 5741 0
-4680 -4689 5742 0
-4680 -4690 5743 0
-4681 -4683 5737 0
-4681 -4684 5738 0
-4681 -4685 5739 0
-4681 -4686 5740 0
-4681 -4687 5741 0
-4681 -4688 5742 0
-4681 -4689 5743 0
-4681 -4690 5744 0
-4682 -4683 5738 0
-4682 -4684 5739 0
-4682 -4685 5740 0
-4682 -4686 5741 0
-4682 -4687 5742 0
-4682 -4688 5743 0
-4682 -4689 5744 0
-4699 5745 0
-4700 5746 0
-4701 5747 0
-4702 5748 0
-4703 5749 0
-4704 5750 0
-4705 5751 0
-4706 5752 0
-4691 5745 0
-4692 5746 0
-4693 5747 0
-4694 5748 0
-4695 5749 0
-4696 5750 0
-4697 5751 0
-4698 5752 0
-4691 -4699 5746 0
-4691 -4700 5747 0
-4691 -4701 5748 0
-4691 -4702 5749 0
-4691 -4703 5750 0
-4691 -4704 5751 0
-4691 -4705 5752 0
-4691 -4706 5753 0
-4692 -4699 5747 0
-4692 -4700 5748 0
-4692 -4701 5749 0
-4692 -4702 5750 0
-4692 -4703 5751 0
-4692 -4704 5752 0
-4692 -4705 5753 0
-4692 -4706 5754 0
-4693 -4699 5748 0
-4693 -4700 5749 0
-4693 -4701 5750 0
-4693 -4702 5751 0
-4693 -4703 5752 0
-4693 -4704 5753 0
-4693 -4705 5754 0
-4693 -4706 5755 0
-4694 -4699 5749 0
-4694 -4700 5750 0
-4694 -4701 5751 0
-4694 -4702 5752 0
-4694 -4703 5753 0
-4694 -4704 5754 0
-4694 -4705 5755 0
-4694 -4706 5756 0
-4695 -4699 5750 0
-4695 -4700 5751 0
-4695 -4701 5752 0
-4695 -4702 5753 0
-4695 -4703 5754 0
-4695 -4704 5755 0
-4695 -4705 5756 0
-4695 -4706 5757 0
-4696 -4699 5751 0
-4696 -4700 5752 0
-4696 -4701 5753 0
-4696 -4702 5754 0
-4696 -4703 5755 0
-4696 -4704 5756 0
-4696 -4705 5757 0
-4696 -4706 5758 0
-4697 -4699 5752 0
-4697 -4700 5753 0
-4697 -4701 5754 0
-4697 -4702 5755 0
-4697 -4703 5756 0
-4697 -4704 5757 0
-4697 -4705 5758 0
-4697 -4706 5759 0
-4698 -4699 5753 0
-4698 -4700 5754 0
-4698 -4701 5755 0
-4698 -4702 5756 0
-4698 -4703 5757 0
-4698 -4704 5758 0
-4698 -4705 5759 0
-4715 5760 0
-4716 5761 0
-4717 5762 0
-4718 5763 0
-4719 5764 0
-4720 5765 0
-4721 5766 0
-4722 5767 0
-4707 5760 0
-4708 5761 0
-4709 5762 0
-4710 5763 0
-4711 5764 0
-4712 5765 0
-4713 5766 0
-4714 5767 0
-4707 -4715 5761 0
-4707 -4716 5762 0
-4707 -4717 5763 0
-4707 -4718 5764 0
-4707 -4719 5765 0
-4707 -4720 5766 0
-4707 -4721 5767 0
-4707 -4722 5768 0
-4708 -4715 5762 0
-4708 -4716 5763 0
-4708 -4717 5764 0
-4708 -4718 5765 0
-4708 -4719 5766 0
-4708 -4720 5767 0
-4708 -4721 5768 0
-4708 -4722 5769 0
-4709 -4715 5763 0
-4709 -4716 5764 0
-4709 -4717 5765 0
-4709 -4718 5766 0
-4709 -4719 5767 0
-4709 -4720 5768 0
-4709 -4721 5769 0
-4709 -4722 5770 0
-4710 -4715 5764 0
-4710 -4716 5765 0
-4710 -4717 5766 0
-4710 -4718 5767 0
-4710 -4719 5768 0
-4710 -4720 5769 0
-4710 -4721 5770 0
-4710 -4722 5771 0
-4711 -4715 5765 0
-4711 -4716 5766 0
-4711 -4717 5767 0
-4711 -4718 5768 0
-4711 -4719 5769 0
-4711 -4720 5770 0
-4711 -4721 5771 0
-4711 -4722 5772 0
-4712 -4715 5766 0
-4712 -4716 5767 0
-4712 -4717 5768 0
-4712 -4718 5769 0
-4712 -4719 5770 0
-4712 -4720 5771 0
-4712 -4721 5772 0
-4712 -4722 5773 0
-4713 -4715 5767 0
-4713 -4716 5768 0
-4713 -4717 5769 0
-4713 -4718 5770 0
-4713 -4719 5771 0
-4713 -4720 5772 0
-4713 -4721 5773 0
-4713 -4722 5774 0
-4714 -4715 5768 0
-4714 -4716 5769 0
-4714 -4717 5770 0
-4714 -4718 5771 0
-4714 -4719 5772 0
-4714 -4720 5773 0
-4714 -4721 5774 0
-4731 5775 0
-4732 5776 0
-4733 5777 0
-4734 5778 0
-4735 5779 0
-4736 5780 0
-4737 5781 0
-4738 5782 0
-4723 5775 0
-4724 5776 0
-4725 5777 0
-4726 5778 0
-4727 5779 0
-4728 5780 0
-4729 5781 0
-4730 5782 0
-4723 -4731 5776 0
-4723 -4732 5777 0
-4723 -4733 5778 0
-4723 -4734 5779 0
-4723 -4735 5780 0
-4723 -4736 5781 0
-4723 -4737 5782 0
-4723 -4738 5783 0
-4724 -4731 5777 0
-4724 -4732 5778 0
-4724 -4733 5779 0
-4724 -4734 5780 0
-4724 -4735 5781 0
-4724 -4736 5782 0
-4724 -4737 5783 0
-4724 -4738 5784 0
-4725 -4731 5778 0
-4725 -4732 5779 0
-4725 -4733 5780 0
-4725 -4734 5781 0
-4725 -4735 5782 0
-4725 -4736 5783 0
-4725 -4737 5784 0
-4725 -4738 5785 0
-4726 -4731 5779 0
-4726 -4732 5780 0
-4726 -4733 5781 0
-4726 -4734 5782 0
-4726 -4735 5783 0
-4726 -4736 5784 0
-4726 -4737 5785 0
-4726 -4738 5786 0
-4727 -4731 5780 0
-4727 -4732 5781 0
-4727 -4733 5782 0
-4727 -4734 5783 0
-4727 -4735 5784 0
-4727 -4736 5785 0
-4727 -4737 5786 0
-4727 -4738 5787 0
-4728 -4731 5781 0
-4728 -4732 5782 0
-4728 -4733 5783 0
-4728 -4734 5784 0
-4728 -4735 5785 0
-4728 -4736 5786 0
-4728 -4737 5787 0
-4728 -4738 5788 0
-4729 -4731 5782 0
-4729 -4732 5783 0
-4729 -4733 5784 0
-4729 -4734 5785 0
-4729 -4735 5786 0
-4729 -4736 5787 0
-4729 -4737 5788 0
-4729 -4738 5789 0
-4730 -4731 5783 0
-4730 -4732 5784 0
-4730 -4733 5785 0
-4730 -4734 5786 0
-4730 -4735 5787 0
-4730 -4736 5788 0
-4730 -4737 5789 0
-4747 5790 0
-4748 5791 0
-4749 5792 0
-4750 5793 0
-4751 5794 0
-4752 5795 0
-4753 5796 0
-4754 5797 0
-4739 5790 0
-4740 5791 0
-4741 5792 0
-4742 5793 0
-4743 5794 0
-4744 5795 0
-4745 5796 0
-4746 5797 0
-4739 -4747 5791 0
-4739 -4748 5792 0
-4739 -4749 5793 0
-4739 -4750 5794 0
-4739 -4751 5795 0
-4739 -4752 5796 0
-4739 -4753 5797 0
-4739 -4754 5798 0
-4740 -4747 5792 0
-4740 -4748 5793 0
-4740 -4749 5794 0
-4740 -4750 5795 0
-4740 -4751 5796 0
-4740 -4752 5797 0
-4740 -4753 5798 0
-4740 -4754 5799 0
-4741 -4747 5793 0
-4741 -4748 5794 0
-4741 -4749 5795 0
-4741 -4750 5796 0
-4741 -4751 5797 0
-4741 -4752 5798 0
-4741 -4753 5799 0
-4741 -4754 5800 0
-4742 -4747 5794 0
-4742 -4748 5795 0
-4742 -4749 5796 0
-4742 -4750 5797 0
-4742 -4751 5798 0
-4742 -4752 5799 0
-4742 -4753 5800 0
-4742 -4754 5801 0
-4743 -4747 5795 0
-4743 -4748 5796 0
-4743 -4749 5797 0
-4743 -4750 5798 0
-4743 -4751 5799 0
-4743 -4752 5800 0
-4743 -4753 5801 0
-4743 -4754 5802 0
-4744 -4747 5796 0
-4744 -4748 5797 0
-4744 -4749 5798 0
-4744 -4750 5799 0
-4744 -4751 5800 0
-4744 -4752 5801 0
-4744 -4753 5802 0
-4744 -4754 5803 0
-4745 -4747 5797 0
-4745 -4748 5798 0
-4745 -4749 5799 0
-4745 -4750 5800 0
-4745 -4751 5801 0
-4745 -4752 5802 0
-4745 -4753 5803 0
-4745 -4754 5804 0
-4746 -4747 5798 0
-4746 -4748 5799 0
-4746 -4749 5800 0
-4746 -4750 5801 0
-4746 -4751 5802 0
-4746 -4752 5803 0
-4746 -4753 5804 0
-4763 5805 0
-4764 5806 0
-4765 5807 0
-4766 5808 0
-4767 5809 0
-4768 5810 0
-4769 5811 0
-4770 5812 0
-4755 5805 0
-4756 5806 0
-4757 5807 0
-4758 5808 0
-4759 5809 0
-4760 5810 0
-4761 5811 0
-4762 5812 0
-4755 -4763 5806 0
-4755 -4764 5807 0
-4755 -4765 5808 0
-4755 -4766 5809 0
-4755 -4767 5810 0
-4755 -4768 5811 0
-4755 -4769 5812 0
-4755 -4770 5813 0
-4756 -4763 5807 0
-4756 -4764 5808 0
-4756 -4765 5809 0
-4756 -4766 5810 0
-4756 -4767 5811 0
-4756 -4768 5812 0
-4756 -4769 5813 0
-4756 -4770 5814 0
-4757 -4763 5808 0
-4757 -4764 5809 0
-4757 -4765 5810 0
-4757 -4766 5811 0
-4757 -4767 5812 0
-4757 -4768 5813 0
-4757 -4769 5814 0
-4757 -4770 5815 0
-4758 -4763 5809 0
-4758 -4764 5810 0
-4758 -4765 5811 0
-4758 -4766 5812 0
-4758 -4767 5813 0
-4758 -4768 5814 0
-4758 -4769 5815 0
-4758 -4770 5816 0
-4759 -4763 5810 0
-4759 -4764 5811 0
-4759 -4765 5812 0
-4759 -4766 5813 0
-4759 -4767 5814 0
-4759 -4768 5815 0
-4759 -4769 5816 0
-4759 -4770 5817 0
-4760 -4763 5811 0
-4760 -4764 5812 0
-4760 -4765 5813 0
-4760 -4766 5814 0
-4760 -4767 5815 0
-4760 -4768 5816 0
-4760 -4769 5817 0
-4760 -4770 5818 0
-4761 -4763 5812 0
-4761 -4764 5813 0
-4761 -4765 5814 0
-4761 -4766 5815 0
-4761 -4767 5816 0
-4761 -4768 5817 0
-4761 -4769 5818 0
-4761 -4770 5819 0
-4762 -4763 5813 0
-4762 -4764 5814 0
-4762 -4765 5815 0
-4762 -4766 5816 0
-4762 -4767 5817 0
-4762 -4768 5818 0
-4762 -4769 5819 0
-4779 5820 0
-4780 5821 0
-4781 5822 0
-4782 5823 0
-4783 5824 0
-4784 5825 0
-4785 5826 0
-4786 5827 0
-4771 5820 0
-4772 5821 0
-4773 5822 0
-4774 5823 0
-4775 5824 0
-4776 5825 0
-4777 5826 0
-4778 5827 0
-4771 -4779 5821 0
-4771 -4780 5822 0
-4771 -4781 5823 0
-4771 -4782 5824 0
-4771 -4783 5825 0
-4771 -4784 5826 0
-4771 -4785 5827 0
-4771 -4786 5828 0
-4772 -4779 5822 0
-4772 -4780 5823 0
-4772 -4781 5824 0
-4772 -4782 5825 0
-4772 -4783 5826 0
-4772 -4784 5827 0
-4772 -4785 5828 0
-4772 -4786 5829 0
-4773 -4779 5823 0
-4773 -4780 5824 0
-4773 -4781 5825 0
-4773 -4782 5826 0
-4773 -4783 5827 0
-4773 -4784 5828 0
-4773 -4785 5829 0
-4773 -4786 5830 0
-4774 -4779 5824 0
-4774 -4780 5825 0
-4774 -4781 5826 0
-4774 -4782 5827 0
-4774 -4783 5828 0
-4774 -4784 5829 0
-4774 -4785 5830 0
-4774 -4786 5831 0
-4775 -4779 5825 0
-4775 -4780 5826 0
-4775 -4781 5827 0
-4775 -4782 5828 0
-4775 -4783 5829 0
-4775 -4784 5830 0
-4775 -4785 5831 0
-4775 -4786 5832 0
-4776 -4779 5826 0
-4776 -4780 5827 0
-4776 -4781 5828 0
-4776 -4782 5829 0
-4776 -4783 5830 0
-4776 -4784 5831 0
-4776 -4785 5832 0
-4776 -4786 5833 0
-4777 -4779 5827 0
-4777 -4780 5828 0
-4777 -4781 5829 0
-4777 -4782 5830 0
-4777 -4783 5831 0
-4777 -4784 5832 0
-4777 -4785 5833 0
-4777 -4786 5834 0
-4778 -4779 5828 0
-4778 -4780 5829 0
-4778 -4781 5830 0
-4778 -4782 5831 0
-4778 -4783 5832 0
-4778 -4784 5833 0
-4778 -4785 5834 0
-4795 5835 0
-4796 5836 0
-4797 5837 0
-4798 5838 0
-4799 5839 0
-4800 5840 0
-4801 5841 0
-4802 5842 0
-4787 5835 0
-4788 5836 0
-4789 5837 0
-4790 5838 0
-4791 5839 0
-4792 5840 0
-4793 5841 0
-4794 5842 0
-4787 -4795 5836 0
-4787 -4796 5837 0
-4787 -4797 5838 0
-4787 -4798 5839 0
-4787 -4799 5840 0
-4787 -4800 5841 0
-4787 -4801 5842 0
-4787 -4802 5843 0
-4788 -4795 5837 0
-4788 -4796 5838 0
-4788 -4797 5839 0
-4788 -4798 5840 0
-4788 -4799 5841 0
-4788 -4800 5842 0
-4788 -4801 5843 0
-4788 -4802 5844 0
-4789 -4795 5838 0
-4789 -4796 5839 0
-4789 -4797 5840 0
-4789 -4798 5841 0
-4789 -4799 5842 0
-4789 -4800 5843 0
-4789 -4801 5844 0
-4789 -4802 5845 0
-4790 -4795 5839 0
-4790 -4796 5840 0
-4790 -4797 5841 0
-4790 -4798 5842 0
-4790 -4799 5843 0
-4790 -4800 5844 0
-4790 -4801 5845 0
-4790 -4802 5846 0
-4791 -4795 5840 0
-4791 -4796 5841 0
-4791 -4797 5842 0
-4791 -4798 5843 0
-4791 -4799 5844 0
-4791 -4800 5845 0
-4791 -4801 5846 0
-4791 -4802 5847 0
-4792 -4795 5841 0
-4792 -4796 5842 0
-4792 -4797 5843 0
-4792 -4798 5844 0
-4792 -4799 5845 0
-4792 -4800 5846 0
-4792 -4801 5847 0
-4792 -4802 5848 0
-4793 -4795 5842 0
-4793 -4796 5843 0
-4793 -4797 5844 0
-4793 -4798 5845 0
-4793 -4799 5846 0
-4793 -4800 5847 0
-4793 -4801 5848 0
-4793 -4802 5849 0
-4794 -4795 5843 0
-4794 -4796 5844 0
-4794 -4797 5845 0
-4794 -4798 5846 0
-4794 -4799 5847 0
-4794 -4800 5848 0
-4794 -4801 5849 0
-4811 5850 0
-4812 5851 0
-4813 5852 0
-4814 5853 0
-4815 5854 0
-4816 5855 0
-4817 5856 0
-4818 5857 0
-4803 5850 0
-4804 5851 0
-4805 5852 0
-4806 5853 0
-4807 5854 0
-4808 5855 0
-4809 5856 0
-4810 5857 0
-4803 -4811 5851 0
-4803 -4812 5852 0
-4803 -4813 5853 0
-4803 -4814 5854 0
-4803 -4815 5855 0
-4803 -4816 5856 0
-4803 -4817 5857 0
-4803 -4818 5858 0
-4804 -4811 5852 0
-4804 -4812 5853 0
-4804 -4813 5854 0
-4804 -4814 5855 0
-4804 -4815 5856 0
-4804 -4816 5857 0
-4804 -4817 5858 0
-4804 -4818 5859 0
-4805 -4811 5853 0
-4805 -4812 5854 0
-4805 -4813 5855 0
-4805 -4814 5856 0
-4805 -4815 5857 0
-4805 -4816 5858 0
-4805 -4817 5859 0
-4805 -4818 5860 0
-4806 -4811 5854 0
-4806 -4812 5855 0
-4806 -4813 5856 0
-4806 -4814 5857 0
-4806 -4815 5858 0
-4806 -4816 5859 0
-4806 -4817 5860 0
-4806 -4818 5861 0
-4807 -4811 5855 0
-4807 -4812 5856 0
-4807 -4813 5857 0
-4807 -4814 5858 0
-4807 -4815 5859 0
-4807 -4816 5860 0
-4807 -4817 5861 0
-4807 -4818 5862 0
-4808 -4811 5856 0
-4808 -4812 5857 0
-4808 -4813 5858 0
-4808 -4814 5859 0
-4808 -4815 5860 0
-4808 -4816 5861 0
-4808 -4817 5862 0
-4808 -4818 5863 0
-4809 -4811 5857 0
-4809 -4812 5858 0
-4809 -4813 5859 0
-4809 -4814 5860 0
-4809 -4815 5861 0
-4809 -4816 5862 0
-4809 -4817 5863 0
-4809 -4818 5864 0
-4810 -4811 5858 0
-4810 -4812 5859 0
-4810 -4813 5860 0
-4810 -4814 5861 0
-4810 -4815 5862 0
-4810 -4816 5863 0
-4810 -4817 5864 0
-4827 5865 0
-4828 5866 0
-4829 5867 0
-4830 5868 0
-4831 5869 0
-4832 5870 0
-4833 5871 0
-4834 5872 0
-4819 5865 0
-4820 5866 0
-4821 5867 0
-4822 5868 0
-4823 5869 0
-4824 5870 0
-4825 5871 0
-4826 5872 0
-4819 -4827 5866 0
-4819 -4828 5867 0
-4819 -4829 5868 0
-4819 -4830 5869 0
-4819 -4831 5870 0
-4819 -4832 5871 0
-4819 -4833 5872 0
-4819 -4834 5873 0
-4820 -4827 5867 0
-4820 -4828 5868 0
-4820 -4829 5869 0
-4820 -4830 5870 0
-4820 -4831 5871 0
-4820 -4832 5872 0
-4820 -4833 5873 0
-4820 -4834 5874 0
-4821 -4827 5868 0
-4821 -4828 5869 0
-4821 -4829 5870 0
-4821 -4830 5871 0
-4821 -4831 5872 0
-4821 -4832 5873 0
-4821 -4833 5874 0
-4821 -4834 5875 0
-4822 -4827 5869 0
-4822 -4828 5870 0
-4822 -4829 5871 0
-4822 -4830 5872 0
-4822 -4831 5873 0
-4822 -4832 5874 0
-4822 -4833 5875 0
-4822 -4834 5876 0
-4823 -4827 5870 0
-4823 -4828 5871 0
-4823 -4829 5872 0
-4823 -4830 5873 0
-4823 -4831 5874 0
-4823 -4832 5875 0
-4823 -4833 5876 0
-4823 -4834 5877 0
-4824 -4827 5871 0
-4824 -4828 5872 0
-4824 -4829 5873 0
-4824 -4830 5874 0
-4824 -4831 5875 0
-4824 -4832 5876 0
-4824 -4833 5877 0
-4824 -4834 5878 0
-4825 -4827 5872 0
-4825 -4828 5873 0
-4825 -4829 5874 0
-4825 -4830 5875 0
-4825 -4831 5876 0
-4825 -4832 5877 0
-4825 -4833 5878 0
-4825 -4834 5879 0
-4826 -4827 5873 0
-4826 -4828 5874 0
-4826 -4829 5875 0
-4826 -4830 5876 0
-4826 -4831 5877 0
-4826 -4832 5878 0
-4826 -4833 5879 0
-4843 5880 0
-4844 5881 0
-4845 5882 0
-4846 5883 0
-4847 5884 0
-4848 5885 0
-4849 5886 0
-4850 5887 0
-4835 5880 0
-4836 5881 0
-4837 5882 0
-4838 5883 0
-4839 5884 0
-4840 5885 0
-4841 5886 0
-4842 5887 0
-4835 -4843 5881 0
-4835 -4844 5882 0
-4835 -4845 5883 0
-4835 -4846 5884 0
-4835 -4847 5885 0
-4835 -4848 5886 0
-4835 -4849 5887 0
-4835 -4850 5888 0
-4836 -4843 5882 0
-4836 -4844 5883 0
-4836 -4845 5884 0
-4836 -4846 5885 0
-4836 -4847 5886 0
-4836 -4848 5887 0
-4836 -4849 5888 0
-4836 -4850 5889 0
-4837 -4843 5883 0
-4837 -4844 5884 0
-4837 -4845 5885 0
-4837 -4846 5886 0
-4837 -4847 5887 0
-4837 -4848 5888 0
-4837 -4849 5889 0
-4837 -4850 5890 0
-4838 -4843 5884 0
-4838 -4844 5885 0
-4838 -4845 5886 0
-4838 -4846 5887 0
-4838 -4847 5888 0
-4838 -4848 5889 0
-4838 -4849 5890 0
-4838 -4850 5891 0
-4839 -4843 5885 0
-4839 -4844 5886 0
-4839 -4845 5887 0
-4839 -4846 5888 0
-4839 -4847 5889 0
-4839 -4848 5890 0
-4839 -4849 5891 0
-4839 -4850 5892 0
-4840 -4843 5886 0
-4840 -4844 5887 0
-4840 -4845 5888 0
-4840 -4846 5889 0
-4840 -4847 5890 0
-4840 -4848 5891 0
-4840 -4849 5892 0
-4840 -4850 5893 0
-4841 -4843 5887 0
-4841 -4844 5888 0
-4841 -4845 5889 0
-4841 -4846 5890 0
-4841 -4847 5891 0
-4841 -4848 5892 0
-4841 -4849 5893 0
-4841 -4850 5894 0
-4842 -4843 5888 0
-4842 -4844 5889 0
-4842 -4845 5890 0
-4842 -4846 5891 0
-4842 -4847 5892 0
-4842 -4848 5893 0
-4842 -4849 5894 0
-4859 5895 0
-4860 5896 0
-4861 5897 0
-4862 5898 0
-4863 5899 0
-4864 5900 0
-4865 5901 0
-4866 5902 0
-4851 5895 0
-4852 5896 0
-4853 5897 0
-4854 5898 0
-4855 5899 0
-4856 5900 0
-4857 5901 0
-4858 5902 0
-4851 -4859 5896 0
-4851 -4860 5897 0
-4851 -4861 5898 0
-4851 -4862 5899 0
-4851 -4863 5900 0
-4851 -4864 5901 0
-4851 -4865 5902 0
-4851 -4866 5903 0
-4852 -4859 5897 0
-4852 -4860 5898 0
-4852 -4861 5899 0
-4852 -4862 5900 0
-4852 -4863 5901 0
-4852 -4864 5902 0
-4852 -4865 5903 0
-4852 -4866 5904 0
-4853 -4859 5898 0
-4853 -4860 5899 0
-4853 -4861 5900 0
-4853 -4862 5901 0
-4853 -4863 5902 0
-4853 -4864 5903 0
-4853 -4865 5904 0
-4853 -4866 5905 0
-4854 -4859 5899 0
-4854 -4860 5900 0
-4854 -4861 5901 0
-4854 -4862 5902 0
-4854 -4863 5903 0
-4854 -4864 5904 0
-4854 -4865 5905 0
-4854 -4866 5906 0
-4855 -4859 5900 0
-4855 -4860 5901 0
-4855 -4861 5902 0
-4855 -4862 5903 0
-4855 -4863 5904 0
-4855 -4864 5905 0
-4855 -4865 5906 0
-4855 -4866 5907 0
-4856 -4859 5901 0
-4856 -4860 5902 0
-4856 -4861 5903 0
-4856 -4862 5904 0
-4856 -4863 5905 0
-4856 -4864 5906 0
-4856 -4865 5907 0
-4856 -4866 5908 0
-4857 -4859 5902 0
-4857 -4860 5903 0
-4857 -4861 5904 0
-4857 -4862 5905 0
-4857 -4863 5906 0
-4857 -4864 5907 0
-4857 -4865 5908 0
-4857 -4866 5909 0
-4858 -4859 5903 0
-4858 -4860 5904 0
-4858 -4861 5905 0
-4858 -4862 5906 0
-4858 -4863 5907 0
-4858 -4864 5908 0
-4858 -4865 5909 0
-4875 5910 0
-4876 5911 0
-4877 5912 0
-4878 5913 0
-4879 5914 0
-4880 5915 0
-4881 5916 0
-4882 5917 0
-4867 5910 0
-4868 5911 0
-4869 5912 0
-4870 5913 0
-4871 5914 0
-4872 5915 0
-4873 5916 0
-4874 5917 0
-4867 -4875 5911 0
-4867 -4876 5912 0
-4867 -4877 5913 0
-4867 -4878 5914 0
-4867 -4879 5915 0
-4867 -4880 5916 0
-4867 -4881 5917 0
-4867 -4882 5918 0
-4868 -4875 5912 0
-4868 -4876 5913 0
-4868 -4877 5914 0
-4868 -4878 5915 0
-4868 -4879 5916 0
-4868 -4880 5917 0
-4868 -4881 5918 0
-4868 -4882 5919 0
-4869 -4875 5913 0
-4869 -4876 5914 0
-4869 -4877 5915 0
-4869 -4878 5916 0
-4869 -4879 5917 0
-4869 -4880 5918 0
-4869 -4881 5919 0
-4869 -4882 5920 0
-4870 -4875 5914 0
-4870 -4876 5915 0
-4870 -4877 5916 0
-4870 -4878 5917 0
-4870 -4879 5918 0
-4870 -4880 5919 0
-4870 -4881 5920 0
-4870 -4882 5921 0
-4871 -4875 5915 0
-4871 -4876 5916 0
-4871 -4877 5917 0
-4871 -4878 5918 0
-4871 -4879 5919 0
-4871 -4880 5920 0
-4871 -4881 5921 0
-4871 -4882 5922 0
-4872 -4875 5916 0
-4872 -4876 5917 0
-4872 -4877 5918 0
-4872 -4878 5919 0
-4872 -4879 5920 0
-4872 -4880 5921 0
-4872 -4881 5922 0
-4872 -4882 5923 0
-4873 -4875 5917 0
-4873 -4876 5918 0
-4873 -4877 5919 0
-4873 -4878 5920 0
-4873 -4879 5921 0
-4873 -4880 5922 0
-4873 -4881 5923 0
-4873 -4882 5924 0
-4874 -4875 5918 0
-4874 -4876 5919 0
-4874 -4877 5920 0
-4874 -4878 5921 0
-4874 -4879 5922 0
-4874 -4880 5923 0
-4874 -4881 5924 0
-4891 5925 0
-4892 5926 0
-4893 5927 0
-4894 5928 0
-4895 5929 0
-4896 5930 0
-4897 5931 0
-4898 5932 0
-4883 5925 0
-4884 5926 0
-4885 5927 0
-4886 5928 0
-4887 5929 0
-4888 5930 0
-4889 5931 0
-4890 5932 0
-4883 -4891 5926 0
-4883 -4892 5927 0
-4883 -4893 5928 0
-4883 -4894 5929 0
-4883 -4895 5930 0
-4883 -4896 5931 0
-4883 -4897 5932 0
-4883 -4898 5933 0
-4884 -4891 5927 0
-4884 -4892 5928 0
-4884 -4893 5929 0
-4884 -4894 5930 0
-4884 -4895 5931 0
-4884 -4896 5932 0
-4884 -4897 5933 0
-4884 -4898 5934 0
-4885 -4891 5928 0
-4885 -4892 5929 0
-4885 -4893 5930 0
-4885 -4894 5931 0
-4885 -4895 5932 0
-4885 -4896 5933 0
-4885 -4897 5934 0
-4885 -4898 5935 0
-4886 -4891 5929 0
-4886 -4892 5930 0
-4886 -4893 5931 0
-4886 -4894 5932 0
-4886 -4895 5933 0
-4886 -4896 5934 0
-4886 -4897 5935 0
-4886 -4898 5936 0
-4887 -4891 5930 0
-4887 -4892 5931 0
-4887 -4893 5932 0
-4887 -4894 5933 0
-4887 -4895 5934 0
-4887 -4896 5935 0
-4887 -4897 5936 0
-4887 -4898 5937 0
-4888 -4891 5931 0
-4888 -4892 5932 0
-4888 -4893 5933 0
-4888 -4894 5934 0
-4888 -4895 5935 0
-4888 -4896 5936 0
-4888 -4897 5937 0
-4888 -4898 5938 0
-4889 -4891 5932 0
-4889 -4892 5933 0
-4889 -4893 5934 0
-4889 -4894 5935 0
-4889 -4895 5936 0
-4889 -4896 5937 0
-4889 -4897 5938 0
-4889 -4898 5939 0
-4890 -4891 5933 0
-4890 -4892 5934 0
-4890 -4893 5935 0
-4890 -4894 5936 0
-4890 -4895 5937 0
-4890 -4896 5938 0
-4890 -4897 5939 0
-4907 5940 0
-4908 5941 0
-4909 5942 0
-4910 5943 0
-4911 5944 0
-4912 5945 0
-4913 5946 0
-4914 5947 0
-4899 5940 0
-4900 5941 0
-4901 5942 0
-4902 5943 0
-4903 5944 0
-4904 5945 0
-4905 5946 0
-4906 5947 0
-4899 -4907 5941 0
-4899 -4908 5942 0
-4899 -4909 5943 0
-4899 -4910 5944 0
-4899 -4911 5945 0
-4899 -4912 5946 0
-4899 -4913 5947 0
-4899 -4914 5948 0
-4900 -4907 5942 0
-4900 -4908 5943 0
-4900 -4909 5944 0
-4900 -4910 5945 0
-4900 -4911 5946 0
-4900 -4912 5947 0
-4900 -4913 5948 0
-4900 -4914 5949 0
-4901 -4907 5943 0
-4901 -4908 5944 0
-4901 -4909 5945 0
-4901 -4910 5946 0
-4901 -4911 5947 0
-4901 -4912 5948 0
-4901 -4913 5949 0
-4901 -4914 5950 0
-4902 -4907 5944 0
-4902 -4908 5945 0
-4902 -4909 5946 0
-4902 -4910 5947 0
-4902 -4911 5948 0
-4902 -4912 5949 0
-4902 -4913 5950 0
-4902 -4914 5951 0
-4903 -4907 5945 0
-4903 -4908 5946 0
-4903 -4909 5947 0
-4903 -4910 5948 0
-4903 -4911 5949 0
-4903 -4912 5950 0
-4903 -4913 5951 0
-4903 -4914 5952 0
-4904 -4907 5946 0
-4904 -4908 5947 0
-4904 -4909 5948 0
-4904 -4910 5949 0
-4904 -4911 5950 0
-4904 -4912 5951 0
-4904 -4913 5952 0
-4904 -4914 5953 0
-4905 -4907 5947 0
-4905 -4908 5948 0
-4905 -4909 5949 0
-4905 -4910 5950 0
-4905 -4911 5951 0
-4905 -4912 5952 0
-4905 -4913 5953 0
-4905 -4914 5954 0
-4906 -4907 5948 0
-4906 -4908 5949 0
-4906 -4909 5950 0
-4906 -4910 5951 0
-4906 -4911 5952 0
-4906 -4912 5953 0
-4906 -4913 5954 0
-4923 5955 0
-4924 5956 0
-4925 5957 0
-4926 5958 0
-4927 5959 0
-4928 5960 0
-4929 5961 0
-4930 5962 0
-4931 5963 0
-4932 5964 0
-4933 5965 0
-4934 5966 0
-4915 5955 0
-4916 5956 0
-4917 5957 0
-4918 5958 0
-4919 5959 0
-4920 5960 0
-4921 5961 0
-4922 5962 0
-4915 -4923 5956 0
-4915 -4924 5957 0
-4915 -4925 5958 0
-4915 -4926 5959 0
-4915 -4927 5960 0
-4915 -4928 5961 0
-4915 -4929 5962 0
-4915 -4930 5963 0
-4915 -4931 5964 0
-4915 -4932 5965 0
-4915 -4933 5966 0
-4915 -4934 5967 0
-4916 -4923 5957 0
-4916 -4924 5958 0
-4916 -4925 5959 0
-4916 -4926 5960 0
-4916 -4927 5961 0
-4916 -4928 5962 0
-4916 -4929 5963 0
-4916 -4930 5964 0
-4916 -4931 5965 0
-4916 -4932 5966 0
-4916 -4933 5967 0
-4916 -4934 5968 0
-4917 -4923 5958 0
-4917 -4924 5959 0
-4917 -4925 5960 0
-4917 -4926 5961 0
-4917 -4927 5962 0
-4917 -4928 5963 0
-4917 -4929 5964 0
-4917 -4930 5965 0
-4917 -4931 5966 0
-4917 -4932 5967 0
-4917 -4933 5968 0
-4917 -4934 5969 0
-4918 -4923 5959 0
-4918 -4924 5960 0
-4918 -4925 5961 0
-4918 -4926 5962 0
-4918 -4927 5963 0
-4918 -4928 5964 0
-4918 -4929 5965 0
-4918 -4930 5966 0
-4918 -4931 5967 0
-4918 -4932 5968 0
-4918 -4933 5969 0
-4919 -4923 5960 0
-4919 -4924 5961 0
-4919 -4925 5962 0
-4919 -4926 5963 0
-4919 -4927 5964 0
-4919 -4928 5965 0
-4919 -4929 5966 0
-4919 -4930 5967 0
-4919 -4931 5968 0
-4919 -4932 5969 0
-4920 -4923 5961 0
-4920 -4924 5962 0
-4920 -4925 5963 0
-4920 -4926 5964 0
-4920 -4927 5965 0
-4920 -4928 5966 0
-4920 -4929 5967 0
-4920 -4930 5968 0
-4920 -4931 5969 0
-4921 -4923 5962 0
-4921 -4924 5963 0
-4921 -4925 5964 0
-4921 -4926 5965 0
-4921 -4927 5966 0
-4921 -4928 5967 0
-4921 -4929 5968 0
-4921 -4930 5969 0
-4922 -4923 5963 0
-4922 -4924 5964 0
-4922 -4925 5965 0
-4922 -4926 5966 0
-4922 -4927 5967 0
-4922 -4928 5968 0
-4922 -4929 5969 0
-4950 5970 0
-4951 5971 0
-4952 5972 0
-4953 5973 0
-4954 5974 0
-4955 5975 0
-4956 5976 0
-4957 5977 0
-4958 5978 0
-4959 5979 0
-4960 5980 0
-4961 5981 0
-4962 5982 0
-4963 5983 0
-4964 5984 0
-4935 5970 0
-4936 5971 0
-4937 5972 0
-4938 5973 0
-4939 5974 0
-4940 5975 0
-4941 5976 0
-4942 5977 0
-4943 5978 0
-4944 5979 0
-4945 5980 0
-4946 5981 0
-4947 5982 0
-4948 5983 0
-4949 5984 0
-4935 -4950 5971 0
-4935 -4951 5972 0
-4935 -4952 5973 0
-4935 -4953 5974 0
-4935 -4954 5975 0
-4935 -4955 5976 0
-4935 -4956 5977 0
-4935 -4957 5978 0
-4935 -4958 5979 0
-4935 -4959 5980 0
-4935 -4960 5981 0
-4935 -4961 5982 0
-4935 -4962 5983 0
-4935 -4963 5984 0
-4936 -4950 5972 0
-4936 -4951 5973 0
-4936 -4952 5974 0
-4936 -4953 5975 0
-4936 -4954 5976 0
-4936 -4955 5977 0
-4936 -4956 5978 0
-4936 -4957 5979 0
-4936 -4958 5980 0
-4936 -4959 5981 0
-4936 -4960 5982 0
-4936 -4961 5983 0
-4936 -4962 5984 0
-4937 -4950 5973 0
-4937 -4951 5974 0
-4937 -4952 5975 0
-4937 -4953 5976 0
-4937 -4954 5977 0
-4937 -4955 5978 0
-4937 -4956 5979 0
-4937 -4957 5980 0
-4937 -4958 5981 0
-4937 -4959 5982 0
-4937 -4960 5983 0
-4937 -4961 5984 0
-4938 -4950 5974 0
-4938 -4951 5975 0
-4938 -4952 5976 0
-4938 -4953 5977 0
-4938 -4954 5978 0
-4938 -4955 5979 0
-4938 -4956 5980 0
-4938 -4957 5981 0
-4938 -4958 5982 0
-4938 -4959 5983 0
-4938 -4960 5984 0
-4939 -4950 5975 0
-4939 -4951 5976 0
-4939 -4952 5977 0
-4939 -4953 5978 0
-4939 -4954 5979 0
-4939 -4955 5980 0
-4939 -4956 5981 0
-4939 -4957 5982 0
-4939 -4958 5983 0
-4939 -4959 5984 0
-4940 -4950 5976 0
-4940 -4951 5977 0
-4940 -4952 5978 0
-4940 -4953 5979 0
-4940 -4954 5980 0
-4940 -4955 5981 0
-4940 -4956 5982 0
-4940 -4957 5983 0
-4940 -4958 5984 0
-4941 -4950 5977 0
-4941 -4951 5978 0
-4941 -4952 5979 0
-4941 -4953 5980 0
-4941 -4954 5981 0
-4941 -4955 5982 0
-4941 -4956 5983 0
-4941 -4957 5984 0
-4942 -4950 5978 0
-4942 -4951 5979 0
-4942 -4952 5980 0
-4942 -4953 5981 0
-4942 -4954 5982 0
-4942 -4955 5983 0
-4942 -4956 5984 0
-4943 -4950 5979 0
-4943 -4951 5980 0
-4943 -4952 5981 0
-4943 -4953 5982 0
-4943 -4954 5983 0
-4943 -4955 5984 0
-4944 -4950 5980 0
-4944 -4951 5981 0
-4944 -4952 5982 0
-4944 -4953 5983 0
-4944 -4954 5984 0
-4945 -4950 5981 0
-4945 -4951 5982 0
-4945 -4952 5983 0
-4945 -4953 5984 0
-4946 -4950 5982 0
-4946 -4951 5983 0
-4946 -4952 5984 0
-4947 -4950 5983 0
-4947 -4951 5984 0
-4948 -4950 5984 0
-4980 5985 0
-4981 5986 0
-4982 5987 0
-4983 5988 0
-4984 5989 0
-4985 5990 0
-4986 5991 0
-4987 5992 0
-4988 5993 0
-4989 5994 0
-4990 5995 0
-4991 5996 0
-4992 5997 0
-4993 5998 0
-4994 5999 0
-4965 5985 0
-4966 5986 0
-4967 5987 0
-4968 5988 0
-4969 5989 0
-4970 5990 0
-4971 5991 0
-4972 5992 0
-4973 5993 0
-4974 5994 0
-4975 5995 0
-4976 5996 0
-4977 5997 0
-4978 5998 0
-4979 5999 0
-4965 -4980 5986 0
-4965 -4981 5987 0
-4965 -4982 5988 0
-4965 -4983 5989 0
-4965 -4984 5990 0
-4965 -4985 5991 0
-4965 -4986 5992 0
-4965 -4987 5993 0
-4965 -4988 5994 0
-4965 -4989 5995 0
-4965 -4990 5996 0
-4965 -4991 5997 0
-4965 -4992 5998 0
-4965 -4993 5999 0
-4966 -4980 5987 0
-4966 -4981 5988 0
-4966 -4982 5989 0
-4966 -4983 5990 0
-4966 -4984 5991 0
-4966 -4985 5992 0
-4966 -4986 5993 0
-4966 -4987 5994 0
-4966 -4988 5995 0
-4966 -4989 5996 0
-4966 -4990 5997 0
-4966 -4991 5998 0
-4966 -4992 5999 0
-4967 -4980 5988 0
-4967 -4981 5989 0
-4967 -4982 5990 0
-4967 -4983 5991 0
-4967 -4984 5992 0
-4967 -4985 5993 0
-4967 -4986 5994 0
-4967 -4987 5995 0
-4967 -4988 5996 0
-4967 -4989 5997 0
-4967 -4990 5998 0
-4967 -4991 5999 0
-4968 -4980 5989 0
-4968 -4981 5990 0
-4968 -4982 5991 0
-4968 -4983 5992 0
-4968 -4984 5993 0
-4968 -4985 5994 0
-4968 -4986 5995 0
-4968 -4987 5996 0
-4968 -4988 5997 0
-4968 -4989 5998 0
-4968 -4990 5999 0
-4969 -4980 5990 0
-4969 -4981 5991 0
-4969 -4982 5992 0
-4969 -4983 5993 0
-4969 -4984 5994 0
-4969 -4985 5995 0
-4969 -4986 5996 0
-4969 -4987 5997 0
-4969 -4988 5998 0
-4969 -4989 5999 0
-4970 -4980 5991 0
-4970 -4981 5992 0
-4970 -4982 5993 0
-4970 -4983 5994 0
-4970 -4984 5995 0
-4970 -4985 5996 0
-4970 -4986 5997 0
-4970 -4987 5998 0
-4970 -4988 5999 0
-4971 -4980 5992 0
-4971 -4981 5993 0
-4971 -4982 5994 0
-4971 -4983 5995 0
-4971 -4984 5996 0
-4971 -4985 5997 0
-4971 -4986 5998 0
-4971 -4987 5999 0
-4972 -4980 5993 0
-4972 -4981 5994 0
-4972 -4982 5995 0
-4972 -4983 5996 0
-4972 -4984 5997 0
-4972 -4985 5998 0
-4972 -4986 5999 0
-4973 -4980 5994 0
-4973 -4981 5995 0
-4973 -4982 5996 0
-4973 -4983 5997 0
-4973 -4984 5998 0
-4973 -4985 5999 0
-4974 -4980 5995 0
-4974 -4981 5996 0
-4974 -4982 5997 0
-4974 -4983 5998 0
-4974 -4984 5999 0
-4975 -4980 5996 0
-4975 -4981 5997 0
-4975 -4982 5998 0
-4975 -4983 5999 0
-4976 -4980 5997 0
-4976 -4981 5998 0
-4976 -4982 5999 0
-4977 -4980 5998 0
-4977 -4981 5999 0
-4978 -4980 5999 0
-5010 6000 0
-5011 6001 0
-5012 6002 0
-5013 6003 0
-5014 6004 0
-5015 6005 0
-5016 6006 0
-5017 6007 0
-5018 6008 0
-5019 6009 0
-5020 6010 0
-5021 6011 0
-5022 6012 0
-5023 6013 0
-5024 6014 0
-4995 6000 0
-4996 6001 0
-4997 6002 0
-4998 6003 0
-4999 6004 0
-5000 6005 0
-5001 6006 0
-5002 6007 0
-5003 6008 0
-5004 6009 0
-5005 6010 0
-5006 6011 0
-5007 6012 0
-5008 6013 0
-5009 6014 0
-4995 -5010 6001 0
-4995 -5011 6002 0
-4995 -5012 6003 0
-4995 -5013 6004 0
-4995 -5014 6005 0
-4995 -5015 6006 0
-4995 -5016 6007 0
-4995 -5017 6008 0
-4995 -5018 6009 0
-4995 -5019 6010 0
-4995 -5020 6011 0
-4995 -5021 6012 0
-4995 -5022 6013 0
-4995 -5023 6014 0
-4996 -5010 6002 0
-4996 -5011 6003 0
-4996 -5012 6004 0
-4996 -5013 6005 0
-4996 -5014 6006 0
-4996 -5015 6007 0
-4996 -5016 6008 0
-4996 -5017 6009 0
-4996 -5018 6010 0
-4996 -5019 6011 0
-4996 -5020 6012 0
-4996 -5021 6013 0
-4996 -5022 6014 0
-4997 -5010 6003 0
-4997 -5011 6004 0
-4997 -5012 6005 0
-4997 -5013 6006 0
-4997 -5014 6007 0
-4997 -5015 6008 0
-4997 -5016 6009 0
-4997 -5017 6010 0
-4997 -5018 6011 0
-4997 -5019 6012 0
-4997 -5020 6013 0
-4997 -5021 6014 0
-4998 -5010 6004 0
-4998 -5011 6005 0
-4998 -5012 6006 0
-4998 -5013 6007 0
-4998 -5014 6008 0
-4998 -5015 6009 0
-4998 -5016 6010 0
-4998 -5017 6011 0
-4998 -5018 6012 0
-4998 -5019 6013 0
-4998 -5020 6014 0
-4999 -5010 6005 0
-4999 -5011 6006 0
-4999 -5012 6007 0
-4999 -5013 6008 0
-4999 -5014 6009 0
-4999 -5015 6010 0
-4999 -5016 6011 0
-4999 -5017 6012 0
-4999 -5018 6013 0
-4999 -5019 6014 0
-5000 -5010 6006 0
-5000 -5011 6007 0
-5000 -5012 6008 0
-5000 -5013 6009 0
-5000 -5014 6010 0
-5000 -5015 6011 0
-5000 -5016 6012 0
-5000 -5017 6013 0
-5000 -5018 6014 0
-5001 -5010 6007 0
-5001 -5011 6008 0
-5001 -5012 6009 0
-5001 -5013 6010 0
-5001 -5014 6011 0
-5001 -5015 6012 0
-5001 -5016 6013 0
-5001 -5017 6014 0
-5002 -5010 6008 0
-5002 -5011 6009 0
-5002 -5012 6010 0
-5002 -5013 6011 0
-5002 -5014 6012 0
-5002 -5015 6013 0
-5002 -5016 6014 0
-5003 -5010 6009 0
-5003 -5011 6010 0
-5003 -5012 6011 0
-5003 -5013 6012 0
-5003 -5014 6013 0
-5003 -5015 6014 0
-5004 -5010 6010 0
-5004 -5011 6011 0
-5004 -5012 6012 0
-5004 -5013 6013 0
-5004 -5014 6014 0
-5005 -5010 6011 0
-5005 -5011 6012 0
-5005 -5012 6013 0
-5005 -5013 6014 0
-5006 -5010 6012 0
-5006 -5011 6013 0
-5006 -5012 6014 0
-5007 -5010 6013 0
-5007 -5011 6014 0
-5008 -5010 6014 0
-5040 6015 0
-5041 6016 0
-5042 6017 0
-5043 6018 0
-5044 6019 0
-5045 6020 0
-5046 6021 0
-5047 6022 0
-5048 6023 0
-5049 6024 0
-5050 6025 0
-5051 6026 0
-5052 6027 0
-5053 6028 0
-5054 6029 0
-5025 6015 0
-5026 6016 0
-5027 6017 0
-5028 6018 0
-5029 6019 0
-5030 6020 0
-5031 6021 0
-5032 6022 0
-5033 6023 0
-5034 6024 0
-5035 6025 0
-5036 6026 0
-5037 6027 0
-5038 6028 0
-5039 6029 0
-5025 -5040 6016 0
-5025 -5041 6017 0
-5025 -5042 6018 0
-5025 -5043 6019 0
-5025 -5044 6020 0
-5025 -5045 6021 0
-5025 -5046 6022 0
-5025 -5047 6023 0
-5025 -5048 6024 0
-5025 -5049 6025 0
-5025 -5050 6026 0
-5025 -5051 6027 0
-5025 -5052 6028 0
-5025 -5053 6029 0
-5026 -5040 6017 0
-5026 -5041 6018 0
-5026 -5042 6019 0
-5026 -5043 6020 0
-5026 -5044 6021 0
-5026 -5045 6022 0
-5026 -5046 6023 0
-5026 -5047 6024 0
-5026 -5048 6025 0
-5026 -5049 6026 0
-5026 -5050 6027 0
-5026 -5051 6028 0
-5026 -5052 6029 0
-5027 -5040 6018 0
-5027 -5041 6019 0
-5027 -5042 6020 0
-5027 -5043 6021 0
-5027 -5044 6022 0
-5027 -5045 6023 0
-5027 -5046 6024 0
-5027 -5047 6025 0
-5027 -5048 6026 0
-5027 -5049 6027 0
-5027 -5050 6028 0
-5027 -5051 6029 0
-5028 -5040 6019 0
-5028 -5041 6020 0
-5028 -5042 6021 0
-5028 -5043 6022 0
-5028 -5044 6023 0
-5028 -5045 6024 0
-5028 -5046 6025 0
-5028 -5047 6026 0
-5028 -5048 6027 0
-5028 -5049 6028 0
-5028 -5050 6029 0
-5029 -5040 6020 0
-5029 -5041 6021 0
-5029 -5042 6022 0
-5029 -5043 6023 0
-5029 -5044 6024 0
-5029 -5045 6025 0
-5029 -5046 6026 0
-5029 -5047 6027 0
-5029 -5048 6028 0
-5029 -5049 6029 0
-5030 -5040 6021 0
-5030 -5041 6022 0
-5030 -5042 6023 0
-5030 -5043 6024 0
-5030 -5044 6025 0
-5030 -5045 6026 0
-5030 -5046 6027 0
-5030 -5047 6028 0
-5030 -5048 6029 0
-5031 -5040 6022 0
-5031 -5041 6023 0
-5031 -5042 6024 0
-5031 -5043 6025 0
-5031 -5044 6026 0
-5031 -5045 6027 0
-5031 -5046 6028 0
-5031 -5047 6029 0
-5032 -5040 6023 0
-5032 -5041 6024 0
-5032 -5042 6025 0
-5032 -5043 6026 0
-5032 -5044 6027 0
-5032 -5045 6028 0
-5032 -5046 6029 0
-5033 -5040 6024 0
-5033 -5041 6025 0
-5033 -5042 6026 0
-5033 -5043 6027 0
-5033 -5044 6028 0
-5033 -5045 6029 0
-5034 -5040 6025 0
-5034 -5041 6026 0
-5034 -5042 6027 0
-5034 -5043 6028 0
-5034 -5044 6029 0
-5035 -5040 6026 0
-5035 -5041 6027 0
-5035 -5042 6028 0
-5035 -5043 6029 0
-5036 -5040 6027 0
-5036 -5041 6028 0
-5036 -5042 6029 0
-5037 -5040 6028 0
-5037 -5041 6029 0
-5038 -5040 6029 0
-5070 6030 0
-5071 6031 0
-5072 6032 0
-5073 6033 0
-5074 6034 0
-5075 6035 0
-5076 6036 0
-5077 6037 0
-5078 6038 0
-5079 6039 0
-5080 6040 0
-5081 6041 0
-5082 6042 0
-5083 6043 0
-5084 6044 0
-5055 6030 0
-5056 6031 0
-5057 6032 0
-5058 6033 0
-5059 6034 0
-5060 6035 0
-5061 6036 0
-5062 6037 0
-5063 6038 0
-5064 6039 0
-5065 6040 0
-5066 6041 0
-5067 6042 0
-5068 6043 0
-5069 6044 0
-5055 -5070 6031 0
-5055 -5071 6032 0
-5055 -5072 6033 0
-5055 -5073 6034 0
-5055 -5074 6035 0
-5055 -5075 6036 0
-5055 -5076 6037 0
-5055 -5077 6038 0
-5055 -5078 6039 0
-5055 -5079 6040 0
-5055 -5080 6041 0
-5055 -5081 6042 0
-5055 -5082 6043 0
-5055 -5083 6044 0
-5056 -5070 6032 0
-5056 -5071 6033 0
-5056 -5072 6034 0
-5056 -5073 6035 0
-5056 -5074 6036 0
-5056 -5075 6037 0
-5056 -5076 6038 0
-5056 -5077 6039 0
-5056 -5078 6040 0
-5056 -5079 6041 0
-5056 -5080 6042 0
-5056 -5081 6043 0
-5056 -5082 6044 0
-5057 -5070 6033 0
-5057 -5071 6034 0
-5057 -5072 6035 0
-5057 -5073 6036 0
-5057 -5074 6037 0
-5057 -5075 6038 0
-5057 -5076 6039 0
-5057 -5077 6040 0
-5057 -5078 6041 0
-5057 -5079 6042 0
-5057 -5080 6043 0
-5057 -5081 6044 0
-5058 -5070 6034 0
-5058 -5071 6035 0
-5058 -5072 6036 0
-5058 -5073 6037 0
-5058 -5074 6038 0
-5058 -5075 6039 0
-5058 -5076 6040 0
-5058 -5077 6041 0
-5058 -5078 6042 0
-5058 -5079 6043 0
-5058 -5080 6044 0
-5059 -5070 6035 0
-5059 -5071 6036 0
-5059 -5072 6037 0
-5059 -5073 6038 0
-5059 -5074 6039 0
-5059 -5075 6040 0
-5059 -5076 6041 0
-5059 -5077 6042 0
-5059 -5078 6043 0
-5059 -5079 6044 0
-5060 -5070 6036 0
-5060 -5071 6037 0
-5060 -5072 6038 0
-5060 -5073 6039 0
-5060 -5074 6040 0
-5060 -5075 6041 0
-5060 -5076 6042 0
-5060 -5077 6043 0
-5060 -5078 6044 0
-5061 -5070 6037 0
-5061 -5071 6038 0
-5061 -5072 6039 0
-5061 -5073 6040 0
-5061 -5074 6041 0
-5061 -5075 6042 0
-5061 -5076 6043 0
-5061 -5077 6044 0
-5062 -5070 6038 0
-5062 -5071 6039 0
-5062 -5072 6040 0
-5062 -5073 6041 0
-5062 -5074 6042 0
-5062 -5075 6043 0
-5062 -5076 6044 0
-5063 -5070 6039 0
-5063 -5071 6040 0
-5063 -5072 6041 0
-5063 -5073 6042 0
-5063 -5074 6043 0
-5063 -5075 6044 0
-5064 -5070 6040 0
-5064 -5071 6041 0
-5064 -5072 6042 0
-5064 -5073 6043 0
-5064 -5074 6044 0
-5065 -5070 6041 0
-5065 -5071 6042 0
-5065 -5072 6043 0
-5065 -5073 6044 0
-5066 -5070 6042 0
-5066 -5071 6043 0
-5066 -5072 6044 0
-5067 -5070 6043 0
-5067 -5071 6044 0
-5068 -5070 6044 0
-5100 6045 0
-5101 6046 0
-5102 6047 0
-5103 6048 0
-5104 6049 0
-5105 6050 0
-5106 6051 0
-5107 6052 0
-5108 6053 0
-5109 6054 0
-5110 6055 0
-5111 6056 0
-5112 6057 0
-5113 6058 0
-5114 6059 0
-5085 6045 0
-5086 6046 0
-5087 6047 0
-5088 6048 0
-5089 6049 0
-5090 6050 0
-5091 6051 0
-5092 6052 0
-5093 6053 0
-5094 6054 0
-5095 6055 0
-5096 6056 0
-5097 6057 0
-5098 6058 0
-5099 6059 0
-5085 -5100 6046 0
-5085 -5101 6047 0
-5085 -5102 6048 0
-5085 -5103 6049 0
-5085 -5104 6050 0
-5085 -5105 6051 0
-5085 -5106 6052 0
-5085 -5107 6053 0
-5085 -5108 6054 0
-5085 -5109 6055 0
-5085 -5110 6056 0
-5085 -5111 6057 0
-5085 -5112 6058 0
-5085 -5113 6059 0
-5086 -5100 6047 0
-5086 -5101 6048 0
-5086 -5102 6049 0
-5086 -5103 6050 0
-5086 -5104 6051 0
-5086 -5105 6052 0
-5086 -5106 6053 0
-5086 -5107 6054 0
-5086 -5108 6055 0
-5086 -5109 6056 0
-5086 -5110 6057 0
-5086 -5111 6058 0
-5086 -5112 6059 0
-5087 -5100 6048 0
-5087 -5101 6049 0
-5087 -5102 6050 0
-5087 -5103 6051 0
-5087 -5104 6052 0
-5087 -5105 6053 0
-5087 -5106 6054 0
-5087 -5107 6055 0
-5087 -5108 6056 0
-5087 -5109 6057 0
-5087 -5110 6058 0
-5087 -5111 6059 0
-5088 -5100 6049 0
-5088 -5101 6050 0
-5088 -5102 6051 0
-5088 -5103 6052 0
-5088 -5104 6053 0
-5088 -5105 6054 0
-5088 -5106 6055 0
-5088 -5107 6056 0
-5088 -5108 6057 0
-5088 -5109 6058 0
-5088 -5110 6059 0
-5089 -5100 6050 0
-5089 -5101 6051 0
-5089 -5102 6052 0
-5089 -5103 6053 0
-5089 -5104 6054 0
-5089 -5105 6055 0
-5089 -5106 6056 0
-5089 -5107 6057 0
-5089 -5108 6058 0
-5089 -5109 6059 0
-5090 -5100 6051 0
-5090 -5101 6052 0
-5090 -5102 6053 0
-5090 -5103 6054 0
-5090 -5104 6055 0
-5090 -5105 6056 0
-5090 -5106 6057 0
-5090 -5107 6058 0
-5090 -5108 6059 0
-5091 -5100 6052 0
-5091 -5101 6053 0
-5091 -5102 6054 0
-5091 -5103 6055 0
-5091 -5104 6056 0
-5091 -5105 6057 0
-5091 -5106 6058 0
-5091 -5107 6059 0
-5092 -5100 6053 0
-5092 -5101 6054 0
-5092 -5102 6055 0
-5092 -5103 6056 0
-5092 -5104 6057 0
-5092 -5105 6058 0
-5092 -5106 6059 0
-5093 -5100 6054 0
-5093 -5101 6055 0
-5093 -5102 6056 0
-5093 -5103 6057 0
-5093 -5104 6058 0
-5093 -5105 6059 0
-5094 -5100 6055 0
-5094 -5101 6056 0
-5094 -5102 6057 0
-5094 -5103 6058 0
-5094 -5104 6059 0
-5095 -5100 6056 0
-5095 -5101 6057 0
-5095 -5102 6058 0
-5095 -5103 6059 0
-5096 -5100 6057 0
-5096 -5101 6058 0
-5096 -5102 6059 0
-5097 -5100 6058 0
-5097 -5101 6059 0
-5098 -5100 6059 0
-5130 6060 0
-5131 6061 0
-5132 6062 0
-5133 6063 0
-5134 6064 0
-5135 6065 0
-5136 6066 0
-5137 6067 0
-5138 6068 0
-5139 6069 0
-5140 6070 0
-5141 6071 0
-5142 6072 0
-5143 6073 0
-5144 6074 0
-5115 6060 0
-5116 6061 0
-5117 6062 0
-5118 6063 0
-5119 6064 0
-5120 6065 0
-5121 6066 0
-5122 6067 0
-5123 6068 0
-5124 6069 0
-5125 6070 0
-5126 6071 0
-5127 6072 0
-5128 6073 0
-5129 6074 0
-5115 -5130 6061 0
-5115 -5131 6062 0
-5115 -5132 6063 0
-5115 -5133 6064 0
-5115 -5134 6065 0
-5115 -5135 6066 0
-5115 -5136 6067 0
-5115 -5137 6068 0
-5115 -5138 6069 0
-5115 -5139 6070 0
-5115 -5140 6071 0
-5115 -5141 6072 0
-5115 -5142 6073 0
-5115 -5143 6074 0
-5116 -5130 6062 0
-5116 -5131 6063 0
-5116 -5132 6064 0
-5116 -5133 6065 0
-5116 -5134 6066 0
-5116 -5135 6067 0
-5116 -5136 6068 0
-5116 -5137 6069 0
-5116 -5138 6070 0
-5116 -5139 6071 0
-5116 -5140 6072 0
-5116 -5141 6073 0
-5116 -5142 6074 0
-5117 -5130 6063 0
-5117 -5131 6064 0
-5117 -5132 6065 0
-5117 -5133 6066 0
-5117 -5134 6067 0
-5117 -5135 6068 0
-5117 -5136 6069 0
-5117 -5137 6070 0
-5117 -5138 6071 0
-5117 -5139 6072 0
-5117 -5140 6073 0
-5117 -5141 6074 0
-5118 -5130 6064 0
-5118 -5131 6065 0
-5118 -5132 6066 0
-5118 -5133 6067 0
-5118 -5134 6068 0
-5118 -5135 6069 0
-5118 -5136 6070 0
-5118 -5137 6071 0
-5118 -5138 6072 0
-5118 -5139 6073 0
-5118 -5140 6074 0
-5119 -5130 6065 0
-5119 -5131 6066 0
-5119 -5132 6067 0
-5119 -5133 6068 0
-5119 -5134 6069 0
-5119 -5135 6070 0
-5119 -5136 6071 0
-5119 -5137 6072 0
-5119 -5138 6073 0
-5119 -5139 6074 0
-5120 -5130 6066 0
-5120 -5131 6067 0
-5120 -5132 6068 0
-5120 -5133 6069 0
-5120 -5134 6070 0
-5120 -5135 6071 0
-5120 -5136 6072 0
-5120 -5137 6073 0
-5120 -5138 6074 0
-5121 -5130 6067 0
-5121 -5131 6068 0
-5121 -5132 6069 0
-5121 -5133 6070 0
-5121 -5134 6071 0
-5121 -5135 6072 0
-5121 -5136 6073 0
-5121 -5137 6074 0
-5122 -5130 6068 0
-5122 -5131 6069 0
-5122 -5132 6070 0
-5122 -5133 6071 0
-5122 -5134 6072 0
-5122 -5135 6073 0
-5122 -5136 6074 0
-5123 -5130 6069 0
-5123 -5131 6070 0
-5123 -5132 6071 0
-5123 -5133 6072 0
-5123 -5134 6073 0
-5123 -5135 6074 0
-5124 -5130 6070 0
-5124 -5131 6071 0
-5124 -5132 6072 0
-5124 -5133 6073 0
-5124 -5134 6074 0
-5125 -5130 6071 0
-5125 -5131 6072 0
-5125 -5132 6073 0
-5125 -5133 6074 0
-5126 -5130 6072 0
-5126 -5131 6073 0
-5126 -5132 6074 0
-5127 -5130 6073 0
-5127 -5131 6074 0
-5128 -5130 6074 0
-5160 6075 0
-5161 6076 0
-5162 6077 0
-5163 6078 0
-5164 6079 0
-5165 6080 0
-5166 6081 0
-5167 6082 0
-5168 6083 0
-5169 6084 0
-5170 6085 0
-5171 6086 0
-5172 6087 0
-5173 6088 0
-5174 6089 0
-5145 6075 0
-5146 6076 0
-5147 6077 0
-5148 6078 0
-5149 6079 0
-5150 6080 0
-5151 6081 0
-5152 6082 0
-5153 6083 0
-5154 6084 0
-5155 6085 0
-5156 6086 0
-5157 6087 0
-5158 6088 0
-5159 6089 0
-5145 -5160 6076 0
-5145 -5161 6077 0
-5145 -5162 6078 0
-5145 -5163 6079 0
-5145 -5164 6080 0
-5145 -5165 6081 0
-5145 -5166 6082 0
-5145 -5167 6083 0
-5145 -5168 6084 0
-5145 -5169 6085 0
-5145 -5170 6086 0
-5145 -5171 6087 0
-5145 -5172 6088 0
-5145 -5173 6089 0
-5146 -5160 6077 0
-5146 -5161 6078 0
-5146 -5162 6079 0
-5146 -5163 6080 0
-5146 -5164 6081 0
-5146 -5165 6082 0
-5146 -5166 6083 0
-5146 -5167 6084 0
-5146 -5168 6085 0
-5146 -5169 6086 0
-5146 -5170 6087 0
-5146 -5171 6088 0
-5146 -5172 6089 0
-5147 -5160 6078 0
-5147 -5161 6079 0
-5147 -5162 6080 0
-5147 -5163 6081 0
-5147 -5164 6082 0
-5147 -5165 6083 0
-5147 -5166 6084 0
-5147 -5167 6085 0
-5147 -5168 6086 0
-5147 -5169 6087 0
-5147 -5170 6088 0
-5147 -5171 6089 0
-5148 -5160 6079 0
-5148 -5161 6080 0
-5148 -5162 6081 0
-5148 -5163 6082 0
-5148 -5164 6083 0
-5148 -5165 6084 0
-5148 -5166 6085 0
-5148 -5167 6086 0
-5148 -5168 6087 0
-5148 -5169 6088 0
-5148 -5170 6089 0
-5149 -5160 6080 0
-5149 -5161 6081 0
-5149 -5162 6082 0
-5149 -5163 6083 0
-5149 -5164 6084 0
-5149 -5165 6085 0
-5149 -5166 6086 0
-5149 -5167 6087 0
-5149 -5168 6088 0
-5149 -5169 6089 0
-5150 -5160 6081 0
-5150 -5161 6082 0
-5150 -5162 6083 0
-5150 -5163 6084 0
-5150 -5164 6085 0
-5150 -5165 6086 0
-5150 -5166 6087 0
-5150 -5167 6088 0
-5150 -5168 6089 0
-5151 -5160 6082 0
-5151 -5161 6083 0
-5151 -5162 6084 0
-5151 -5163 6085 0
-5151 -5164 6086 0
-5151 -5165 6087 0
-5151 -5166 6088 0
-5151 -5167 6089 0
-5152 -5160 6083 0
-5152 -5161 6084 0
-5152 -5162 6085 0
-5152 -5163 6086 0
-5152 -5164 6087 0
-5152 -5165 6088 0
-5152 -5166 6089 0
-5153 -5160 6084 0
-5153 -5161 6085 0
-5153 -5162 6086 0
-5153 -5163 6087 0
-5153 -5164 6088 0
-5153 -5165 6089 0
-5154 -5160 6085 0
-5154 -5161 6086 0
-5154 -5162 6087 0
-5154 -5163 6088 0
-5154 -5164 6089 0
-5155 -5160 6086 0
-5155 -5161 6087 0
-5155 -5162 6088 0
-5155 -5163 6089 0
-5156 -5160 6087 0
-5156 -5161 6088 0
-5156 -5162 6089 0
-5157 -5160 6088 0
-5157 -5161 6089 0
-5158 -5160 6089 0
-5190 6090 0
-5191 6091 0
-5192 6092 0
-5193 6093 0
-5194 6094 0
-5195 6095 0
-5196 6096 0
-5197 6097 0
-5198 6098 0
-5199 6099 0
-5200 6100 0
-5201 6101 0
-5202 6102 0
-5203 6103 0
-5204 6104 0
-5175 6090 0
-5176 6091 0
-5177 6092 0
-5178 6093 0
-5179 6094 0
-5180 6095 0
-5181 6096 0
-5182 6097 0
-5183 6098 0
-5184 6099 0
-5185 6100 0
-5186 6101 0
-5187 6102 0
-5188 6103 0
-5189 6104 0
-5175 -5190 6091 0
-5175 -5191 6092 0
-5175 -5192 6093 0
-5175 -5193 6094 0
-5175 -5194 6095 0
-5175 -5195 6096 0
-5175 -5196 6097 0
-5175 -5197 6098 0
-5175 -5198 6099 0
-5175 -5199 6100 0
-5175 -5200 6101 0
-5175 -5201 6102 0
-5175 -5202 6103 0
-5175 -5203 6104 0
-5176 -5190 6092 0
-5176 -5191 6093 0
-5176 -5192 6094 0
-5176 -5193 6095 0
-5176 -5194 6096 0
-5176 -5195 6097 0
-5176 -5196 6098 0
-5176 -5197 6099 0
-5176 -5198 6100 0
-5176 -5199 6101 0
-5176 -5200 6102 0
-5176 -5201 6103 0
-5176 -5202 6104 0
-5177 -5190 6093 0
-5177 -5191 6094 0
-5177 -5192 6095 0
-5177 -5193 6096 0
-5177 -5194 6097 0
-5177 -5195 6098 0
-5177 -5196 6099 0
-5177 -5197 6100 0
-5177 -5198 6101 0
-5177 -5199 6102 0
-5177 -5200 6103 0
-5177 -5201 6104 0
-5178 -5190 6094 0
-5178 -5191 6095 0
-5178 -5192 6096 0
-5178 -5193 6097 0
-5178 -5194 6098 0
-5178 -5195 6099 0
-5178 -5196 6100 0
-5178 -5197 6101 0
-5178 -5198 6102 0
-5178 -5199 6103 0
-5178 -5200 6104 0
-5179 -5190 6095 0
-5179 -5191 6096 0
-5179 -5192 6097 0
-5179 -5193 6098 0
-5179 -5194 6099 0
-5179 -5195 6100 0
-5179 -5196 6101 0
-5179 -5197 6102 0
-5179 -5198 6103 0
-5179 -5199 6104 0
-5180 -5190 6096 0
-5180 -5191 6097 0
-5180 -5192 6098 0
-5180 -5193 6099 0
-5180 -5194 6100 0
-5180 -5195 6101 0
-5180 -5196 6102 0
-5180 -5197 6103 0
-5180 -5198 6104 0
-5181 -5190 6097 0
-5181 -5191 6098 0
-5181 -5192 6099 0
-5181 -5193 6100 0
-5181 -5194 6101 0
-5181 -5195 6102 0
-5181 -5196 6103 0
-5181 -5197 6104 0
-5182 -5190 6098 0
-5182 -5191 6099 0
-5182 -5192 6100 0
-5182 -5193 6101 0
-5182 -5194 6102 0
-5182 -5195 6103 0
-5182 -5196 6104 0
-5183 -5190 6099 0
-5183 -5191 6100 0
-5183 -5192 6101 0
-5183 -5193 6102 0
-5183 -5194 6103 0
-5183 -5195 6104 0
-5184 -5190 6100 0
-5184 -5191 6101 0
-5184 -5192 6102 0
-5184 -5193 6103 0
-5184 -5194 6104 0
-5185 -5190 6101 0
-5185 -5191 6102 0
-5185 -5192 6103 0
-5185 -5193 6104 0
-5186 -5190 6102 0
-5186 -5191 6103 0
-5186 -5192 6104 0
-5187 -5190 6103 0
-5187 -5191 6104 0
-5188 -5190 6104 0
-5220 6105 0
-5221 6106 0
-5222 6107 0
-5223 6108 0
-5224 6109 0
-5225 6110 0
-5226 6111 0
-5227 6112 0
-5228 6113 0
-5229 6114 0
-5230 6115 0
-5231 6116 0
-5232 6117 0
-5233 6118 0
-5234 6119 0
-5205 6105 0
-5206 6106 0
-5207 6107 0
-5208 6108 0
-5209 6109 0
-5210 6110 0
-5211 6111 0
-5212 6112 0
-5213 6113 0
-5214 6114 0
-5215 6115 0
-5216 6116 0
-5217 6117 0
-5218 6118 0
-5219 6119 0
-5205 -5220 6106 0
-5205 -5221 6107 0
-5205 -5222 6108 0
-5205 -5223 6109 0
-5205 -5224 6110 0
-5205 -5225 6111 0
-5205 -5226 6112 0
-5205 -5227 6113 0
-5205 -5228 6114 0
-5205 -5229 6115 0
-5205 -5230 6116 0
-5205 -5231 6117 0
-5205 -5232 6118 0
-5205 -5233 6119 0
-5206 -5220 6107 0
-5206 -5221 6108 0
-5206 -5222 6109 0
-5206 -5223 6110 0
-5206 -5224 6111 0
-5206 -5225 6112 0
-5206 -5226 6113 0
-5206 -5227 6114 0
-5206 -5228 6115 0
-5206 -5229 6116 0
-5206 -5230 6117 0
-5206 -5231 6118 0
-5206 -5232 6119 0
-5207 -5220 6108 0
-5207 -5221 6109 0
-5207 -5222 6110 0
-5207 -5223 6111 0
-5207 -5224 6112 0
-5207 -5225 6113 0
-5207 -5226 6114 0
-5207 -5227 6115 0
-5207 -5228 6116 0
-5207 -5229 6117 0
-5207 -5230 6118 0
-5207 -5231 6119 0
-5208 -5220 6109 0
-5208 -5221 6110 0
-5208 -5222 6111 0
-5208 -5223 6112 0
-5208 -5224 6113 0
-5208 -5225 6114 0
-5208 -5226 6115 0
-5208 -5227 6116 0
-5208 -5228 6117 0
-5208 -5229 6118 0
-5208 -5230 6119 0
-5209 -5220 6110 0
-5209 -5221 6111 0
-5209 -5222 6112 0
-5209 -5223 6113 0
-5209 -5224 6114 0
-5209 -5225 6115 0
-5209 -5226 6116 0
-5209 -5227 6117 0
-5209 -5228 6118 0
-5209 -5229 6119 0
-5210 -5220 6111 0
-5210 -5221 6112 0
-5210 -5222 6113 0
-5210 -5223 6114 0
-5210 -5224 6115 0
-5210 -5225 6116 0
-5210 -5226 6117 0
-5210 -5227 6118 0
-5210 -5228 6119 0
-5211 -5220 6112 0
-5211 -5221 6113 0
-5211 -5222 6114 0
-5211 -5223 6115 0
-5211 -5224 6116 0
-5211 -5225 6117 0
-5211 -5226 6118 0
-5211 -5227 6119 0
-5212 -5220 6113 0
-5212 -5221 6114 0
-5212 -5222 6115 0
-5212 -5223 6116 0
-5212 -5224 6117 0
-5212 -5225 6118 0
-5212 -5226 6119 0
-5213 -5220 6114 0
-5213 -5221 6115 0
-5213 -5222 6116 0
-5213 -5223 6117 0
-5213 -5224 6118 0
-5213 -5225 6119 0
-5214 -5220 6115 0
-5214 -5221 6116 0
-5214 -5222 6117 0
-5214 -5223 6118 0
-5214 -5224 6119 0
-5215 -5220 6116 0
-5215 -5221 6117 0
-5215 -5222 6118 0
-5215 -5223 6119 0
-5216 -5220 6117 0
-5216 -5221 6118 0
-5216 -5222 6119 0
-5217 -5220 6118 0
-5217 -5221 6119 0
-5218 -5220 6119 0
-5250 6120 0
-5251 6121 0
-5252 6122 0
-5253 6123 0
-5254 6124 0
-5255 6125 0
-5256 6126 0
-5257 6127 0
-5258 6128 0
-5259 6129 0
-5260 6130 0
-5261 6131 0
-5262 6132 0
-5263 6133 0
-5264 6134 0
-5235 6120 0
-5236 6121 0
-5237 6122 0
-5238 6123 0
-5239 6124 0
-5240 6125 0
-5241 6126 0
-5242 6127 0
-5243 6128 0
-5244 6129 0
-5245 6130 0
-5246 6131 0
-5247 6132 0
-5248 6133 0
-5249 6134 0
-5235 -5250 6121 0
-5235 -5251 6122 0
-5235 -5252 6123 0
-5235 -5253 6124 0
-5235 -5254 6125 0
-5235 -5255 6126 0
-5235 -5256 6127 0
-5235 -5257 6128 0
-5235 -5258 6129 0
-5235 -5259 6130 0
-5235 -5260 6131 0
-5235 -5261 6132 0
-5235 -5262 6133 0
-5235 -5263 6134 0
-5236 -5250 6122 0
-5236 -5251 6123 0
-5236 -5252 6124 0
-5236 -5253 6125 0
-5236 -5254 6126 0
-5236 -5255 6127 0
-5236 -5256 6128 0
-5236 -5257 6129 0
-5236 -5258 6130 0
-5236 -5259 6131 0
-5236 -5260 6132 0
-5236 -5261 6133 0
-5236 -5262 6134 0
-5237 -5250 6123 0
-5237 -5251 6124 0
-5237 -5252 6125 0
-5237 -5253 6126 0
-5237 -5254 6127 0
-5237 -5255 6128 0
-5237 -5256 6129 0
-5237 -5257 6130 0
-5237 -5258 6131 0
-5237 -5259 6132 0
-5237 -5260 6133 0
-5237 -5261 6134 0
-5238 -5250 6124 0
-5238 -5251 6125 0
-5238 -5252 6126 0
-5238 -5253 6127 0
-5238 -5254 6128 0
-5238 -5255 6129 0
-5238 -5256 6130 0
-5238 -5257 6131 0
-5238 -5258 6132 0
-5238 -5259 6133 0
-5238 -5260 6134 0
-5239 -5250 6125 0
-5239 -5251 6126 0
-5239 -5252 6127 0
-5239 -5253 6128 0
-5239 -5254 6129 0
-5239 -5255 6130 0
-5239 -5256 6131 0
-5239 -5257 6132 0
-5239 -5258 6133 0
-5239 -5259 6134 0
-5240 -5250 6126 0
-5240 -5251 6127 0
-5240 -5252 6128 0
-5240 -5253 6129 0
-5240 -5254 6130 0
-5240 -5255 6131 0
-5240 -5256 6132 0
-5240 -5257 6133 0
-5240 -5258 6134 0
-5241 -5250 6127 0
-5241 -5251 6128 0
-5241 -5252 6129 0
-5241 -5253 6130 0
-5241 -5254 6131 0
-5241 -5255 6132 0
-5241 -5256 6133 0
-5241 -5257 6134 0
-5242 -5250 6128 0
-5242 -5251 6129 0
-5242 -5252 6130 0
-5242 -5253 6131 0
-5242 -5254 6132 0
-5242 -5255 6133 0
-5242 -5256 6134 0
-5243 -5250 6129 0
-5243 -5251 6130 0
-5243 -5252 6131 0
-5243 -5253 6132 0
-5243 -5254 6133 0
-5243 -5255 6134 0
-5244 -5250 6130 0
-5244 -5251 6131 0
-5244 -5252 6132 0
-5244 -5253 6133 0
-5244 -5254 6134 0
-5245 -5250 6131 0
-5245 -5251 6132 0
-5245 -5252 6133 0
-5245 -5253 6134 0
-5246 -5250 6132 0
-5246 -5251 6133 0
-5246 -5252 6134 0
-5247 -5250 6133 0
-5247 -5251 6134 0
-5248 -5250 6134 0
-5280 6135 0
-5281 6136 0
-5282 6137 0
-5283 6138 0
-5284 6139 0
-5285 6140 0
-5286 6141 0
-5287 6142 0
-5288 6143 0
-5289 6144 0
-5290 6145 0
-5291 6146 0
-5292 6147 0
-5293 6148 0
-5294 6149 0
-5265 6135 0
-5266 6136 0
-5267 6137 0
-5268 6138 0
-5269 6139 0
-5270 6140 0
-5271 6141 0
-5272 6142 0
-5273 6143 0
-5274 6144 0
-5275 6145 0
-5276 6146 0
-5277 6147 0
-5278 6148 0
-5279 6149 0
-5265 -5280 6136 0
-5265 -5281 6137 0
-5265 -5282 6138 0
-5265 -5283 6139 0
-5265 -5284 6140 0
-5265 -5285 6141 0
-5265 -5286 6142 0
-5265 -5287 6143 0
-5265 -5288 6144 0
-5265 -5289 6145 0
-5265 -5290 6146 0
-5265 -5291 6147 0
-5265 -5292 6148 0
-5265 -5293 6149 0
-5266 -5280 6137 0
-5266 -5281 6138 0
-5266 -5282 6139 0
-5266 -5283 6140 0
-5266 -5284 6141 0
-5266 -5285 6142 0
-5266 -5286 6143 0
-5266 -5287 6144 0
-5266 -5288 6145 0
-5266 -5289 6146 0
-5266 -5290 6147 0
-5266 -5291 6148 0
-5266 -5292 6149 0
-5267 -5280 6138 0
-5267 -5281 6139 0
-5267 -5282 6140 0
-5267 -5283 6141 0
-5267 -5284 6142 0
-5267 -5285 6143 0
-5267 -5286 6144 0
-5267 -5287 6145 0
-5267 -5288 6146 0
-5267 -5289 6147 0
-5267 -5290 6148 0
-5267 -5291 6149 0
-5268 -5280 6139 0
-5268 -5281 6140 0
-5268 -5282 6141 0
-5268 -5283 6142 0
-5268 -5284 6143 0
-5268 -5285 6144 0
-5268 -5286 6145 0
-5268 -5287 6146 0
-5268 -5288 6147 0
-5268 -5289 6148 0
-5268 -5290 6149 0
-5269 -5280 6140 0
-5269 -5281 6141 0
-5269 -5282 6142 0
-5269 -5283 6143 0
-5269 -5284 6144 0
-5269 -5285 6145 0
-5269 -5286 6146 0
-5269 -5287 6147 0
-5269 -5288 6148 0
-5269 -5289 6149 0
-5270 -5280 6141 0
-5270 -5281 6142 0
-5270 -5282 6143 0
-5270 -5283 6144 0
-5270 -5284 6145 0
-5270 -5285 6146 0
-5270 -5286 6147 0
-5270 -5287 6148 0
-5270 -5288 6149 0
-5271 -5280 6142 0
-5271 -5281 6143 0
-5271 -5282 6144 0
-5271 -5283 6145 0
-5271 -5284 6146 0
-5271 -5285 6147 0
-5271 -5286 6148 0
-5271 -5287 6149 0
-5272 -5280 6143 0
-5272 -5281 6144 0
-5272 -5282 6145 0
-5272 -5283 6146 0
-5272 -5284 6147 0
-5272 -5285 6148 0
-5272 -5286 6149 0
-5273 -5280 6144 0
-5273 -5281 6145 0
-5273 -5282 6146 0
-5273 -5283 6147 0
-5273 -5284 6148 0
-5273 -5285 6149 0
-5274 -5280 6145 0
-5274 -5281 6146 0
-5274 -5282 6147 0
-5274 -5283 6148 0
-5274 -5284 6149 0
-5275 -5280 6146 0
-5275 -5281 6147 0
-5275 -5282 6148 0
-5275 -5283 6149 0
-5276 -5280 6147 0
-5276 -5281 6148 0
-5276 -5282 6149 0
-5277 -5280 6148 0
-5277 -5281 6149 0
-5278 -5280 6149 0
-5310 6150 0
-5311 6151 0
-5312 6152 0
-5313 6153 0
-5314 6154 0
-5315 6155 0
-5316 6156 0
-5317 6157 0
-5318 6158 0
-5319 6159 0
-5320 6160 0
-5321 6161 0
-5322 6162 0
-5323 6163 0
-5324 6164 0
-5295 6150 0
-5296 6151 0
-5297 6152 0
-5298 6153 0
-5299 6154 0
-5300 6155 0
-5301 6156 0
-5302 6157 0
-5303 6158 0
-5304 6159 0
-5305 6160 0
-5306 6161 0
-5307 6162 0
-5308 6163 0
-5309 6164 0
-5295 -5310 6151 0
-5295 -5311 6152 0
-5295 -5312 6153 0
-5295 -5313 6154 0
-5295 -5314 6155 0
-5295 -5315 6156 0
-5295 -5316 6157 0
-5295 -5317 6158 0
-5295 -5318 6159 0
-5295 -5319 6160 0
-5295 -5320 6161 0
-5295 -5321 6162 0
-5295 -5322 6163 0
-5295 -5323 6164 0
-5296 -5310 6152 0
-5296 -5311 6153 0
-5296 -5312 6154 0
-5296 -5313 6155 0
-5296 -5314 6156 0
-5296 -5315 6157 0
-5296 -5316 6158 0
-5296 -5317 6159 0
-5296 -5318 6160 0
-5296 -5319 6161 0
-5296 -5320 6162 0
-5296 -5321 6163 0
-5296 -5322 6164 0
-5297 -5310 6153 0
-5297 -5311 6154 0
-5297 -5312 6155 0
-5297 -5313 6156 0
-5297 -5314 6157 0
-5297 -5315 6158 0
-5297 -5316 6159 0
-5297 -5317 6160 0
-5297 -5318 6161 0
-5297 -5319 6162 0
-5297 -5320 6163 0
-5297 -5321 6164 0
-5298 -5310 6154 0
-5298 -5311 6155 0
-5298 -5312 6156 0
-5298 -5313 6157 0
-5298 -5314 6158 0
-5298 -5315 6159 0
-5298 -5316 6160 0
-5298 -5317 6161 0
-5298 -5318 6162 0
-5298 -5319 6163 0
-5298 -5320 6164 0
-5299 -5310 6155 0
-5299 -5311 6156 0
-5299 -5312 6157 0
-5299 -5313 6158 0
-5299 -5314 6159 0
-5299 -5315 6160 0
-5299 -5316 6161 0
-5299 -5317 6162 0
-5299 -5318 6163 0
-5299 -5319 6164 0
-5300 -5310 6156 0
-5300 -5311 6157 0
-5300 -5312 6158 0
-5300 -5313 6159 0
-5300 -5314 6160 0
-5300 -5315 6161 0
-5300 -5316 6162 0
-5300 -5317 6163 0
-5300 -5318 6164 0
-5301 -5310 6157 0
-5301 -5311 6158 0
-5301 -5312 6159 0
-5301 -5313 6160 0
-5301 -5314 6161 0
-5301 -5315 6162 0
-5301 -5316 6163 0
-5301 -5317 6164 0
-5302 -5310 6158 0
-5302 -5311 6159 0
-5302 -5312 6160 0
-5302 -5313 6161 0
-5302 -5314 6162 0
-5302 -5315 6163 0
-5302 -5316 6164 0
-5303 -5310 6159 0
-5303 -5311 6160 0
-5303 -5312 6161 0
-5303 -5313 6162 0
-5303 -5314 6163 0
-5303 -5315 6164 0
-5304 -5310 6160 0
-5304 -5311 6161 0
-5304 -5312 6162 0
-5304 -5313 6163 0
-5304 -5314 6164 0
-5305 -5310 6161 0
-5305 -5311 6162 0
-5305 -5312 6163 0
-5305 -5313 6164 0
-5306 -5310 6162 0
-5306 -5311 6163 0
-5306 -5312 6164 0
-5307 -5310 6163 0
-5307 -5311 6164 0
-5308 -5310 6164 0
-5340 6165 0
-5341 6166 0
-5342 6167 0
-5343 6168 0
-5344 6169 0
-5345 6170 0
-5346 6171 0
-5347 6172 0
-5348 6173 0
-5349 6174 0
-5350 6175 0
-5351 6176 0
-5352 6177 0
-5353 6178 0
-5354 6179 0
-5325 6165 0
-5326 6166 0
-5327 6167 0
-5328 6168 0
-5329 6169 0
-5330 6170 0
-5331 6171 0
-5332 6172 0
-5333 6173 0
-5334 6174 0
-5335 6175 0
-5336 6176 0
-5337 6177 0
-5338 6178 0
-5339 6179 0
-5325 -5340 6166 0
-5325 -5341 6167 0
-5325 -5342 6168 0
-5325 -5343 6169 0
-5325 -5344 6170 0
-5325 -5345 6171 0
-5325 -5346 6172 0
-5325 -5347 6173 0
-5325 -5348 6174 0
-5325 -5349 6175 0
-5325 -5350 6176 0
-5325 -5351 6177 0
-5325 -5352 6178 0
-5325 -5353 6179 0
-5326 -5340 6167 0
-5326 -5341 6168 0
-5326 -5342 6169 0
-5326 -5343 6170 0
-5326 -5344 6171 0
-5326 -5345 6172 0
-5326 -5346 6173 0
-5326 -5347 6174 0
-5326 -5348 6175 0
-5326 -5349 6176 0
-5326 -5350 6177 0
-5326 -5351 6178 0
-5326 -5352 6179 0
-5327 -5340 6168 0
-5327 -5341 6169 0
-5327 -5342 6170 0
-5327 -5343 6171 0
-5327 -5344 6172 0
-5327 -5345 6173 0
-5327 -5346 6174 0
-5327 -5347 6175 0
-5327 -5348 6176 0
-5327 -5349 6177 0
-5327 -5350 6178 0
-5327 -5351 6179 0
-5328 -5340 6169 0
-5328 -5341 6170 0
-5328 -5342 6171 0
-5328 -5343 6172 0
-5328 -5344 6173 0
-5328 -5345 6174 0
-5328 -5346 6175 0
-5328 -5347 6176 0
-5328 -5348 6177 0
-5328 -5349 6178 0
-5328 -5350 6179 0
-5329 -5340 6170 0
-5329 -5341 6171 0
-5329 -5342 6172 0
-5329 -5343 6173 0
-5329 -5344 6174 0
-5329 -5345 6175 0
-5329 -5346 6176 0
-5329 -5347 6177 0
-5329 -5348 6178 0
-5329 -5349 6179 0
-5330 -5340 6171 0
-5330 -5341 6172 0
-5330 -5342 6173 0
-5330 -5343 6174 0
-5330 -5344 6175 0
-5330 -5345 6176 0
-5330 -5346 6177 0
-5330 -5347 6178 0
-5330 -5348 6179 0
-5331 -5340 6172 0
-5331 -5341 6173 0
-5331 -5342 6174 0
-5331 -5343 6175 0
-5331 -5344 6176 0
-5331 -5345 6177 0
-5331 -5346 6178 0
-5331 -5347 6179 0
-5332 -5340 6173 0
-5332 -5341 6174 0
-5332 -5342 6175 0
-5332 -5343 6176 0
-5332 -5344 6177 0
-5332 -5345 6178 0
-5332 -5346 6179 0
-5333 -5340 6174 0
-5333 -5341 6175 0
-5333 -5342 6176 0
-5333 -5343 6177 0
-5333 -5344 6178 0
-5333 -5345 6179 0
-5334 -5340 6175 0
-5334 -5341 6176 0
-5334 -5342 6177 0
-5334 -5343 6178 0
-5334 -5344 6179 0
-5335 -5340 6176 0
-5335 -5341 6177 0
-5335 -5342 6178 0
-5335 -5343 6179 0
-5336 -5340 6177 0
-5336 -5341 6178 0
-5336 -5342 6179 0
-5337 -5340 6178 0
-5337 -5341 6179 0
-5338 -5340 6179 0
-5370 6180 0
-5371 6181 0
-5372 6182 0
-5373 6183 0
-5374 6184 0
-5375 6185 0
-5376 6186 0
-5377 6187 0
-5378 6188 0
-5379 6189 0
-5380 6190 0
-5381 6191 0
-5382 6192 0
-5383 6193 0
-5384 6194 0
-5355 6180 0
-5356 6181 0
-5357 6182 0
-5358 6183 0
-5359 6184 0
-5360 6185 0
-5361 6186 0
-5362 6187 0
-5363 6188 0
-5364 6189 0
-5365 6190 0
-5366 6191 0
-5367 6192 0
-5368 6193 0
-5369 6194 0
-5355 -5370 6181 0
-5355 -5371 6182 0
-5355 -5372 6183 0
-5355 -5373 6184 0
-5355 -5374 6185 0
-5355 -5375 6186 0
-5355 -5376 6187 0
-5355 -5377 6188 0
-5355 -5378 6189 0
-5355 -5379 6190 0
-5355 -5380 6191 0
-5355 -5381 6192 0
-5355 -5382 6193 0
-5355 -5383 6194 0
-5356 -5370 6182 0
-5356 -5371 6183 0
-5356 -5372 6184 0
-5356 -5373 6185 0
-5356 -5374 6186 0
-5356 -5375 6187 0
-5356 -5376 6188 0
-5356 -5377 6189 0
-5356 -5378 6190 0
-5356 -5379 6191 0
-5356 -5380 6192 0
-5356 -5381 6193 0
-5356 -5382 6194 0
-5357 -5370 6183 0
-5357 -5371 6184 0
-5357 -5372 6185 0
-5357 -5373 6186 0
-5357 -5374 6187 0
-5357 -5375 6188 0
-5357 -5376 6189 0
-5357 -5377 6190 0
-5357 -5378 6191 0
-5357 -5379 6192 0
-5357 -5380 6193 0
-5357 -5381 6194 0
-5358 -5370 6184 0
-5358 -5371 6185 0
-5358 -5372 6186 0
-5358 -5373 6187 0
-5358 -5374 6188 0
-5358 -5375 6189 0
-5358 -5376 6190 0
-5358 -5377 6191 0
-5358 -5378 6192 0
-5358 -5379 6193 0
-5358 -5380 6194 0
-5359 -5370 6185 0
-5359 -5371 6186 0
-5359 -5372 6187 0
-5359 -5373 6188 0
-5359 -5374 6189 0
-5359 -5375 6190 0
-5359 -5376 6191 0
-5359 -5377 6192 0
-5359 -5378 6193 0
-5359 -5379 6194 0
-5360 -5370 6186 0
-5360 -5371 6187 0
-5360 -5372 6188 0
-5360 -5373 6189 0
-5360 -5374 6190 0
-5360 -5375 6191 0
-5360 -5376 6192 0
-5360 -5377 6193 0
-5360 -5378 6194 0
-5361 -5370 6187 0
-5361 -5371 6188 0
-5361 -5372 6189 0
-5361 -5373 6190 0
-5361 -5374 6191 0
-5361 -5375 6192 0
-5361 -5376 6193 0
-5361 -5377 6194 0
-5362 -5370 6188 0
-5362 -5371 6189 0
-5362 -5372 6190 0
-5362 -5373 6191 0
-5362 -5374 6192 0
-5362 -5375 6193 0
-5362 -5376 6194 0
-5363 -5370 6189 0
-5363 -5371 6190 0
-5363 -5372 6191 0
-5363 -5373 6192 0
-5363 -5374 6193 0
-5363 -5375 6194 0
-5364 -5370 6190 0
-5364 -5371 6191 0
-5364 -5372 6192 0
-5364 -5373 6193 0
-5364 -5374 6194 0
-5365 -5370 6191 0
-5365 -5371 6192 0
-5365 -5372 6193 0
-5365 -5373 6194 0
-5366 -5370 6192 0
-5366 -5371 6193 0
-5366 -5372 6194 0
-5367 -5370 6193 0
-5367 -5371 6194 0
-5368 -5370 6194 0
-5400 6195 0
-5401 6196 0
-5402 6197 0
-5403 6198 0
-5404 6199 0
-5405 6200 0
-5406 6201 0
-5407 6202 0
-5408 6203 0
-5409 6204 0
-5410 6205 0
-5411 6206 0
-5412 6207 0
-5413 6208 0
-5414 6209 0
-5385 6195 0
-5386 6196 0
-5387 6197 0
-5388 6198 0
-5389 6199 0
-5390 6200 0
-5391 6201 0
-5392 6202 0
-5393 6203 0
-5394 6204 0
-5395 6205 0
-5396 6206 0
-5397 6207 0
-5398 6208 0
-5399 6209 0
-5385 -5400 6196 0
-5385 -5401 6197 0
-5385 -5402 6198 0
-5385 -5403 6199 0
-5385 -5404 6200 0
-5385 -5405 6201 0
-5385 -5406 6202 0
-5385 -5407 6203 0
-5385 -5408 6204 0
-5385 -5409 6205 0
-5385 -5410 6206 0
-5385 -5411 6207 0
-5385 -5412 6208 0
-5385 -5413 6209 0
-5386 -5400 6197 0
-5386 -5401 6198 0
-5386 -5402 6199 0
-5386 -5403 6200 0
-5386 -5404 6201 0
-5386 -5405 6202 0
-5386 -5406 6203 0
-5386 -5407 6204 0
-5386 -5408 6205 0
-5386 -5409 6206 0
-5386 -5410 6207 0
-5386 -5411 6208 0
-5386 -5412 6209 0
-5387 -5400 6198 0
-5387 -5401 6199 0
-5387 -5402 6200 0
-5387 -5403 6201 0
-5387 -5404 6202 0
-5387 -5405 6203 0
-5387 -5406 6204 0
-5387 -5407 6205 0
-5387 -5408 6206 0
-5387 -5409 6207 0
-5387 -5410 6208 0
-5387 -5411 6209 0
-5388 -5400 6199 0
-5388 -5401 6200 0
-5388 -5402 6201 0
-5388 -5403 6202 0
-5388 -5404 6203 0
-5388 -5405 6204 0
-5388 -5406 6205 0
-5388 -5407 6206 0
-5388 -5408 6207 0
-5388 -5409 6208 0
-5388 -5410 6209 0
-5389 -5400 6200 0
-5389 -5401 6201 0
-5389 -5402 6202 0
-5389 -5403 6203 0
-5389 -5404 6204 0
-5389 -5405 6205 0
-5389 -5406 6206 0
-5389 -5407 6207 0
-5389 -5408 6208 0
-5389 -5409 6209 0
-5390 -5400 6201 0
-5390 -5401 6202 0
-5390 -5402 6203 0
-5390 -5403 6204 0
-5390 -5404 6205 0
-5390 -5405 6206 0
-5390 -5406 6207 0
-5390 -5407 6208 0
-5390 -5408 6209 0
-5391 -5400 6202 0
-5391 -5401 6203 0
-5391 -5402 6204 0
-5391 -5403 6205 0
-5391 -5404 6206 0
-5391 -5405 6207 0
-5391 -5406 6208 0
-5391 -5407 6209 0
-5392 -5400 6203 0
-5392 -5401 6204 0
-5392 -5402 6205 0
-5392 -5403 6206 0
-5392 -5404 6207 0
-5392 -5405 6208 0
-5392 -5406 6209 0
-5393 -5400 6204 0
-5393 -5401 6205 0
-5393 -5402 6206 0
-5393 -5403 6207 0
-5393 -5404 6208 0
-5393 -5405 6209 0
-5394 -5400 6205 0
-5394 -5401 6206 0
-5394 -5402 6207 0
-5394 -5403 6208 0
-5394 -5404 6209 0
-5395 -5400 6206 0
-5395 -5401 6207 0
-5395 -5402 6208 0
-5395 -5403 6209 0
-5396 -5400 6207 0
-5396 -5401 6208 0
-5396 -5402 6209 0
-5397 -5400 6208 0
-5397 -5401 6209 0
-5398 -5400 6209 0
-5430 6210 0
-5431 6211 0
-5432 6212 0
-5433 6213 0
-5434 6214 0
-5435 6215 0
-5436 6216 0
-5437 6217 0
-5438 6218 0
-5439 6219 0
-5440 6220 0
-5441 6221 0
-5442 6222 0
-5443 6223 0
-5444 6224 0
-5415 6210 0
-5416 6211 0
-5417 6212 0
-5418 6213 0
-5419 6214 0
-5420 6215 0
-5421 6216 0
-5422 6217 0
-5423 6218 0
-5424 6219 0
-5425 6220 0
-5426 6221 0
-5427 6222 0
-5428 6223 0
-5429 6224 0
-5415 -5430 6211 0
-5415 -5431 6212 0
-5415 -5432 6213 0
-5415 -5433 6214 0
-5415 -5434 6215 0
-5415 -5435 6216 0
-5415 -5436 6217 0
-5415 -5437 6218 0
-5415 -5438 6219 0
-5415 -5439 6220 0
-5415 -5440 6221 0
-5415 -5441 6222 0
-5415 -5442 6223 0
-5415 -5443 6224 0
-5416 -5430 6212 0
-5416 -5431 6213 0
-5416 -5432 6214 0
-5416 -5433 6215 0
-5416 -5434 6216 0
-5416 -5435 6217 0
-5416 -5436 6218 0
-5416 -5437 6219 0
-5416 -5438 6220 0
-5416 -5439 6221 0
-5416 -5440 6222 0
-5416 -5441 6223 0
-5416 -5442 6224 0
-5417 -5430 6213 0
-5417 -5431 6214 0
-5417 -5432 6215 0
-5417 -5433 6216 0
-5417 -5434 6217 0
-5417 -5435 6218 0
-5417 -5436 6219 0
-5417 -5437 6220 0
-5417 -5438 6221 0
-5417 -5439 6222 0
-5417 -5440 6223 0
-5417 -5441 6224 0
-5418 -5430 6214 0
-5418 -5431 6215 0
-5418 -5432 6216 0
-5418 -5433 6217 0
-5418 -5434 6218 0
-5418 -5435 6219 0
-5418 -5436 6220 0
-5418 -5437 6221 0
-5418 -5438 6222 0
-5418 -5439 6223 0
-5418 -5440 6224 0
-5419 -5430 6215 0
-5419 -5431 6216 0
-5419 -5432 6217 0
-5419 -5433 6218 0
-5419 -5434 6219 0
-5419 -5435 6220 0
-5419 -5436 6221 0
-5419 -5437 6222 0
-5419 -5438 6223 0
-5419 -5439 6224 0
-5420 -5430 6216 0
-5420 -5431 6217 0
-5420 -5432 6218 0
-5420 -5433 6219 0
-5420 -5434 6220 0
-5420 -5435 6221 0
-5420 -5436 6222 0
-5420 -5437 6223 0
-5420 -5438 6224 0
-5421 -5430 6217 0
-5421 -5431 6218 0
-5421 -5432 6219 0
-5421 -5433 6220 0
-5421 -5434 6221 0
-5421 -5435 6222 0
-5421 -5436 6223 0
-5421 -5437 6224 0
-5422 -5430 6218 0
-5422 -5431 6219 0
-5422 -5432 6220 0
-5422 -5433 6221 0
-5422 -5434 6222 0
-5422 -5435 6223 0
-5422 -5436 6224 0
-5423 -5430 6219 0
-5423 -5431 6220 0
-5423 -5432 6221 0
-5423 -5433 6222 0
-5423 -5434 6223 0
-5423 -5435 6224 0
-5424 -5430 6220 0
-5424 -5431 6221 0
-5424 -5432 6222 0
-5424 -5433 6223 0
-5424 -5434 6224 0
-5425 -5430 6221 0
-5425 -5431 6222 0
-5425 -5432 6223 0
-5425 -5433 6224 0
-5426 -5430 6222 0
-5426 -5431 6223 0
-5426 -5432 6224 0
-5427 -5430 6223 0
-5427 -5431 6224 0
-5428 -5430 6224 0
-5460 6225 0
-5461 6226 0
-5462 6227 0
-5463 6228 0
-5464 6229 0
-5465 6230 0
-5466 6231 0
-5467 6232 0
-5468 6233 0
-5469 6234 0
-5470 6235 0
-5471 6236 0
-5472 6237 0
-5473 6238 0
-5474 6239 0
-5445 6225 0
-5446 6226 0
-5447 6227 0
-5448 6228 0
-5449 6229 0
-5450 6230 0
-5451 6231 0
-5452 6232 0
-5453 6233 0
-5454 6234 0
-5455 6235 0
-5456 6236 0
-5457 6237 0
-5458 6238 0
-5459 6239 0
-5445 -5460 6226 0
-5445 -5461 6227 0
-5445 -5462 6228 0
-5445 -5463 6229 0
-5445 -5464 6230 0
-5445 -5465 6231 0
-5445 -5466 6232 0
-5445 -5467 6233 0
-5445 -5468 6234 0
-5445 -5469 6235 0
-5445 -5470 6236 0
-5445 -5471 6237 0
-5445 -5472 6238 0
-5445 -5473 6239 0
-5446 -5460 6227 0
-5446 -5461 6228 0
-5446 -5462 6229 0
-5446 -5463 6230 0
-5446 -5464 6231 0
-5446 -5465 6232 0
-5446 -5466 6233 0
-5446 -5467 6234 0
-5446 -5468 6235 0
-5446 -5469 6236 0
-5446 -5470 6237 0
-5446 -5471 6238 0
-5446 -5472 6239 0
-5447 -5460 6228 0
-5447 -5461 6229 0
-5447 -5462 6230 0
-5447 -5463 6231 0
-5447 -5464 6232 0
-5447 -5465 6233 0
-5447 -5466 6234 0
-5447 -5467 6235 0
-5447 -5468 6236 0
-5447 -5469 6237 0
-5447 -5470 6238 0
-5447 -5471 6239 0
-5448 -5460 6229 0
-5448 -5461 6230 0
-5448 -5462 6231 0
-5448 -5463 6232 0
-5448 -5464 6233 0
-5448 -5465 6234 0
-5448 -5466 6235 0
-5448 -5467 6236 0
-5448 -5468 6237 0
-5448 -5469 6238 0
-5448 -5470 6239 0
-5449 -5460 6230 0
-5449 -5461 6231 0
-5449 -5462 6232 0
-5449 -5463 6233 0
-5449 -5464 6234 0
-5449 -5465 6235 0
-5449 -5466 6236 0
-5449 -5467 6237 0
-5449 -5468 6238 0
-5449 -5469 6239 0
-5450 -5460 6231 0
-5450 -5461 6232 0
-5450 -5462 6233 0
-5450 -5463 6234 0
-5450 -5464 6235 0
-5450 -5465 6236 0
-5450 -5466 6237 0
-5450 -5467 6238 0
-5450 -5468 6239 0
-5451 -5460 6232 0
-5451 -5461 6233 0
-5451 -5462 6234 0
-5451 -5463 6235 0
-5451 -5464 6236 0
-5451 -5465 6237 0
-5451 -5466 6238 0
-5451 -5467 6239 0
-5452 -5460 6233 0
-5452 -5461 6234 0
-5452 -5462 6235 0
-5452 -5463 6236 0
-5452 -5464 6237 0
-5452 -5465 6238 0
-5452 -5466 6239 0
-5453 -5460 6234 0
-5453 -5461 6235 0
-5453 -5462 6236 0
-5453 -5463 6237 0
-5453 -5464 6238 0
-5453 -5465 6239 0
-5454 -5460 6235 0
-5454 -5461 6236 0
-5454 -5462 6237 0
-5454 -5463 6238 0
-5454 -5464 6239 0
-5455 -5460 6236 0
-5455 -5461 6237 0
-5455 -5462 6238 0
-5455 -5463 6239 0
-5456 -5460 6237 0
-5456 -5461 6238 0
-5456 -5462 6239 0
-5457 -5460 6238 0
-5457 -5461 6239 0
-5458 -5460 6239 0
-5490 6240 0
-5491 6241 0
-5492 6242 0
-5493 6243 0
-5494 6244 0
-5495 6245 0
-5496 6246 0
-5497 6247 0
-5498 6248 0
-5499 6249 0
-5500 6250 0
-5501 6251 0
-5502 6252 0
-5503 6253 0
-5504 6254 0
-5475 6240 0
-5476 6241 0
-5477 6242 0
-5478 6243 0
-5479 6244 0
-5480 6245 0
-5481 6246 0
-5482 6247 0
-5483 6248 0
-5484 6249 0
-5485 6250 0
-5486 6251 0
-5487 6252 0
-5488 6253 0
-5489 6254 0
-5475 -5490 6241 0
-5475 -5491 6242 0
-5475 -5492 6243 0
-5475 -5493 6244 0
-5475 -5494 6245 0
-5475 -5495 6246 0
-5475 -5496 6247 0
-5475 -5497 6248 0
-5475 -5498 6249 0
-5475 -5499 6250 0
-5475 -5500 6251 0
-5475 -5501 6252 0
-5475 -5502 6253 0
-5475 -5503 6254 0
-5476 -5490 6242 0
-5476 -5491 6243 0
-5476 -5492 6244 0
-5476 -5493 6245 0
-5476 -5494 6246 0
-5476 -5495 6247 0
-5476 -5496 6248 0
-5476 -5497 6249 0
-5476 -5498 6250 0
-5476 -5499 6251 0
-5476 -5500 6252 0
-5476 -5501 6253 0
-5476 -5502 6254 0
-5477 -5490 6243 0
-5477 -5491 6244 0
-5477 -5492 6245 0
-5477 -5493 6246 0
-5477 -5494 6247 0
-5477 -5495 6248 0
-5477 -5496 6249 0
-5477 -5497 6250 0
-5477 -5498 6251 0
-5477 -5499 6252 0
-5477 -5500 6253 0
-5477 -5501 6254 0
-5478 -5490 6244 0
-5478 -5491 6245 0
-5478 -5492 6246 0
-5478 -5493 6247 0
-5478 -5494 6248 0
-5478 -5495 6249 0
-5478 -5496 6250 0
-5478 -5497 6251 0
-5478 -5498 6252 0
-5478 -5499 6253 0
-5478 -5500 6254 0
-5479 -5490 6245 0
-5479 -5491 6246 0
-5479 -5492 6247 0
-5479 -5493 6248 0
-5479 -5494 6249 0
-5479 -5495 6250 0
-5479 -5496 6251 0
-5479 -5497 6252 0
-5479 -5498 6253 0
-5479 -5499 6254 0
-5480 -5490 6246 0
-5480 -5491 6247 0
-5480 -5492 6248 0
-5480 -5493 6249 0
-5480 -5494 6250 0
-5480 -5495 6251 0
-5480 -5496 6252 0
-5480 -5497 6253 0
-5480 -5498 6254 0
-5481 -5490 6247 0
-5481 -5491 6248 0
-5481 -5492 6249 0
-5481 -5493 6250 0
-5481 -5494 6251 0
-5481 -5495 6252 0
-5481 -5496 6253 0
-5481 -5497 6254 0
-5482 -5490 6248 0
-5482 -5491 6249 0
-5482 -5492 6250 0
-5482 -5493 6251 0
-5482 -5494 6252 0
-5482 -5495 6253 0
-5482 -5496 6254 0
-5483 -5490 6249 0
-5483 -5491 6250 0
-5483 -5492 6251 0
-5483 -5493 6252 0
-5483 -5494 6253 0
-5483 -5495 6254 0
-5484 -5490 6250 0
-5484 -5491 6251 0
-5484 -5492 6252 0
-5484 -5493 6253 0
-5484 -5494 6254 0
-5485 -5490 6251 0
-5485 -5491 6252 0
-5485 -5492 6253 0
-5485 -5493 6254 0
-5486 -5490 6252 0
-5486 -5491 6253 0
-5486 -5492 6254 0
-5487 -5490 6253 0
-5487 -5491 6254 0
-5488 -5490 6254 0
-5520 6255 0
-5521 6256 0
-5522 6257 0
-5523 6258 0
-5524 6259 0
-5525 6260 0
-5526 6261 0
-5527 6262 0
-5528 6263 0
-5529 6264 0
-5530 6265 0
-5531 6266 0
-5532 6267 0
-5533 6268 0
-5534 6269 0
-5505 6255 0
-5506 6256 0
-5507 6257 0
-5508 6258 0
-5509 6259 0
-5510 6260 0
-5511 6261 0
-5512 6262 0
-5513 6263 0
-5514 6264 0
-5515 6265 0
-5516 6266 0
-5517 6267 0
-5518 6268 0
-5519 6269 0
-5505 -5520 6256 0
-5505 -5521 6257 0
-5505 -5522 6258 0
-5505 -5523 6259 0
-5505 -5524 6260 0
-5505 -5525 6261 0
-5505 -5526 6262 0
-5505 -5527 6263 0
-5505 -5528 6264 0
-5505 -5529 6265 0
-5505 -5530 6266 0
-5505 -5531 6267 0
-5505 -5532 6268 0
-5505 -5533 6269 0
-5506 -5520 6257 0
-5506 -5521 6258 0
-5506 -5522 6259 0
-5506 -5523 6260 0
-5506 -5524 6261 0
-5506 -5525 6262 0
-5506 -5526 6263 0
-5506 -5527 6264 0
-5506 -5528 6265 0
-5506 -5529 6266 0
-5506 -5530 6267 0
-5506 -5531 6268 0
-5506 -5532 6269 0
-5507 -5520 6258 0
-5507 -5521 6259 0
-5507 -5522 6260 0
-5507 -5523 6261 0
-5507 -5524 6262 0
-5507 -5525 6263 0
-5507 -5526 6264 0
-5507 -5527 6265 0
-5507 -5528 6266 0
-5507 -5529 6267 0
-5507 -5530 6268 0
-5507 -5531 6269 0
-5508 -5520 6259 0
-5508 -5521 6260 0
-5508 -5522 6261 0
-5508 -5523 6262 0
-5508 -5524 6263 0
-5508 -5525 6264 0
-5508 -5526 6265 0
-5508 -5527 6266 0
-5508 -5528 6267 0
-5508 -5529 6268 0
-5508 -5530 6269 0
-5509 -5520 6260 0
-5509 -5521 6261 0
-5509 -5522 6262 0
-5509 -5523 6263 0
-5509 -5524 6264 0
-5509 -5525 6265 0
-5509 -5526 6266 0
-5509 -5527 6267 0
-5509 -5528 6268 0
-5509 -5529 6269 0
-5510 -5520 6261 0
-5510 -5521 6262 0
-5510 -5522 6263 0
-5510 -5523 6264 0
-5510 -5524 6265 0
-5510 -5525 6266 0
-5510 -5526 6267 0
-5510 -5527 6268 0
-5510 -5528 6269 0
-5511 -5520 6262 0
-5511 -5521 6263 0
-5511 -5522 6264 0
-5511 -5523 6265 0
-5511 -5524 6266 0
-5511 -5525 6267 0
-5511 -5526 6268 0
-5511 -5527 6269 0
-5512 -5520 6263 0
-5512 -5521 6264 0
-5512 -5522 6265 0
-5512 -5523 6266 0
-5512 -5524 6267 0
-5512 -5525 6268 0
-5512 -5526 6269 0
-5513 -5520 6264 0
-5513 -5521 6265 0
-5513 -5522 6266 0
-5513 -5523 6267 0
-5513 -5524 6268 0
-5513 -5525 6269 0
-5514 -5520 6265 0
-5514 -5521 6266 0
-5514 -5522 6267 0
-5514 -5523 6268 0
-5514 -5524 6269 0
-5515 -5520 6266 0
-5515 -5521 6267 0
-5515 -5522 6268 0
-5515 -5523 6269 0
-5516 -5520 6267 0
-5516 -5521 6268 0
-5516 -5522 6269 0
-5517 -5520 6268 0
-5517 -5521 6269 0
-5518 -5520 6269 0
-5550 6270 0
-5551 6271 0
-5552 6272 0
-5553 6273 0
-5554 6274 0
-5555 6275 0
-5556 6276 0
-5557 6277 0
-5558 6278 0
-5559 6279 0
-5560 6280 0
-5561 6281 0
-5562 6282 0
-5563 6283 0
-5564 6284 0
-5535 6270 0
-5536 6271 0
-5537 6272 0
-5538 6273 0
-5539 6274 0
-5540 6275 0
-5541 6276 0
-5542 6277 0
-5543 6278 0
-5544 6279 0
-5545 6280 0
-5546 6281 0
-5547 6282 0
-5548 6283 0
-5549 6284 0
-5535 -5550 6271 0
-5535 -5551 6272 0
-5535 -5552 6273 0
-5535 -5553 6274 0
-5535 -5554 6275 0
-5535 -5555 6276 0
-5535 -5556 6277 0
-5535 -5557 6278 0
-5535 -5558 6279 0
-5535 -5559 6280 0
-5535 -5560 6281 0
-5535 -5561 6282 0
-5535 -5562 6283 0
-5535 -5563 6284 0
-5536 -5550 6272 0
-5536 -5551 6273 0
-5536 -5552 6274 0
-5536 -5553 6275 0
-5536 -5554 6276 0
-5536 -5555 6277 0
-5536 -5556 6278 0
-5536 -5557 6279 0
-5536 -5558 6280 0
-5536 -5559 6281 0
-5536 -5560 6282 0
-5536 -5561 6283 0
-5536 -5562 6284 0
-5537 -5550 6273 0
-5537 -5551 6274 0
-5537 -5552 6275 0
-5537 -5553 6276 0
-5537 -5554 6277 0
-5537 -5555 6278 0
-5537 -5556 6279 0
-5537 -5557 6280 0
-5537 -5558 6281 0
-5537 -5559 6282 0
-5537 -5560 6283 0
-5537 -5561 6284 0
-5538 -5550 6274 0
-5538 -5551 6275 0
-5538 -5552 6276 0
-5538 -5553 6277 0
-5538 -5554 6278 0
-5538 -5555 6279 0
-5538 -5556 6280 0
-5538 -5557 6281 0
-5538 -5558 6282 0
-5538 -5559 6283 0
-5538 -5560 6284 0
-5539 -5550 6275 0
-5539 -5551 6276 0
-5539 -5552 6277 0
-5539 -5553 6278 0
-5539 -5554 6279 0
-5539 -5555 6280 0
-5539 -5556 6281 0
-5539 -5557 6282 0
-5539 -5558 6283 0
-5539 -5559 6284 0
-5540 -5550 6276 0
-5540 -5551 6277 0
-5540 -5552 6278 0
-5540 -5553 6279 0
-5540 -5554 6280 0
-5540 -5555 6281 0
-5540 -5556 6282 0
-5540 -5557 6283 0
-5540 -5558 6284 0
-5541 -5550 6277 0
-5541 -5551 6278 0
-5541 -5552 6279 0
-5541 -5553 6280 0
-5541 -5554 6281 0
-5541 -5555 6282 0
-5541 -5556 6283 0
-5541 -5557 6284 0
-5542 -5550 6278 0
-5542 -5551 6279 0
-5542 -5552 6280 0
-5542 -5553 6281 0
-5542 -5554 6282 0
-5542 -5555 6283 0
-5542 -5556 6284 0
-5543 -5550 6279 0
-5543 -5551 6280 0
-5543 -5552 6281 0
-5543 -5553 6282 0
-5543 -5554 6283 0
-5543 -5555 6284 0
-5544 -5550 6280 0
-5544 -5551 6281 0
-5544 -5552 6282 0
-5544 -5553 6283 0
-5544 -5554 6284 0
-5545 -5550 6281 0
-5545 -5551 6282 0
-5545 -5552 6283 0
-5545 -5553 6284 0
-5546 -5550 6282 0
-5546 -5551 6283 0
-5546 -5552 6284 0
-5547 -5550 6283 0
-5547 -5551 6284 0
-5548 -5550 6284 0
-5580 6285 0
-5581 6286 0
-5582 6287 0
-5583 6288 0
-5584 6289 0
-5585 6290 0
-5586 6291 0
-5587 6292 0
-5588 6293 0
-5589 6294 0
-5590 6295 0
-5591 6296 0
-5592 6297 0
-5593 6298 0
-5594 6299 0
-5565 6285 0
-5566 6286 0
-5567 6287 0
-5568 6288 0
-5569 6289 0
-5570 6290 0
-5571 6291 0
-5572 6292 0
-5573 6293 0
-5574 6294 0
-5575 6295 0
-5576 6296 0
-5577 6297 0
-5578 6298 0
-5579 6299 0
-5565 -5580 6286 0
-5565 -5581 6287 0
-5565 -5582 6288 0
-5565 -5583 6289 0
-5565 -5584 6290 0
-5565 -5585 6291 0
-5565 -5586 6292 0
-5565 -5587 6293 0
-5565 -5588 6294 0
-5565 -5589 6295 0
-5565 -5590 6296 0
-5565 -5591 6297 0
-5565 -5592 6298 0
-5565 -5593 6299 0
-5566 -5580 6287 0
-5566 -5581 6288 0
-5566 -5582 6289 0
-5566 -5583 6290 0
-5566 -5584 6291 0
-5566 -5585 6292 0
-5566 -5586 6293 0
-5566 -5587 6294 0
-5566 -5588 6295 0
-5566 -5589 6296 0
-5566 -5590 6297 0
-5566 -5591 6298 0
-5566 -5592 6299 0
-5567 -5580 6288 0
-5567 -5581 6289 0
-5567 -5582 6290 0
-5567 -5583 6291 0
-5567 -5584 6292 0
-5567 -5585 6293 0
-5567 -5586 6294 0
-5567 -5587 6295 0
-5567 -5588 6296 0
-5567 -5589 6297 0
-5567 -5590 6298 0
-5567 -5591 6299 0
-5568 -5580 6289 0
-5568 -5581 6290 0
-5568 -5582 6291 0
-5568 -5583 6292 0
-5568 -5584 6293 0
-5568 -5585 6294 0
-5568 -5586 6295 0
-5568 -5587 6296 0
-5568 -5588 6297 0
-5568 -5589 6298 0
-5568 -5590 6299 0
-5569 -5580 6290 0
-5569 -5581 6291 0
-5569 -5582 6292 0
-5569 -5583 6293 0
-5569 -5584 6294 0
-5569 -5585 6295 0
-5569 -5586 6296 0
-5569 -5587 6297 0
-5569 -5588 6298 0
-5569 -5589 6299 0
-5570 -5580 6291 0
-5570 -5581 6292 0
-5570 -5582 6293 0
-5570 -5583 6294 0
-5570 -5584 6295 0
-5570 -5585 6296 0
-5570 -5586 6297 0
-5570 -5587 6298 0
-5570 -5588 6299 0
-5571 -5580 6292 0
-5571 -5581 6293 0
-5571 -5582 6294 0
-5571 -5583 6295 0
-5571 -5584 6296 0
-5571 -5585 6297 0
-5571 -5586 6298 0
-5571 -5587 6299 0
-5572 -5580 6293 0
-5572 -5581 6294 0
-5572 -5582 6295 0
-5572 -5583 6296 0
-5572 -5584 6297 0
-5572 -5585 6298 0
-5572 -5586 6299 0
-5573 -5580 6294 0
-5573 -5581 6295 0
-5573 -5582 6296 0
-5573 -5583 6297 0
-5573 -5584 6298 0
-5573 -5585 6299 0
-5574 -5580 6295 0
-5574 -5581 6296 0
-5574 -5582 6297 0
-5574 -5583 6298 0
-5574 -5584 6299 0
-5575 -5580 6296 0
-5575 -5581 6297 0
-5575 -5582 6298 0
-5575 -5583 6299 0
-5576 -5580 6297 0
-5576 -5581 6298 0
-5576 -5582 6299 0
-5577 -5580 6298 0
-5577 -5581 6299 0
-5578 -5580 6299 0
-5610 6300 0
-5611 6301 0
-5612 6302 0
-5613 6303 0
-5614 6304 0
-5615 6305 0
-5616 6306 0
-5617 6307 0
-5618 6308 0
-5619 6309 0
-5620 6310 0
-5621 6311 0
-5622 6312 0
-5623 6313 0
-5624 6314 0
-5595 6300 0
-5596 6301 0
-5597 6302 0
-5598 6303 0
-5599 6304 0
-5600 6305 0
-5601 6306 0
-5602 6307 0
-5603 6308 0
-5604 6309 0
-5605 6310 0
-5606 6311 0
-5607 6312 0
-5608 6313 0
-5609 6314 0
-5595 -5610 6301 0
-5595 -5611 6302 0
-5595 -5612 6303 0
-5595 -5613 6304 0
-5595 -5614 6305 0
-5595 -5615 6306 0
-5595 -5616 6307 0
-5595 -5617 6308 0
-5595 -5618 6309 0
-5595 -5619 6310 0
-5595 -5620 6311 0
-5595 -5621 6312 0
-5595 -5622 6313 0
-5595 -5623 6314 0
-5596 -5610 6302 0
-5596 -5611 6303 0
-5596 -5612 6304 0
-5596 -5613 6305 0
-5596 -5614 6306 0
-5596 -5615 6307 0
-5596 -5616 6308 0
-5596 -5617 6309 0
-5596 -5618 6310 0
-5596 -5619 6311 0
-5596 -5620 6312 0
-5596 -5621 6313 0
-5596 -5622 6314 0
-5597 -5610 6303 0
-5597 -5611 6304 0
-5597 -5612 6305 0
-5597 -5613 6306 0
-5597 -5614 6307 0
-5597 -5615 6308 0
-5597 -5616 6309 0
-5597 -5617 6310 0
-5597 -5618 6311 0
-5597 -5619 6312 0
-5597 -5620 6313 0
-5597 -5621 6314 0
-5598 -5610 6304 0
-5598 -5611 6305 0
-5598 -5612 6306 0
-5598 -5613 6307 0
-5598 -5614 6308 0
-5598 -5615 6309 0
-5598 -5616 6310 0
-5598 -5617 6311 0
-5598 -5618 6312 0
-5598 -5619 6313 0
-5598 -5620 6314 0
-5599 -5610 6305 0
-5599 -5611 6306 0
-5599 -5612 6307 0
-5599 -5613 6308 0
-5599 -5614 6309 0
-5599 -5615 6310 0
-5599 -5616 6311 0
-5599 -5617 6312 0
-5599 -5618 6313 0
-5599 -5619 6314 0
-5600 -5610 6306 0
-5600 -5611 6307 0
-5600 -5612 6308 0
-5600 -5613 6309 0
-5600 -5614 6310 0
-5600 -5615 6311 0
-5600 -5616 6312 0
-5600 -5617 6313 0
-5600 -5618 6314 0
-5601 -5610 6307 0
-5601 -5611 6308 0
-5601 -5612 6309 0
-5601 -5613 6310 0
-5601 -5614 6311 0
-5601 -5615 6312 0
-5601 -5616 6313 0
-5601 -5617 6314 0
-5602 -5610 6308 0
-5602 -5611 6309 0
-5602 -5612 6310 0
-5602 -5613 6311 0
-5602 -5614 6312 0
-5602 -5615 6313 0
-5602 -5616 6314 0
-5603 -5610 6309 0
-5603 -5611 6310 0
-5603 -5612 6311 0
-5603 -5613 6312 0
-5603 -5614 6313 0
-5603 -5615 6314 0
-5604 -5610 6310 0
-5604 -5611 6311 0
-5604 -5612 6312 0
-5604 -5613 6313 0
-5604 -5614 6314 0
-5605 -5610 6311 0
-5605 -5611 6312 0
-5605 -5612 6313 0
-5605 -5613 6314 0
-5606 -5610 6312 0
-5606 -5611 6313 0
-5606 -5612 6314 0
-5607 -5610 6313 0
-5607 -5611 6314 0
-5608 -5610 6314 0
-5640 6315 0
-5641 6316 0
-5642 6317 0
-5643 6318 0
-5644 6319 0
-5645 6320 0
-5646 6321 0
-5647 6322 0
-5648 6323 0
-5649 6324 0
-5650 6325 0
-5651 6326 0
-5652 6327 0
-5653 6328 0
-5654 6329 0
-5625 6315 0
-5626 6316 0
-5627 6317 0
-5628 6318 0
-5629 6319 0
-5630 6320 0
-5631 6321 0
-5632 6322 0
-5633 6323 0
-5634 6324 0
-5635 6325 0
-5636 6326 0
-5637 6327 0
-5638 6328 0
-5639 6329 0
-5625 -5640 6316 0
-5625 -5641 6317 0
-5625 -5642 6318 0
-5625 -5643 6319 0
-5625 -5644 6320 0
-5625 -5645 6321 0
-5625 -5646 6322 0
-5625 -5647 6323 0
-5625 -5648 6324 0
-5625 -5649 6325 0
-5625 -5650 6326 0
-5625 -5651 6327 0
-5625 -5652 6328 0
-5625 -5653 6329 0
-5626 -5640 6317 0
-5626 -5641 6318 0
-5626 -5642 6319 0
-5626 -5643 6320 0
-5626 -5644 6321 0
-5626 -5645 6322 0
-5626 -5646 6323 0
-5626 -5647 6324 0
-5626 -5648 6325 0
-5626 -5649 6326 0
-5626 -5650 6327 0
-5626 -5651 6328 0
-5626 -5652 6329 0
-5627 -5640 6318 0
-5627 -5641 6319 0
-5627 -5642 6320 0
-5627 -5643 6321 0
-5627 -5644 6322 0
-5627 -5645 6323 0
-5627 -5646 6324 0
-5627 -5647 6325 0
-5627 -5648 6326 0
-5627 -5649 6327 0
-5627 -5650 6328 0
-5627 -5651 6329 0
-5628 -5640 6319 0
-5628 -5641 6320 0
-5628 -5642 6321 0
-5628 -5643 6322 0
-5628 -5644 6323 0
-5628 -5645 6324 0
-5628 -5646 6325 0
-5628 -5647 6326 0
-5628 -5648 6327 0
-5628 -5649 6328 0
-5628 -5650 6329 0
-5629 -5640 6320 0
-5629 -5641 6321 0
-5629 -5642 6322 0
-5629 -5643 6323 0
-5629 -5644 6324 0
-5629 -5645 6325 0
-5629 -5646 6326 0
-5629 -5647 6327 0
-5629 -5648 6328 0
-5629 -5649 6329 0
-5630 -5640 6321 0
-5630 -5641 6322 0
-5630 -5642 6323 0
-5630 -5643 6324 0
-5630 -5644 6325 0
-5630 -5645 6326 0
-5630 -5646 6327 0
-5630 -5647 6328 0
-5630 -5648 6329 0
-5631 -5640 6322 0
-5631 -5641 6323 0
-5631 -5642 6324 0
-5631 -5643 6325 0
-5631 -5644 6326 0
-5631 -5645 6327 0
-5631 -5646 6328 0
-5631 -5647 6329 0
-5632 -5640 6323 0
-5632 -5641 6324 0
-5632 -5642 6325 0
-5632 -5643 6326 0
-5632 -5644 6327 0
-5632 -5645 6328 0
-5632 -5646 6329 0
-5633 -5640 6324 0
-5633 -5641 6325 0
-5633 -5642 6326 0
-5633 -5643 6327 0
-5633 -5644 6328 0
-5633 -5645 6329 0
-5634 -5640 6325 0
-5634 -5641 6326 0
-5634 -5642 6327 0
-5634 -5643 6328 0
-5634 -5644 6329 0
-5635 -5640 6326 0
-5635 -5641 6327 0
-5635 -5642 6328 0
-5635 -5643 6329 0
-5636 -5640 6327 0
-5636 -5641 6328 0
-5636 -5642 6329 0
-5637 -5640 6328 0
-5637 -5641 6329 0
-5638 -5640 6329 0
-5670 6330 0
-5671 6331 0
-5672 6332 0
-5673 6333 0
-5674 6334 0
-5675 6335 0
-5676 6336 0
-5677 6337 0
-5678 6338 0
-5679 6339 0
-5680 6340 0
-5681 6341 0
-5682 6342 0
-5683 6343 0
-5684 6344 0
-5655 6330 0
-5656 6331 0
-5657 6332 0
-5658 6333 0
-5659 6334 0
-5660 6335 0
-5661 6336 0
-5662 6337 0
-5663 6338 0
-5664 6339 0
-5665 6340 0
-5666 6341 0
-5667 6342 0
-5668 6343 0
-5669 6344 0
-5655 -5670 6331 0
-5655 -5671 6332 0
-5655 -5672 6333 0
-5655 -5673 6334 0
-5655 -5674 6335 0
-5655 -5675 6336 0
-5655 -5676 6337 0
-5655 -5677 6338 0
-5655 -5678 6339 0
-5655 -5679 6340 0
-5655 -5680 6341 0
-5655 -5681 6342 0
-5655 -5682 6343 0
-5655 -5683 6344 0
-5656 -5670 6332 0
-5656 -5671 6333 0
-5656 -5672 6334 0
-5656 -5673 6335 0
-5656 -5674 6336 0
-5656 -5675 6337 0
-5656 -5676 6338 0
-5656 -5677 6339 0
-5656 -5678 6340 0
-5656 -5679 6341 0
-5656 -5680 6342 0
-5656 -5681 6343 0
-5656 -5682 6344 0
-5657 -5670 6333 0
-5657 -5671 6334 0
-5657 -5672 6335 0
-5657 -5673 6336 0
-5657 -5674 6337 0
-5657 -5675 6338 0
-5657 -5676 6339 0
-5657 -5677 6340 0
-5657 -5678 6341 0
-5657 -5679 6342 0
-5657 -5680 6343 0
-5657 -5681 6344 0
-5658 -5670 6334 0
-5658 -5671 6335 0
-5658 -5672 6336 0
-5658 -5673 6337 0
-5658 -5674 6338 0
-5658 -5675 6339 0
-5658 -5676 6340 0
-5658 -5677 6341 0
-5658 -5678 6342 0
-5658 -5679 6343 0
-5658 -5680 6344 0
-5659 -5670 6335 0
-5659 -5671 6336 0
-5659 -5672 6337 0
-5659 -5673 6338 0
-5659 -5674 6339 0
-5659 -5675 6340 0
-5659 -5676 6341 0
-5659 -5677 6342 0
-5659 -5678 6343 0
-5659 -5679 6344 0
-5660 -5670 6336 0
-5660 -5671 6337 0
-5660 -5672 6338 0
-5660 -5673 6339 0
-5660 -5674 6340 0
-5660 -5675 6341 0
-5660 -5676 6342 0
-5660 -5677 6343 0
-5660 -5678 6344 0
-5661 -5670 6337 0
-5661 -5671 6338 0
-5661 -5672 6339 0
-5661 -5673 6340 0
-5661 -5674 6341 0
-5661 -5675 6342 0
-5661 -5676 6343 0
-5661 -5677 6344 0
-5662 -5670 6338 0
-5662 -5671 6339 0
-5662 -5672 6340 0
-5662 -5673 6341 0
-5662 -5674 6342 0
-5662 -5675 6343 0
-5662 -5676 6344 0
-5663 -5670 6339 0
-5663 -5671 6340 0
-5663 -5672 6341 0
-5663 -5673 6342 0
-5663 -5674 6343 0
-5663 -5675 6344 0
-5664 -5670 6340 0
-5664 -5671 6341 0
-5664 -5672 6342 0
-5664 -5673 6343 0
-5664 -5674 6344 0
-5665 -5670 6341 0
-5665 -5671 6342 0
-5665 -5672 6343 0
-5665 -5673 6344 0
-5666 -5670 6342 0
-5666 -5671 6343 0
-5666 -5672 6344 0
-5667 -5670 6343 0
-5667 -5671 6344 0
-5668 -5670 6344 0
-5700 6345 0
-5701 6346 0
-5702 6347 0
-5703 6348 0
-5704 6349 0
-5705 6350 0
-5706 6351 0
-5707 6352 0
-5708 6353 0
-5709 6354 0
-5710 6355 0
-5711 6356 0
-5712 6357 0
-5713 6358 0
-5714 6359 0
-5685 6345 0
-5686 6346 0
-5687 6347 0
-5688 6348 0
-5689 6349 0
-5690 6350 0
-5691 6351 0
-5692 6352 0
-5693 6353 0
-5694 6354 0
-5695 6355 0
-5696 6356 0
-5697 6357 0
-5698 6358 0
-5699 6359 0
-5685 -5700 6346 0
-5685 -5701 6347 0
-5685 -5702 6348 0
-5685 -5703 6349 0
-5685 -5704 6350 0
-5685 -5705 6351 0
-5685 -5706 6352 0
-5685 -5707 6353 0
-5685 -5708 6354 0
-5685 -5709 6355 0
-5685 -5710 6356 0
-5685 -5711 6357 0
-5685 -5712 6358 0
-5685 -5713 6359 0
-5686 -5700 6347 0
-5686 -5701 6348 0
-5686 -5702 6349 0
-5686 -5703 6350 0
-5686 -5704 6351 0
-5686 -5705 6352 0
-5686 -5706 6353 0
-5686 -5707 6354 0
-5686 -5708 6355 0
-5686 -5709 6356 0
-5686 -5710 6357 0
-5686 -5711 6358 0
-5686 -5712 6359 0
-5687 -5700 6348 0
-5687 -5701 6349 0
-5687 -5702 6350 0
-5687 -5703 6351 0
-5687 -5704 6352 0
-5687 -5705 6353 0
-5687 -5706 6354 0
-5687 -5707 6355 0
-5687 -5708 6356 0
-5687 -5709 6357 0
-5687 -5710 6358 0
-5687 -5711 6359 0
-5688 -5700 6349 0
-5688 -5701 6350 0
-5688 -5702 6351 0
-5688 -5703 6352 0
-5688 -5704 6353 0
-5688 -5705 6354 0
-5688 -5706 6355 0
-5688 -5707 6356 0
-5688 -5708 6357 0
-5688 -5709 6358 0
-5688 -5710 6359 0
-5689 -5700 6350 0
-5689 -5701 6351 0
-5689 -5702 6352 0
-5689 -5703 6353 0
-5689 -5704 6354 0
-5689 -5705 6355 0
-5689 -5706 6356 0
-5689 -5707 6357 0
-5689 -5708 6358 0
-5689 -5709 6359 0
-5690 -5700 6351 0
-5690 -5701 6352 0
-5690 -5702 6353 0
-5690 -5703 6354 0
-5690 -5704 6355 0
-5690 -5705 6356 0
-5690 -5706 6357 0
-5690 -5707 6358 0
-5690 -5708 6359 0
-5691 -5700 6352 0
-5691 -5701 6353 0
-5691 -5702 6354 0
-5691 -5703 6355 0
-5691 -5704 6356 0
-5691 -5705 6357 0
-5691 -5706 6358 0
-5691 -5707 6359 0
-5692 -5700 6353 0
-5692 -5701 6354 0
-5692 -5702 6355 0
-5692 -5703 6356 0
-5692 -5704 6357 0
-5692 -5705 6358 0
-5692 -5706 6359 0
-5693 -5700 6354 0
-5693 -5701 6355 0
-5693 -5702 6356 0
-5693 -5703 6357 0
-5693 -5704 6358 0
-5693 -5705 6359 0
-5694 -5700 6355 0
-5694 -5701 6356 0
-5694 -5702 6357 0
-5694 -5703 6358 0
-5694 -5704 6359 0
-5695 -5700 6356 0
-5695 -5701 6357 0
-5695 -5702 6358 0
-5695 -5703 6359 0
-5696 -5700 6357 0
-5696 -5701 6358 0
-5696 -5702 6359 0
-5697 -5700 6358 0
-5697 -5701 6359 0
-5698 -5700 6359 0
-5730 6360 0
-5731 6361 0
-5732 6362 0
-5733 6363 0
-5734 6364 0
-5735 6365 0
-5736 6366 0
-5737 6367 0
-5738 6368 0
-5739 6369 0
-5740 6370 0
-5741 6371 0
-5742 6372 0
-5743 6373 0
-5744 6374 0
-5715 6360 0
-5716 6361 0
-5717 6362 0
-5718 6363 0
-5719 6364 0
-5720 6365 0
-5721 6366 0
-5722 6367 0
-5723 6368 0
-5724 6369 0
-5725 6370 0
-5726 6371 0
-5727 6372 0
-5728 6373 0
-5729 6374 0
-5715 -5730 6361 0
-5715 -5731 6362 0
-5715 -5732 6363 0
-5715 -5733 6364 0
-5715 -5734 6365 0
-5715 -5735 6366 0
-5715 -5736 6367 0
-5715 -5737 6368 0
-5715 -5738 6369 0
-5715 -5739 6370 0
-5715 -5740 6371 0
-5715 -5741 6372 0
-5715 -5742 6373 0
-5715 -5743 6374 0
-5716 -5730 6362 0
-5716 -5731 6363 0
-5716 -5732 6364 0
-5716 -5733 6365 0
-5716 -5734 6366 0
-5716 -5735 6367 0
-5716 -5736 6368 0
-5716 -5737 6369 0
-5716 -5738 6370 0
-5716 -5739 6371 0
-5716 -5740 6372 0
-5716 -5741 6373 0
-5716 -5742 6374 0
-5717 -5730 6363 0
-5717 -5731 6364 0
-5717 -5732 6365 0
-5717 -5733 6366 0
-5717 -5734 6367 0
-5717 -5735 6368 0
-5717 -5736 6369 0
-5717 -5737 6370 0
-5717 -5738 6371 0
-5717 -5739 6372 0
-5717 -5740 6373 0
-5717 -5741 6374 0
-5718 -5730 6364 0
-5718 -5731 6365 0
-5718 -5732 6366 0
-5718 -5733 6367 0
-5718 -5734 6368 0
-5718 -5735 6369 0
-5718 -5736 6370 0
-5718 -5737 6371 0
-5718 -5738 6372 0
-5718 -5739 6373 0
-5718 -5740 6374 0
-5719 -5730 6365 0
-5719 -5731 6366 0
-5719 -5732 6367 0
-5719 -5733 6368 0
-5719 -5734 6369 0
-5719 -5735 6370 0
-5719 -5736 6371 0
-5719 -5737 6372 0
-5719 -5738 6373 0
-5719 -5739 6374 0
-5720 -5730 6366 0
-5720 -5731 6367 0
-5720 -5732 6368 0
-5720 -5733 6369 0
-5720 -5734 6370 0
-5720 -5735 6371 0
-5720 -5736 6372 0
-5720 -5737 6373 0
-5720 -5738 6374 0
-5721 -5730 6367 0
-5721 -5731 6368 0
-5721 -5732 6369 0
-5721 -5733 6370 0
-5721 -5734 6371 0
-5721 -5735 6372 0
-5721 -5736 6373 0
-5721 -5737 6374 0
-5722 -5730 6368 0
-5722 -5731 6369 0
-5722 -5732 6370 0
-5722 -5733 6371 0
-5722 -5734 6372 0
-5722 -5735 6373 0
-5722 -5736 6374 0
-5723 -5730 6369 0
-5723 -5731 6370 0
-5723 -5732 6371 0
-5723 -5733 6372 0
-5723 -5734 6373 0
-5723 -5735 6374 0
-5724 -5730 6370 0
-5724 -5731 6371 0
-5724 -5732 6372 0
-5724 -5733 6373 0
-5724 -5734 6374 0
-5725 -5730 6371 0
-5725 -5731 6372 0
-5725 -5732 6373 0
-5725 -5733 6374 0
-5726 -5730 6372 0
-5726 -5731 6373 0
-5726 -5732 6374 0
-5727 -5730 6373 0
-5727 -5731 6374 0
-5728 -5730 6374 0
-5760 6375 0
-5761 6376 0
-5762 6377 0
-5763 6378 0
-5764 6379 0
-5765 6380 0
-5766 6381 0
-5767 6382 0
-5768 6383 0
-5769 6384 0
-5770 6385 0
-5771 6386 0
-5772 6387 0
-5773 6388 0
-5774 6389 0
-5745 6375 0
-5746 6376 0
-5747 6377 0
-5748 6378 0
-5749 6379 0
-5750 6380 0
-5751 6381 0
-5752 6382 0
-5753 6383 0
-5754 6384 0
-5755 6385 0
-5756 6386 0
-5757 6387 0
-5758 6388 0
-5759 6389 0
-5745 -5760 6376 0
-5745 -5761 6377 0
-5745 -5762 6378 0
-5745 -5763 6379 0
-5745 -5764 6380 0
-5745 -5765 6381 0
-5745 -5766 6382 0
-5745 -5767 6383 0
-5745 -5768 6384 0
-5745 -5769 6385 0
-5745 -5770 6386 0
-5745 -5771 6387 0
-5745 -5772 6388 0
-5745 -5773 6389 0
-5746 -5760 6377 0
-5746 -5761 6378 0
-5746 -5762 6379 0
-5746 -5763 6380 0
-5746 -5764 6381 0
-5746 -5765 6382 0
-5746 -5766 6383 0
-5746 -5767 6384 0
-5746 -5768 6385 0
-5746 -5769 6386 0
-5746 -5770 6387 0
-5746 -5771 6388 0
-5746 -5772 6389 0
-5747 -5760 6378 0
-5747 -5761 6379 0
-5747 -5762 6380 0
-5747 -5763 6381 0
-5747 -5764 6382 0
-5747 -5765 6383 0
-5747 -5766 6384 0
-5747 -5767 6385 0
-5747 -5768 6386 0
-5747 -5769 6387 0
-5747 -5770 6388 0
-5747 -5771 6389 0
-5748 -5760 6379 0
-5748 -5761 6380 0
-5748 -5762 6381 0
-5748 -5763 6382 0
-5748 -5764 6383 0
-5748 -5765 6384 0
-5748 -5766 6385 0
-5748 -5767 6386 0
-5748 -5768 6387 0
-5748 -5769 6388 0
-5748 -5770 6389 0
-5749 -5760 6380 0
-5749 -5761 6381 0
-5749 -5762 6382 0
-5749 -5763 6383 0
-5749 -5764 6384 0
-5749 -5765 6385 0
-5749 -5766 6386 0
-5749 -5767 6387 0
-5749 -5768 6388 0
-5749 -5769 6389 0
-5750 -5760 6381 0
-5750 -5761 6382 0
-5750 -5762 6383 0
-5750 -5763 6384 0
-5750 -5764 6385 0
-5750 -5765 6386 0
-5750 -5766 6387 0
-5750 -5767 6388 0
-5750 -5768 6389 0
-5751 -5760 6382 0
-5751 -5761 6383 0
-5751 -5762 6384 0
-5751 -5763 6385 0
-5751 -5764 6386 0
-5751 -5765 6387 0
-5751 -5766 6388 0
-5751 -5767 6389 0
-5752 -5760 6383 0
-5752 -5761 6384 0
-5752 -5762 6385 0
-5752 -5763 6386 0
-5752 -5764 6387 0
-5752 -5765 6388 0
-5752 -5766 6389 0
-5753 -5760 6384 0
-5753 -5761 6385 0
-5753 -5762 6386 0
-5753 -5763 6387 0
-5753 -5764 6388 0
-5753 -5765 6389 0
-5754 -5760 6385 0
-5754 -5761 6386 0
-5754 -5762 6387 0
-5754 -5763 6388 0
-5754 -5764 6389 0
-5755 -5760 6386 0
-5755 -5761 6387 0
-5755 -5762 6388 0
-5755 -5763 6389 0
-5756 -5760 6387 0
-5756 -5761 6388 0
-5756 -5762 6389 0
-5757 -5760 6388 0
-5757 -5761 6389 0
-5758 -5760 6389 0
-5790 6390 0
-5791 6391 0
-5792 6392 0
-5793 6393 0
-5794 6394 0
-5795 6395 0
-5796 6396 0
-5797 6397 0
-5798 6398 0
-5799 6399 0
-5800 6400 0
-5801 6401 0
-5802 6402 0
-5803 6403 0
-5804 6404 0
-5775 6390 0
-5776 6391 0
-5777 6392 0
-5778 6393 0
-5779 6394 0
-5780 6395 0
-5781 6396 0
-5782 6397 0
-5783 6398 0
-5784 6399 0
-5785 6400 0
-5786 6401 0
-5787 6402 0
-5788 6403 0
-5789 6404 0
-5775 -5790 6391 0
-5775 -5791 6392 0
-5775 -5792 6393 0
-5775 -5793 6394 0
-5775 -5794 6395 0
-5775 -5795 6396 0
-5775 -5796 6397 0
-5775 -5797 6398 0
-5775 -5798 6399 0
-5775 -5799 6400 0
-5775 -5800 6401 0
-5775 -5801 6402 0
-5775 -5802 6403 0
-5775 -5803 6404 0
-5776 -5790 6392 0
-5776 -5791 6393 0
-5776 -5792 6394 0
-5776 -5793 6395 0
-5776 -5794 6396 0
-5776 -5795 6397 0
-5776 -5796 6398 0
-5776 -5797 6399 0
-5776 -5798 6400 0
-5776 -5799 6401 0
-5776 -5800 6402 0
-5776 -5801 6403 0
-5776 -5802 6404 0
-5777 -5790 6393 0
-5777 -5791 6394 0
-5777 -5792 6395 0
-5777 -5793 6396 0
-5777 -5794 6397 0
-5777 -5795 6398 0
-5777 -5796 6399 0
-5777 -5797 6400 0
-5777 -5798 6401 0
-5777 -5799 6402 0
-5777 -5800 6403 0
-5777 -5801 6404 0
-5778 -5790 6394 0
-5778 -5791 6395 0
-5778 -5792 6396 0
-5778 -5793 6397 0
-5778 -5794 6398 0
-5778 -5795 6399 0
-5778 -5796 6400 0
-5778 -5797 6401 0
-5778 -5798 6402 0
-5778 -5799 6403 0
-5778 -5800 6404 0
-5779 -5790 6395 0
-5779 -5791 6396 0
-5779 -5792 6397 0
-5779 -5793 6398 0
-5779 -5794 6399 0
-5779 -5795 6400 0
-5779 -5796 6401 0
-5779 -5797 6402 0
-5779 -5798 6403 0
-5779 -5799 6404 0
-5780 -5790 6396 0
-5780 -5791 6397 0
-5780 -5792 6398 0
-5780 -5793 6399 0
-5780 -5794 6400 0
-5780 -5795 6401 0
-5780 -5796 6402 0
-5780 -5797 6403 0
-5780 -5798 6404 0
-5781 -5790 6397 0
-5781 -5791 6398 0
-5781 -5792 6399 0
-5781 -5793 6400 0
-5781 -5794 6401 0
-5781 -5795 6402 0
-5781 -5796 6403 0
-5781 -5797 6404 0
-5782 -5790 6398 0
-5782 -5791 6399 0
-5782 -5792 6400 0
-5782 -5793 6401 0
-5782 -5794 6402 0
-5782 -5795 6403 0
-5782 -5796 6404 0
-5783 -5790 6399 0
-5783 -5791 6400 0
-5783 -5792 6401 0
-5783 -5793 6402 0
-5783 -5794 6403 0
-5783 -5795 6404 0
-5784 -5790 6400 0
-5784 -5791 6401 0
-5784 -5792 6402 0
-5784 -5793 6403 0
-5784 -5794 6404 0
-5785 -5790 6401 0
-5785 -5791 6402 0
-5785 -5792 6403 0
-5785 -5793 6404 0
-5786 -5790 6402 0
-5786 -5791 6403 0
-5786 -5792 6404 0
-5787 -5790 6403 0
-5787 -5791 6404 0
-5788 -5790 6404 0
-5820 6405 0
-5821 6406 0
-5822 6407 0
-5823 6408 0
-5824 6409 0
-5825 6410 0
-5826 6411 0
-5827 6412 0
-5828 6413 0
-5829 6414 0
-5830 6415 0
-5831 6416 0
-5832 6417 0
-5833 6418 0
-5834 6419 0
-5805 6405 0
-5806 6406 0
-5807 6407 0
-5808 6408 0
-5809 6409 0
-5810 6410 0
-5811 6411 0
-5812 6412 0
-5813 6413 0
-5814 6414 0
-5815 6415 0
-5816 6416 0
-5817 6417 0
-5818 6418 0
-5819 6419 0
-5805 -5820 6406 0
-5805 -5821 6407 0
-5805 -5822 6408 0
-5805 -5823 6409 0
-5805 -5824 6410 0
-5805 -5825 6411 0
-5805 -5826 6412 0
-5805 -5827 6413 0
-5805 -5828 6414 0
-5805 -5829 6415 0
-5805 -5830 6416 0
-5805 -5831 6417 0
-5805 -5832 6418 0
-5805 -5833 6419 0
-5806 -5820 6407 0
-5806 -5821 6408 0
-5806 -5822 6409 0
-5806 -5823 6410 0
-5806 -5824 6411 0
-5806 -5825 6412 0
-5806 -5826 6413 0
-5806 -5827 6414 0
-5806 -5828 6415 0
-5806 -5829 6416 0
-5806 -5830 6417 0
-5806 -5831 6418 0
-5806 -5832 6419 0
-5807 -5820 6408 0
-5807 -5821 6409 0
-5807 -5822 6410 0
-5807 -5823 6411 0
-5807 -5824 6412 0
-5807 -5825 6413 0
-5807 -5826 6414 0
-5807 -5827 6415 0
-5807 -5828 6416 0
-5807 -5829 6417 0
-5807 -5830 6418 0
-5807 -5831 6419 0
-5808 -5820 6409 0
-5808 -5821 6410 0
-5808 -5822 6411 0
-5808 -5823 6412 0
-5808 -5824 6413 0
-5808 -5825 6414 0
-5808 -5826 6415 0
-5808 -5827 6416 0
-5808 -5828 6417 0
-5808 -5829 6418 0
-5808 -5830 6419 0
-5809 -5820 6410 0
-5809 -5821 6411 0
-5809 -5822 6412 0
-5809 -5823 6413 0
-5809 -5824 6414 0
-5809 -5825 6415 0
-5809 -5826 6416 0
-5809 -5827 6417 0
-5809 -5828 6418 0
-5809 -5829 6419 0
-5810 -5820 6411 0
-5810 -5821 6412 0
-5810 -5822 6413 0
-5810 -5823 6414 0
-5810 -5824 6415 0
-5810 -5825 6416 0
-5810 -5826 6417 0
-5810 -5827 6418 0
-5810 -5828 6419 0
-5811 -5820 6412 0
-5811 -5821 6413 0
-5811 -5822 6414 0
-5811 -5823 6415 0
-5811 -5824 6416 0
-5811 -5825 6417 0
-5811 -5826 6418 0
-5811 -5827 6419 0
-5812 -5820 6413 0
-5812 -5821 6414 0
-5812 -5822 6415 0
-5812 -5823 6416 0
-5812 -5824 6417 0
-5812 -5825 6418 0
-5812 -5826 6419 0
-5813 -5820 6414 0
-5813 -5821 6415 0
-5813 -5822 6416 0
-5813 -5823 6417 0
-5813 -5824 6418 0
-5813 -5825 6419 0
-5814 -5820 6415 0
-5814 -5821 6416 0
-5814 -5822 6417 0
-5814 -5823 6418 0
-5814 -5824 6419 0
-5815 -5820 6416 0
-5815 -5821 6417 0
-5815 -5822 6418 0
-5815 -5823 6419 0
-5816 -5820 6417 0
-5816 -5821 6418 0
-5816 -5822 6419 0
-5817 -5820 6418 0
-5817 -5821 6419 0
-5818 -5820 6419 0
-5850 6420 0
-5851 6421 0
-5852 6422 0
-5853 6423 0
-5854 6424 0
-5855 6425 0
-5856 6426 0
-5857 6427 0
-5858 6428 0
-5859 6429 0
-5860 6430 0
-5861 6431 0
-5862 6432 0
-5863 6433 0
-5864 6434 0
-5835 6420 0
-5836 6421 0
-5837 6422 0
-5838 6423 0
-5839 6424 0
-5840 6425 0
-5841 6426 0
-5842 6427 0
-5843 6428 0
-5844 6429 0
-5845 6430 0
-5846 6431 0
-5847 6432 0
-5848 6433 0
-5849 6434 0
-5835 -5850 6421 0
-5835 -5851 6422 0
-5835 -5852 6423 0
-5835 -5853 6424 0
-5835 -5854 6425 0
-5835 -5855 6426 0
-5835 -5856 6427 0
-5835 -5857 6428 0
-5835 -5858 6429 0
-5835 -5859 6430 0
-5835 -5860 6431 0
-5835 -5861 6432 0
-5835 -5862 6433 0
-5835 -5863 6434 0
-5836 -5850 6422 0
-5836 -5851 6423 0
-5836 -5852 6424 0
-5836 -5853 6425 0
-5836 -5854 6426 0
-5836 -5855 6427 0
-5836 -5856 6428 0
-5836 -5857 6429 0
-5836 -5858 6430 0
-5836 -5859 6431 0
-5836 -5860 6432 0
-5836 -5861 6433 0
-5836 -5862 6434 0
-5837 -5850 6423 0
-5837 -5851 6424 0
-5837 -5852 6425 0
-5837 -5853 6426 0
-5837 -5854 6427 0
-5837 -5855 6428 0
-5837 -5856 6429 0
-5837 -5857 6430 0
-5837 -5858 6431 0
-5837 -5859 6432 0
-5837 -5860 6433 0
-5837 -5861 6434 0
-5838 -5850 6424 0
-5838 -5851 6425 0
-5838 -5852 6426 0
-5838 -5853 6427 0
-5838 -5854 6428 0
-5838 -5855 6429 0
-5838 -5856 6430 0
-5838 -5857 6431 0
-5838 -5858 6432 0
-5838 -5859 6433 0
-5838 -5860 6434 0
-5839 -5850 6425 0
-5839 -5851 6426 0
-5839 -5852 6427 0
-5839 -5853 6428 0
-5839 -5854 6429 0
-5839 -5855 6430 0
-5839 -5856 6431 0
-5839 -5857 6432 0
-5839 -5858 6433 0
-5839 -5859 6434 0
-5840 -5850 6426 0
-5840 -5851 6427 0
-5840 -5852 6428 0
-5840 -5853 6429 0
-5840 -5854 6430 0
-5840 -5855 6431 0
-5840 -5856 6432 0
-5840 -5857 6433 0
-5840 -5858 6434 0
-5841 -5850 6427 0
-5841 -5851 6428 0
-5841 -5852 6429 0
-5841 -5853 6430 0
-5841 -5854 6431 0
-5841 -5855 6432 0
-5841 -5856 6433 0
-5841 -5857 6434 0
-5842 -5850 6428 0
-5842 -5851 6429 0
-5842 -5852 6430 0
-5842 -5853 6431 0
-5842 -5854 6432 0
-5842 -5855 6433 0
-5842 -5856 6434 0
-5843 -5850 6429 0
-5843 -5851 6430 0
-5843 -5852 6431 0
-5843 -5853 6432 0
-5843 -5854 6433 0
-5843 -5855 6434 0
-5844 -5850 6430 0
-5844 -5851 6431 0
-5844 -5852 6432 0
-5844 -5853 6433 0
-5844 -5854 6434 0
-5845 -5850 6431 0
-5845 -5851 6432 0
-5845 -5852 6433 0
-5845 -5853 6434 0
-5846 -5850 6432 0
-5846 -5851 6433 0
-5846 -5852 6434 0
-5847 -5850 6433 0
-5847 -5851 6434 0
-5848 -5850 6434 0
-5880 6435 0
-5881 6436 0
-5882 6437 0
-5883 6438 0
-5884 6439 0
-5885 6440 0
-5886 6441 0
-5887 6442 0
-5888 6443 0
-5889 6444 0
-5890 6445 0
-5891 6446 0
-5892 6447 0
-5893 6448 0
-5894 6449 0
-5865 6435 0
-5866 6436 0
-5867 6437 0
-5868 6438 0
-5869 6439 0
-5870 6440 0
-5871 6441 0
-5872 6442 0
-5873 6443 0
-5874 6444 0
-5875 6445 0
-5876 6446 0
-5877 6447 0
-5878 6448 0
-5879 6449 0
-5865 -5880 6436 0
-5865 -5881 6437 0
-5865 -5882 6438 0
-5865 -5883 6439 0
-5865 -5884 6440 0
-5865 -5885 6441 0
-5865 -5886 6442 0
-5865 -5887 6443 0
-5865 -5888 6444 0
-5865 -5889 6445 0
-5865 -5890 6446 0
-5865 -5891 6447 0
-5865 -5892 6448 0
-5865 -5893 6449 0
-5866 -5880 6437 0
-5866 -5881 6438 0
-5866 -5882 6439 0
-5866 -5883 6440 0
-5866 -5884 6441 0
-5866 -5885 6442 0
-5866 -5886 6443 0
-5866 -5887 6444 0
-5866 -5888 6445 0
-5866 -5889 6446 0
-5866 -5890 6447 0
-5866 -5891 6448 0
-5866 -5892 6449 0
-5867 -5880 6438 0
-5867 -5881 6439 0
-5867 -5882 6440 0
-5867 -5883 6441 0
-5867 -5884 6442 0
-5867 -5885 6443 0
-5867 -5886 6444 0
-5867 -5887 6445 0
-5867 -5888 6446 0
-5867 -5889 6447 0
-5867 -5890 6448 0
-5867 -5891 6449 0
-5868 -5880 6439 0
-5868 -5881 6440 0
-5868 -5882 6441 0
-5868 -5883 6442 0
-5868 -5884 6443 0
-5868 -5885 6444 0
-5868 -5886 6445 0
-5868 -5887 6446 0
-5868 -5888 6447 0
-5868 -5889 6448 0
-5868 -5890 6449 0
-5869 -5880 6440 0
-5869 -5881 6441 0
-5869 -5882 6442 0
-5869 -5883 6443 0
-5869 -5884 6444 0
-5869 -5885 6445 0
-5869 -5886 6446 0
-5869 -5887 6447 0
-5869 -5888 6448 0
-5869 -5889 6449 0
-5870 -5880 6441 0
-5870 -5881 6442 0
-5870 -5882 6443 0
-5870 -5883 6444 0
-5870 -5884 6445 0
-5870 -5885 6446 0
-5870 -5886 6447 0
-5870 -5887 6448 0
-5870 -5888 6449 0
-5871 -5880 6442 0
-5871 -5881 6443 0
-5871 -5882 6444 0
-5871 -5883 6445 0
-5871 -5884 6446 0
-5871 -5885 6447 0
-5871 -5886 6448 0
-5871 -5887 6449 0
-5872 -5880 6443 0
-5872 -5881 6444 0
-5872 -5882 6445 0
-5872 -5883 6446 0
-5872 -5884 6447 0
-5872 -5885 6448 0
-5872 -5886 6449 0
-5873 -5880 6444 0
-5873 -5881 6445 0
-5873 -5882 6446 0
-5873 -5883 6447 0
-5873 -5884 6448 0
-5873 -5885 6449 0
-5874 -5880 6445 0
-5874 -5881 6446 0
-5874 -5882 6447 0
-5874 -5883 6448 0
-5874 -5884 6449 0
-5875 -5880 6446 0
-5875 -5881 6447 0
-5875 -5882 6448 0
-5875 -5883 6449 0
-5876 -5880 6447 0
-5876 -5881 6448 0
-5876 -5882 6449 0
-5877 -5880 6448 0
-5877 -5881 6449 0
-5878 -5880 6449 0
-5910 6450 0
-5911 6451 0
-5912 6452 0
-5913 6453 0
-5914 6454 0
-5915 6455 0
-5916 6456 0
-5917 6457 0
-5918 6458 0
-5919 6459 0
-5920 6460 0
-5921 6461 0
-5922 6462 0
-5923 6463 0
-5924 6464 0
-5895 6450 0
-5896 6451 0
-5897 6452 0
-5898 6453 0
-5899 6454 0
-5900 6455 0
-5901 6456 0
-5902 6457 0
-5903 6458 0
-5904 6459 0
-5905 6460 0
-5906 6461 0
-5907 6462 0
-5908 6463 0
-5909 6464 0
-5895 -5910 6451 0
-5895 -5911 6452 0
-5895 -5912 6453 0
-5895 -5913 6454 0
-5895 -5914 6455 0
-5895 -5915 6456 0
-5895 -5916 6457 0
-5895 -5917 6458 0
-5895 -5918 6459 0
-5895 -5919 6460 0
-5895 -5920 6461 0
-5895 -5921 6462 0
-5895 -5922 6463 0
-5895 -5923 6464 0
-5896 -5910 6452 0
-5896 -5911 6453 0
-5896 -5912 6454 0
-5896 -5913 6455 0
-5896 -5914 6456 0
-5896 -5915 6457 0
-5896 -5916 6458 0
-5896 -5917 6459 0
-5896 -5918 6460 0
-5896 -5919 6461 0
-5896 -5920 6462 0
-5896 -5921 6463 0
-5896 -5922 6464 0
-5897 -5910 6453 0
-5897 -5911 6454 0
-5897 -5912 6455 0
-5897 -5913 6456 0
-5897 -5914 6457 0
-5897 -5915 6458 0
-5897 -5916 6459 0
-5897 -5917 6460 0
-5897 -5918 6461 0
-5897 -5919 6462 0
-5897 -5920 6463 0
-5897 -5921 6464 0
-5898 -5910 6454 0
-5898 -5911 6455 0
-5898 -5912 6456 0
-5898 -5913 6457 0
-5898 -5914 6458 0
-5898 -5915 6459 0
-5898 -5916 6460 0
-5898 -5917 6461 0
-5898 -5918 6462 0
-5898 -5919 6463 0
-5898 -5920 6464 0
-5899 -5910 6455 0
-5899 -5911 6456 0
-5899 -5912 6457 0
-5899 -5913 6458 0
-5899 -5914 6459 0
-5899 -5915 6460 0
-5899 -5916 6461 0
-5899 -5917 6462 0
-5899 -5918 6463 0
-5899 -5919 6464 0
-5900 -5910 6456 0
-5900 -5911 6457 0
-5900 -5912 6458 0
-5900 -5913 6459 0
-5900 -5914 6460 0
-5900 -5915 6461 0
-5900 -5916 6462 0
-5900 -5917 6463 0
-5900 -5918 6464 0
-5901 -5910 6457 0
-5901 -5911 6458 0
-5901 -5912 6459 0
-5901 -5913 6460 0
-5901 -5914 6461 0
-5901 -5915 6462 0
-5901 -5916 6463 0
-5901 -5917 6464 0
-5902 -5910 6458 0
-5902 -5911 6459 0
-5902 -5912 6460 0
-5902 -5913 6461 0
-5902 -5914 6462 0
-5902 -5915 6463 0
-5902 -5916 6464 0
-5903 -5910 6459 0
-5903 -5911 6460 0
-5903 -5912 6461 0
-5903 -5913 6462 0
-5903 -5914 6463 0
-5903 -5915 6464 0
-5904 -5910 6460 0
-5904 -5911 6461 0
-5904 -5912 6462 0
-5904 -5913 6463 0
-5904 -5914 6464 0
-5905 -5910 6461 0
-5905 -5911 6462 0
-5905 -5912 6463 0
-5905 -5913 6464 0
-5906 -5910 6462 0
-5906 -5911 6463 0
-5906 -5912 6464 0
-5907 -5910 6463 0
-5907 -5911 6464 0
-5908 -5910 6464 0
-5940 6465 0
-5941 6466 0
-5942 6467 0
-5943 6468 0
-5944 6469 0
-5945 6470 0
-5946 6471 0
-5947 6472 0
-5948 6473 0
-5949 6474 0
-5950 6475 0
-5951 6476 0
-5952 6477 0
-5953 6478 0
-5954 6479 0
-5925 6465 0
-5926 6466 0
-5927 6467 0
-5928 6468 0
-5929 6469 0
-5930 6470 0
-5931 6471 0
-5932 6472 0
-5933 6473 0
-5934 6474 0
-5935 6475 0
-5936 6476 0
-5937 6477 0
-5938 6478 0
-5939 6479 0
-5925 -5940 6466 0
-5925 -5941 6467 0
-5925 -5942 6468 0
-5925 -5943 6469 0
-5925 -5944 6470 0
-5925 -5945 6471 0
-5925 -5946 6472 0
-5925 -5947 6473 0
-5925 -5948 6474 0
-5925 -5949 6475 0
-5925 -5950 6476 0
-5925 -5951 6477 0
-5925 -5952 6478 0
-5925 -5953 6479 0
-5926 -5940 6467 0
-5926 -5941 6468 0
-5926 -5942 6469 0
-5926 -5943 6470 0
-5926 -5944 6471 0
-5926 -5945 6472 0
-5926 -5946 6473 0
-5926 -5947 6474 0
-5926 -5948 6475 0
-5926 -5949 6476 0
-5926 -5950 6477 0
-5926 -5951 6478 0
-5926 -5952 6479 0
-5927 -5940 6468 0
-5927 -5941 6469 0
-5927 -5942 6470 0
-5927 -5943 6471 0
-5927 -5944 6472 0
-5927 -5945 6473 0
-5927 -5946 6474 0
-5927 -5947 6475 0
-5927 -5948 6476 0
-5927 -5949 6477 0
-5927 -5950 6478 0
-5927 -5951 6479 0
-5928 -5940 6469 0
-5928 -5941 6470 0
-5928 -5942 6471 0
-5928 -5943 6472 0
-5928 -5944 6473 0
-5928 -5945 6474 0
-5928 -5946 6475 0
-5928 -5947 6476 0
-5928 -5948 6477 0
-5928 -5949 6478 0
-5928 -5950 6479 0
-5929 -5940 6470 0
-5929 -5941 6471 0
-5929 -5942 6472 0
-5929 -5943 6473 0
-5929 -5944 6474 0
-5929 -5945 6475 0
-5929 -5946 6476 0
-5929 -5947 6477 0
-5929 -5948 6478 0
-5929 -5949 6479 0
-5930 -5940 6471 0
-5930 -5941 6472 0
-5930 -5942 6473 0
-5930 -5943 6474 0
-5930 -5944 6475 0
-5930 -5945 6476 0
-5930 -5946 6477 0
-5930 -5947 6478 0
-5930 -5948 6479 0
-5931 -5940 6472 0
-5931 -5941 6473 0
-5931 -5942 6474 0
-5931 -5943 6475 0
-5931 -5944 6476 0
-5931 -5945 6477 0
-5931 -5946 6478 0
-5931 -5947 6479 0
-5932 -5940 6473 0
-5932 -5941 6474 0
-5932 -5942 6475 0
-5932 -5943 6476 0
-5932 -5944 6477 0
-5932 -5945 6478 0
-5932 -5946 6479 0
-5933 -5940 6474 0
-5933 -5941 6475 0
-5933 -5942 6476 0
-5933 -5943 6477 0
-5933 -5944 6478 0
-5933 -5945 6479 0
-5934 -5940 6475 0
-5934 -5941 6476 0
-5934 -5942 6477 0
-5934 -5943 6478 0
-5934 -5944 6479 0
-5935 -5940 6476 0
-5935 -5941 6477 0
-5935 -5942 6478 0
-5935 -5943 6479 0
-5936 -5940 6477 0
-5936 -5941 6478 0
-5936 -5942 6479 0
-5937 -5940 6478 0
-5937 -5941 6479 0
-5938 -5940 6479 0
-5970 6480 0
-5971 6481 0
-5972 6482 0
-5973 6483 0
-5974 6484 0
-5975 6485 0
-5976 6486 0
-5977 6487 0
-5978 6488 0
-5979 6489 0
-5980 6490 0
-5981 6491 0
-5982 6492 0
-5983 6493 0
-5984 6494 0
-5955 6480 0
-5956 6481 0
-5957 6482 0
-5958 6483 0
-5959 6484 0
-5960 6485 0
-5961 6486 0
-5962 6487 0
-5963 6488 0
-5964 6489 0
-5965 6490 0
-5966 6491 0
-5967 6492 0
-5968 6493 0
-5969 6494 0
-5955 -5970 6481 0
-5955 -5971 6482 0
-5955 -5972 6483 0
-5955 -5973 6484 0
-5955 -5974 6485 0
-5955 -5975 6486 0
-5955 -5976 6487 0
-5955 -5977 6488 0
-5955 -5978 6489 0
-5955 -5979 6490 0
-5955 -5980 6491 0
-5955 -5981 6492 0
-5955 -5982 6493 0
-5955 -5983 6494 0
-5956 -5970 6482 0
-5956 -5971 6483 0
-5956 -5972 6484 0
-5956 -5973 6485 0
-5956 -5974 6486 0
-5956 -5975 6487 0
-5956 -5976 6488 0
-5956 -5977 6489 0
-5956 -5978 6490 0
-5956 -5979 6491 0
-5956 -5980 6492 0
-5956 -5981 6493 0
-5956 -5982 6494 0
-5957 -5970 6483 0
-5957 -5971 6484 0
-5957 -5972 6485 0
-5957 -5973 6486 0
-5957 -5974 6487 0
-5957 -5975 6488 0
-5957 -5976 6489 0
-5957 -5977 6490 0
-5957 -5978 6491 0
-5957 -5979 6492 0
-5957 -5980 6493 0
-5957 -5981 6494 0
-5958 -5970 6484 0
-5958 -5971 6485 0
-5958 -5972 6486 0
-5958 -5973 6487 0
-5958 -5974 6488 0
-5958 -5975 6489 0
-5958 -5976 6490 0
-5958 -5977 6491 0
-5958 -5978 6492 0
-5958 -5979 6493 0
-5958 -5980 6494 0
-5959 -5970 6485 0
-5959 -5971 6486 0
-5959 -5972 6487 0
-5959 -5973 6488 0
-5959 -5974 6489 0
-5959 -5975 6490 0
-5959 -5976 6491 0
-5959 -5977 6492 0
-5959 -5978 6493 0
-5959 -5979 6494 0
-5960 -5970 6486 0
-5960 -5971 6487 0
-5960 -5972 6488 0
-5960 -5973 6489 0
-5960 -5974 6490 0
-5960 -5975 6491 0
-5960 -5976 6492 0
-5960 -5977 6493 0
-5960 -5978 6494 0
-5961 -5970 6487 0
-5961 -5971 6488 0
-5961 -5972 6489 0
-5961 -5973 6490 0
-5961 -5974 6491 0
-5961 -5975 6492 0
-5961 -5976 6493 0
-5961 -5977 6494 0
-5962 -5970 6488 0
-5962 -5971 6489 0
-5962 -5972 6490 0
-5962 -5973 6491 0
-5962 -5974 6492 0
-5962 -5975 6493 0
-5962 -5976 6494 0
-5963 -5970 6489 0
-5963 -5971 6490 0
-5963 -5972 6491 0
-5963 -5973 6492 0
-5963 -5974 6493 0
-5963 -5975 6494 0
-5964 -5970 6490 0
-5964 -5971 6491 0
-5964 -5972 6492 0
-5964 -5973 6493 0
-5964 -5974 6494 0
-5965 -5970 6491 0
-5965 -5971 6492 0
-5965 -5972 6493 0
-5965 -5973 6494 0
-5966 -5970 6492 0
-5966 -5971 6493 0
-5966 -5972 6494 0
-5967 -5970 6493 0
-5967 -5971 6494 0
-5968 -5970 6494 0
-6000 6495 0
-6001 6496 0
-6002 6497 0
-6003 6498 0
-6004 6499 0
-6005 6500 0
-6006 6501 0
-6007 6502 0
-6008 6503 0
-6009 6504 0
-6010 6505 0
-6011 6506 0
-6012 6507 0
-6013 6508 0
-6014 6509 0
-5985 6495 0
-5986 6496 0
-5987 6497 0
-5988 6498 0
-5989 6499 0
-5990 6500 0
-5991 6501 0
-5992 6502 0
-5993 6503 0
-5994 6504 0
-5995 6505 0
-5996 6506 0
-5997 6507 0
-5998 6508 0
-5999 6509 0
-5985 -6000 6496 0
-5985 -6001 6497 0
-5985 -6002 6498 0
-5985 -6003 6499 0
-5985 -6004 6500 0
-5985 -6005 6501 0
-5985 -6006 6502 0
-5985 -6007 6503 0
-5985 -6008 6504 0
-5985 -6009 6505 0
-5985 -6010 6506 0
-5985 -6011 6507 0
-5985 -6012 6508 0
-5985 -6013 6509 0
-5986 -6000 6497 0
-5986 -6001 6498 0
-5986 -6002 6499 0
-5986 -6003 6500 0
-5986 -6004 6501 0
-5986 -6005 6502 0
-5986 -6006 6503 0
-5986 -6007 6504 0
-5986 -6008 6505 0
-5986 -6009 6506 0
-5986 -6010 6507 0
-5986 -6011 6508 0
-5986 -6012 6509 0
-5987 -6000 6498 0
-5987 -6001 6499 0
-5987 -6002 6500 0
-5987 -6003 6501 0
-5987 -6004 6502 0
-5987 -6005 6503 0
-5987 -6006 6504 0
-5987 -6007 6505 0
-5987 -6008 6506 0
-5987 -6009 6507 0
-5987 -6010 6508 0
-5987 -6011 6509 0
-5988 -6000 6499 0
-5988 -6001 6500 0
-5988 -6002 6501 0
-5988 -6003 6502 0
-5988 -6004 6503 0
-5988 -6005 6504 0
-5988 -6006 6505 0
-5988 -6007 6506 0
-5988 -6008 6507 0
-5988 -6009 6508 0
-5988 -6010 6509 0
-5989 -6000 6500 0
-5989 -6001 6501 0
-5989 -6002 6502 0
-5989 -6003 6503 0
-5989 -6004 6504 0
-5989 -6005 6505 0
-5989 -6006 6506 0
-5989 -6007 6507 0
-5989 -6008 6508 0
-5989 -6009 6509 0
-5990 -6000 6501 0
-5990 -6001 6502 0
-5990 -6002 6503 0
-5990 -6003 6504 0
-5990 -6004 6505 0
-5990 -6005 6506 0
-5990 -6006 6507 0
-5990 -6007 6508 0
-5990 -6008 6509 0
-5991 -6000 6502 0
-5991 -6001 6503 0
-5991 -6002 6504 0
-5991 -6003 6505 0
-5991 -6004 6506 0
-5991 -6005 6507 0
-5991 -6006 6508 0
-5991 -6007 6509 0
-5992 -6000 6503 0
-5992 -6001 6504 0
-5992 -6002 6505 0
-5992 -6003 6506 0
-5992 -6004 6507 0
-5992 -6005 6508 0
-5992 -6006 6509 0
-5993 -6000 6504 0
-5993 -6001 6505 0
-5993 -6002 6506 0
-5993 -6003 6507 0
-5993 -6004 6508 0
-5993 -6005 6509 0
-5994 -6000 6505 0
-5994 -6001 6506 0
-5994 -6002 6507 0
-5994 -6003 6508 0
-5994 -6004 6509 0
-5995 -6000 6506 0
-5995 -6001 6507 0
-5995 -6002 6508 0
-5995 -6003 6509 0
-5996 -6000 6507 0
-5996 -6001 6508 0
-5996 -6002 6509 0
-5997 -6000 6508 0
-5997 -6001 6509 0
-5998 -6000 6509 0
-6030 6510 0
-6031 6511 0
-6032 6512 0
-6033 6513 0
-6034 6514 0
-6035 6515 0
-6036 6516 0
-6037 6517 0
-6038 6518 0
-6039 6519 0
-6040 6520 0
-6041 6521 0
-6042 6522 0
-6043 6523 0
-6044 6524 0
-6015 6510 0
-6016 6511 0
-6017 6512 0
-6018 6513 0
-6019 6514 0
-6020 6515 0
-6021 6516 0
-6022 6517 0
-6023 6518 0
-6024 6519 0
-6025 6520 0
-6026 6521 0
-6027 6522 0
-6028 6523 0
-6029 6524 0
-6015 -6030 6511 0
-6015 -6031 6512 0
-6015 -6032 6513 0
-6015 -6033 6514 0
-6015 -6034 6515 0
-6015 -6035 6516 0
-6015 -6036 6517 0
-6015 -6037 6518 0
-6015 -6038 6519 0
-6015 -6039 6520 0
-6015 -6040 6521 0
-6015 -6041 6522 0
-6015 -6042 6523 0
-6015 -6043 6524 0
-6016 -6030 6512 0
-6016 -6031 6513 0
-6016 -6032 6514 0
-6016 -6033 6515 0
-6016 -6034 6516 0
-6016 -6035 6517 0
-6016 -6036 6518 0
-6016 -6037 6519 0
-6016 -6038 6520 0
-6016 -6039 6521 0
-6016 -6040 6522 0
-6016 -6041 6523 0
-6016 -6042 6524 0
-6017 -6030 6513 0
-6017 -6031 6514 0
-6017 -6032 6515 0
-6017 -6033 6516 0
-6017 -6034 6517 0
-6017 -6035 6518 0
-6017 -6036 6519 0
-6017 -6037 6520 0
-6017 -6038 6521 0
-6017 -6039 6522 0
-6017 -6040 6523 0
-6017 -6041 6524 0
-6018 -6030 6514 0
-6018 -6031 6515 0
-6018 -6032 6516 0
-6018 -6033 6517 0
-6018 -6034 6518 0
-6018 -6035 6519 0
-6018 -6036 6520 0
-6018 -6037 6521 0
-6018 -6038 6522 0
-6018 -6039 6523 0
-6018 -6040 6524 0
-6019 -6030 6515 0
-6019 -6031 6516 0
-6019 -6032 6517 0
-6019 -6033 6518 0
-6019 -6034 6519 0
-6019 -6035 6520 0
-6019 -6036 6521 0
-6019 -6037 6522 0
-6019 -6038 6523 0
-6019 -6039 6524 0
-6020 -6030 6516 0
-6020 -6031 6517 0
-6020 -6032 6518 0
-6020 -6033 6519 0
-6020 -6034 6520 0
-6020 -6035 6521 0
-6020 -6036 6522 0
-6020 -6037 6523 0
-6020 -6038 6524 0
-6021 -6030 6517 0
-6021 -6031 6518 0
-6021 -6032 6519 0
-6021 -6033 6520 0
-6021 -6034 6521 0
-6021 -6035 6522 0
-6021 -6036 6523 0
-6021 -6037 6524 0
-6022 -6030 6518 0
-6022 -6031 6519 0
-6022 -6032 6520 0
-6022 -6033 6521 0
-6022 -6034 6522 0
-6022 -6035 6523 0
-6022 -6036 6524 0
-6023 -6030 6519 0
-6023 -6031 6520 0
-6023 -6032 6521 0
-6023 -6033 6522 0
-6023 -6034 6523 0
-6023 -6035 6524 0
-6024 -6030 6520 0
-6024 -6031 6521 0
-6024 -6032 6522 0
-6024 -6033 6523 0
-6024 -6034 6524 0
-6025 -6030 6521 0
-6025 -6031 6522 0
-6025 -6032 6523 0
-6025 -6033 6524 0
-6026 -6030 6522 0
-6026 -6031 6523 0
-6026 -6032 6524 0
-6027 -6030 6523 0
-6027 -6031 6524 0
-6028 -6030 6524 0
-6060 6525 0
-6061 6526 0
-6062 6527 0
-6063 6528 0
-6064 6529 0
-6065 6530 0
-6066 6531 0
-6067 6532 0
-6068 6533 0
-6069 6534 0
-6070 6535 0
-6071 6536 0
-6072 6537 0
-6073 6538 0
-6074 6539 0
-6045 6525 0
-6046 6526 0
-6047 6527 0
-6048 6528 0
-6049 6529 0
-6050 6530 0
-6051 6531 0
-6052 6532 0
-6053 6533 0
-6054 6534 0
-6055 6535 0
-6056 6536 0
-6057 6537 0
-6058 6538 0
-6059 6539 0
-6045 -6060 6526 0
-6045 -6061 6527 0
-6045 -6062 6528 0
-6045 -6063 6529 0
-6045 -6064 6530 0
-6045 -6065 6531 0
-6045 -6066 6532 0
-6045 -6067 6533 0
-6045 -6068 6534 0
-6045 -6069 6535 0
-6045 -6070 6536 0
-6045 -6071 6537 0
-6045 -6072 6538 0
-6045 -6073 6539 0
-6046 -6060 6527 0
-6046 -6061 6528 0
-6046 -6062 6529 0
-6046 -6063 6530 0
-6046 -6064 6531 0
-6046 -6065 6532 0
-6046 -6066 6533 0
-6046 -6067 6534 0
-6046 -6068 6535 0
-6046 -6069 6536 0
-6046 -6070 6537 0
-6046 -6071 6538 0
-6046 -6072 6539 0
-6047 -6060 6528 0
-6047 -6061 6529 0
-6047 -6062 6530 0
-6047 -6063 6531 0
-6047 -6064 6532 0
-6047 -6065 6533 0
-6047 -6066 6534 0
-6047 -6067 6535 0
-6047 -6068 6536 0
-6047 -6069 6537 0
-6047 -6070 6538 0
-6047 -6071 6539 0
-6048 -6060 6529 0
-6048 -6061 6530 0
-6048 -6062 6531 0
-6048 -6063 6532 0
-6048 -6064 6533 0
-6048 -6065 6534 0
-6048 -6066 6535 0
-6048 -6067 6536 0
-6048 -6068 6537 0
-6048 -6069 6538 0
-6048 -6070 6539 0
-6049 -6060 6530 0
-6049 -6061 6531 0
-6049 -6062 6532 0
-6049 -6063 6533 0
-6049 -6064 6534 0
-6049 -6065 6535 0
-6049 -6066 6536 0
-6049 -6067 6537 0
-6049 -6068 6538 0
-6049 -6069 6539 0
-6050 -6060 6531 0
-6050 -6061 6532 0
-6050 -6062 6533 0
-6050 -6063 6534 0
-6050 -6064 6535 0
-6050 -6065 6536 0
-6050 -6066 6537 0
-6050 -6067 6538 0
-6050 -6068 6539 0
-6051 -6060 6532 0
-6051 -6061 6533 0
-6051 -6062 6534 0
-6051 -6063 6535 0
-6051 -6064 6536 0
-6051 -6065 6537 0
-6051 -6066 6538 0
-6051 -6067 6539 0
-6052 -6060 6533 0
-6052 -6061 6534 0
-6052 -6062 6535 0
-6052 -6063 6536 0
-6052 -6064 6537 0
-6052 -6065 6538 0
-6052 -6066 6539 0
-6053 -6060 6534 0
-6053 -6061 6535 0
-6053 -6062 6536 0
-6053 -6063 6537 0
-6053 -6064 6538 0
-6053 -6065 6539 0
-6054 -6060 6535 0
-6054 -6061 6536 0
-6054 -6062 6537 0
-6054 -6063 6538 0
-6054 -6064 6539 0
-6055 -6060 6536 0
-6055 -6061 6537 0
-6055 -6062 6538 0
-6055 -6063 6539 0
-6056 -6060 6537 0
-6056 -6061 6538 0
-6056 -6062 6539 0
-6057 -6060 6538 0
-6057 -6061 6539 0
-6058 -6060 6539 0
-6090 6540 0
-6091 6541 0
-6092 6542 0
-6093 6543 0
-6094 6544 0
-6095 6545 0
-6096 6546 0
-6097 6547 0
-6098 6548 0
-6099 6549 0
-6100 6550 0
-6101 6551 0
-6102 6552 0
-6103 6553 0
-6104 6554 0
-6075 6540 0
-6076 6541 0
-6077 6542 0
-6078 6543 0
-6079 6544 0
-6080 6545 0
-6081 6546 0
-6082 6547 0
-6083 6548 0
-6084 6549 0
-6085 6550 0
-6086 6551 0
-6087 6552 0
-6088 6553 0
-6089 6554 0
-6075 -6090 6541 0
-6075 -6091 6542 0
-6075 -6092 6543 0
-6075 -6093 6544 0
-6075 -6094 6545 0
-6075 -6095 6546 0
-6075 -6096 6547 0
-6075 -6097 6548 0
-6075 -6098 6549 0
-6075 -6099 6550 0
-6075 -6100 6551 0
-6075 -6101 6552 0
-6075 -6102 6553 0
-6075 -6103 6554 0
-6076 -6090 6542 0
-6076 -6091 6543 0
-6076 -6092 6544 0
-6076 -6093 6545 0
-6076 -6094 6546 0
-6076 -6095 6547 0
-6076 -6096 6548 0
-6076 -6097 6549 0
-6076 -6098 6550 0
-6076 -6099 6551 0
-6076 -6100 6552 0
-6076 -6101 6553 0
-6076 -6102 6554 0
-6077 -6090 6543 0
-6077 -6091 6544 0
-6077 -6092 6545 0
-6077 -6093 6546 0
-6077 -6094 6547 0
-6077 -6095 6548 0
-6077 -6096 6549 0
-6077 -6097 6550 0
-6077 -6098 6551 0
-6077 -6099 6552 0
-6077 -6100 6553 0
-6077 -6101 6554 0
-6078 -6090 6544 0
-6078 -6091 6545 0
-6078 -6092 6546 0
-6078 -6093 6547 0
-6078 -6094 6548 0
-6078 -6095 6549 0
-6078 -6096 6550 0
-6078 -6097 6551 0
-6078 -6098 6552 0
-6078 -6099 6553 0
-6078 -6100 6554 0
-6079 -6090 6545 0
-6079 -6091 6546 0
-6079 -6092 6547 0
-6079 -6093 6548 0
-6079 -6094 6549 0
-6079 -6095 6550 0
-6079 -6096 6551 0
-6079 -6097 6552 0
-6079 -6098 6553 0
-6079 -6099 6554 0
-6080 -6090 6546 0
-6080 -6091 6547 0
-6080 -6092 6548 0
-6080 -6093 6549 0
-6080 -6094 6550 0
-6080 -6095 6551 0
-6080 -6096 6552 0
-6080 -6097 6553 0
-6080 -6098 6554 0
-6081 -6090 6547 0
-6081 -6091 6548 0
-6081 -6092 6549 0
-6081 -6093 6550 0
-6081 -6094 6551 0
-6081 -6095 6552 0
-6081 -6096 6553 0
-6081 -6097 6554 0
-6082 -6090 6548 0
-6082 -6091 6549 0
-6082 -6092 6550 0
-6082 -6093 6551 0
-6082 -6094 6552 0
-6082 -6095 6553 0
-6082 -6096 6554 0
-6083 -6090 6549 0
-6083 -6091 6550 0
-6083 -6092 6551 0
-6083 -6093 6552 0
-6083 -6094 6553 0
-6083 -6095 6554 0
-6084 -6090 6550 0
-6084 -6091 6551 0
-6084 -6092 6552 0
-6084 -6093 6553 0
-6084 -6094 6554 0
-6085 -6090 6551 0
-6085 -6091 6552 0
-6085 -6092 6553 0
-6085 -6093 6554 0
-6086 -6090 6552 0
-6086 -6091 6553 0
-6086 -6092 6554 0
-6087 -6090 6553 0
-6087 -6091 6554 0
-6088 -6090 6554 0
-6120 6555 0
-6121 6556 0
-6122 6557 0
-6123 6558 0
-6124 6559 0
-6125 6560 0
-6126 6561 0
-6127 6562 0
-6128 6563 0
-6129 6564 0
-6130 6565 0
-6131 6566 0
-6132 6567 0
-6133 6568 0
-6134 6569 0
-6105 6555 0
-6106 6556 0
-6107 6557 0
-6108 6558 0
-6109 6559 0
-6110 6560 0
-6111 6561 0
-6112 6562 0
-6113 6563 0
-6114 6564 0
-6115 6565 0
-6116 6566 0
-6117 6567 0
-6118 6568 0
-6119 6569 0
-6105 -6120 6556 0
-6105 -6121 6557 0
-6105 -6122 6558 0
-6105 -6123 6559 0
-6105 -6124 6560 0
-6105 -6125 6561 0
-6105 -6126 6562 0
-6105 -6127 6563 0
-6105 -6128 6564 0
-6105 -6129 6565 0
-6105 -6130 6566 0
-6105 -6131 6567 0
-6105 -6132 6568 0
-6105 -6133 6569 0
-6106 -6120 6557 0
-6106 -6121 6558 0
-6106 -6122 6559 0
-6106 -6123 6560 0
-6106 -6124 6561 0
-6106 -6125 6562 0
-6106 -6126 6563 0
-6106 -6127 6564 0
-6106 -6128 6565 0
-6106 -6129 6566 0
-6106 -6130 6567 0
-6106 -6131 6568 0
-6106 -6132 6569 0
-6107 -6120 6558 0
-6107 -6121 6559 0
-6107 -6122 6560 0
-6107 -6123 6561 0
-6107 -6124 6562 0
-6107 -6125 6563 0
-6107 -6126 6564 0
-6107 -6127 6565 0
-6107 -6128 6566 0
-6107 -6129 6567 0
-6107 -6130 6568 0
-6107 -6131 6569 0
-6108 -6120 6559 0
-6108 -6121 6560 0
-6108 -6122 6561 0
-6108 -6123 6562 0
-6108 -6124 6563 0
-6108 -6125 6564 0
-6108 -6126 6565 0
-6108 -6127 6566 0
-6108 -6128 6567 0
-6108 -6129 6568 0
-6108 -6130 6569 0
-6109 -6120 6560 0
-6109 -6121 6561 0
-6109 -6122 6562 0
-6109 -6123 6563 0
-6109 -6124 6564 0
-6109 -6125 6565 0
-6109 -6126 6566 0
-6109 -6127 6567 0
-6109 -6128 6568 0
-6109 -6129 6569 0
-6110 -6120 6561 0
-6110 -6121 6562 0
-6110 -6122 6563 0
-6110 -6123 6564 0
-6110 -6124 6565 0
-6110 -6125 6566 0
-6110 -6126 6567 0
-6110 -6127 6568 0
-6110 -6128 6569 0
-6111 -6120 6562 0
-6111 -6121 6563 0
-6111 -6122 6564 0
-6111 -6123 6565 0
-6111 -6124 6566 0
-6111 -6125 6567 0
-6111 -6126 6568 0
-6111 -6127 6569 0
-6112 -6120 6563 0
-6112 -6121 6564 0
-6112 -6122 6565 0
-6112 -6123 6566 0
-6112 -6124 6567 0
-6112 -6125 6568 0
-6112 -6126 6569 0
-6113 -6120 6564 0
-6113 -6121 6565 0
-6113 -6122 6566 0
-6113 -6123 6567 0
-6113 -6124 6568 0
-6113 -6125 6569 0
-6114 -6120 6565 0
-6114 -6121 6566 0
-6114 -6122 6567 0
-6114 -6123 6568 0
-6114 -6124 6569 0
-6115 -6120 6566 0
-6115 -6121 6567 0
-6115 -6122 6568 0
-6115 -6123 6569 0
-6116 -6120 6567 0
-6116 -6121 6568 0
-6116 -6122 6569 0
-6117 -6120 6568 0
-6117 -6121 6569 0
-6118 -6120 6569 0
-6150 6570 0
-6151 6571 0
-6152 6572 0
-6153 6573 0
-6154 6574 0
-6155 6575 0
-6156 6576 0
-6157 6577 0
-6158 6578 0
-6159 6579 0
-6160 6580 0
-6161 6581 0
-6162 6582 0
-6163 6583 0
-6164 6584 0
-6135 6570 0
-6136 6571 0
-6137 6572 0
-6138 6573 0
-6139 6574 0
-6140 6575 0
-6141 6576 0
-6142 6577 0
-6143 6578 0
-6144 6579 0
-6145 6580 0
-6146 6581 0
-6147 6582 0
-6148 6583 0
-6149 6584 0
-6135 -6150 6571 0
-6135 -6151 6572 0
-6135 -6152 6573 0
-6135 -6153 6574 0
-6135 -6154 6575 0
-6135 -6155 6576 0
-6135 -6156 6577 0
-6135 -6157 6578 0
-6135 -6158 6579 0
-6135 -6159 6580 0
-6135 -6160 6581 0
-6135 -6161 6582 0
-6135 -6162 6583 0
-6135 -6163 6584 0
-6136 -6150 6572 0
-6136 -6151 6573 0
-6136 -6152 6574 0
-6136 -6153 6575 0
-6136 -6154 6576 0
-6136 -6155 6577 0
-6136 -6156 6578 0
-6136 -6157 6579 0
-6136 -6158 6580 0
-6136 -6159 6581 0
-6136 -6160 6582 0
-6136 -6161 6583 0
-6136 -6162 6584 0
-6137 -6150 6573 0
-6137 -6151 6574 0
-6137 -6152 6575 0
-6137 -6153 6576 0
-6137 -6154 6577 0
-6137 -6155 6578 0
-6137 -6156 6579 0
-6137 -6157 6580 0
-6137 -6158 6581 0
-6137 -6159 6582 0
-6137 -6160 6583 0
-6137 -6161 6584 0
-6138 -6150 6574 0
-6138 -6151 6575 0
-6138 -6152 6576 0
-6138 -6153 6577 0
-6138 -6154 6578 0
-6138 -6155 6579 0
-6138 -6156 6580 0
-6138 -6157 6581 0
-6138 -6158 6582 0
-6138 -6159 6583 0
-6138 -6160 6584 0
-6139 -6150 6575 0
-6139 -6151 6576 0
-6139 -6152 6577 0
-6139 -6153 6578 0
-6139 -6154 6579 0
-6139 -6155 6580 0
-6139 -6156 6581 0
-6139 -6157 6582 0
-6139 -6158 6583 0
-6139 -6159 6584 0
-6140 -6150 6576 0
-6140 -6151 6577 0
-6140 -6152 6578 0
-6140 -6153 6579 0
-6140 -6154 6580 0
-6140 -6155 6581 0
-6140 -6156 6582 0
-6140 -6157 6583 0
-6140 -6158 6584 0
-6141 -6150 6577 0
-6141 -6151 6578 0
-6141 -6152 6579 0
-6141 -6153 6580 0
-6141 -6154 6581 0
-6141 -6155 6582 0
-6141 -6156 6583 0
-6141 -6157 6584 0
-6142 -6150 6578 0
-6142 -6151 6579 0
-6142 -6152 6580 0
-6142 -6153 6581 0
-6142 -6154 6582 0
-6142 -6155 6583 0
-6142 -6156 6584 0
-6143 -6150 6579 0
-6143 -6151 6580 0
-6143 -6152 6581 0
-6143 -6153 6582 0
-6143 -6154 6583 0
-6143 -6155 6584 0
-6144 -6150 6580 0
-6144 -6151 6581 0
-6144 -6152 6582 0
-6144 -6153 6583 0
-6144 -6154 6584 0
-6145 -6150 6581 0
-6145 -6151 6582 0
-6145 -6152 6583 0
-6145 -6153 6584 0
-6146 -6150 6582 0
-6146 -6151 6583 0
-6146 -6152 6584 0
-6147 -6150 6583 0
-6147 -6151 6584 0
-6148 -6150 6584 0
-6180 6585 0
-6181 6586 0
-6182 6587 0
-6183 6588 0
-6184 6589 0
-6185 6590 0
-6186 6591 0
-6187 6592 0
-6188 6593 0
-6189 6594 0
-6190 6595 0
-6191 6596 0
-6192 6597 0
-6193 6598 0
-6194 6599 0
-6165 6585 0
-6166 6586 0
-6167 6587 0
-6168 6588 0
-6169 6589 0
-6170 6590 0
-6171 6591 0
-6172 6592 0
-6173 6593 0
-6174 6594 0
-6175 6595 0
-6176 6596 0
-6177 6597 0
-6178 6598 0
-6179 6599 0
-6165 -6180 6586 0
-6165 -6181 6587 0
-6165 -6182 6588 0
-6165 -6183 6589 0
-6165 -6184 6590 0
-6165 -6185 6591 0
-6165 -6186 6592 0
-6165 -6187 6593 0
-6165 -6188 6594 0
-6165 -6189 6595 0
-6165 -6190 6596 0
-6165 -6191 6597 0
-6165 -6192 6598 0
-6165 -6193 6599 0
-6166 -6180 6587 0
-6166 -6181 6588 0
-6166 -6182 6589 0
-6166 -6183 6590 0
-6166 -6184 6591 0
-6166 -6185 6592 0
-6166 -6186 6593 0
-6166 -6187 6594 0
-6166 -6188 6595 0
-6166 -6189 6596 0
-6166 -6190 6597 0
-6166 -6191 6598 0
-6166 -6192 6599 0
-6167 -6180 6588 0
-6167 -6181 6589 0
-6167 -6182 6590 0
-6167 -6183 6591 0
-6167 -6184 6592 0
-6167 -6185 6593 0
-6167 -6186 6594 0
-6167 -6187 6595 0
-6167 -6188 6596 0
-6167 -6189 6597 0
-6167 -6190 6598 0
-6167 -6191 6599 0
-6168 -6180 6589 0
-6168 -6181 6590 0
-6168 -6182 6591 0
-6168 -6183 6592 0
-6168 -6184 6593 0
-6168 -6185 6594 0
-6168 -6186 6595 0
-6168 -6187 6596 0
-6168 -6188 6597 0
-6168 -6189 6598 0
-6168 -6190 6599 0
-6169 -6180 6590 0
-6169 -6181 6591 0
-6169 -6182 6592 0
-6169 -6183 6593 0
-6169 -6184 6594 0
-6169 -6185 6595 0
-6169 -6186 6596 0
-6169 -6187 6597 0
-6169 -6188 6598 0
-6169 -6189 6599 0
-6170 -6180 6591 0
-6170 -6181 6592 0
-6170 -6182 6593 0
-6170 -6183 6594 0
-6170 -6184 6595 0
-6170 -6185 6596 0
-6170 -6186 6597 0
-6170 -6187 6598 0
-6170 -6188 6599 0
-6171 -6180 6592 0
-6171 -6181 6593 0
-6171 -6182 6594 0
-6171 -6183 6595 0
-6171 -6184 6596 0
-6171 -6185 6597 0
-6171 -6186 6598 0
-6171 -6187 6599 0
-6172 -6180 6593 0
-6172 -6181 6594 0
-6172 -6182 6595 0
-6172 -6183 6596 0
-6172 -6184 6597 0
-6172 -6185 6598 0
-6172 -6186 6599 0
-6173 -6180 6594 0
-6173 -6181 6595 0
-6173 -6182 6596 0
-6173 -6183 6597 0
-6173 -6184 6598 0
-6173 -6185 6599 0
-6174 -6180 6595 0
-6174 -6181 6596 0
-6174 -6182 6597 0
-6174 -6183 6598 0
-6174 -6184 6599 0
-6175 -6180 6596 0
-6175 -6181 6597 0
-6175 -6182 6598 0
-6175 -6183 6599 0
-6176 -6180 6597 0
-6176 -6181 6598 0
-6176 -6182 6599 0
-6177 -6180 6598 0
-6177 -6181 6599 0
-6178 -6180 6599 0
-6210 6600 0
-6211 6601 0
-6212 6602 0
-6213 6603 0
-6214 6604 0
-6215 6605 0
-6216 6606 0
-6217 6607 0
-6218 6608 0
-6219 6609 0
-6220 6610 0
-6221 6611 0
-6222 6612 0
-6223 6613 0
-6224 6614 0
-6195 6600 0
-6196 6601 0
-6197 6602 0
-6198 6603 0
-6199 6604 0
-6200 6605 0
-6201 6606 0
-6202 6607 0
-6203 6608 0
-6204 6609 0
-6205 6610 0
-6206 6611 0
-6207 6612 0
-6208 6613 0
-6209 6614 0
-6195 -6210 6601 0
-6195 -6211 6602 0
-6195 -6212 6603 0
-6195 -6213 6604 0
-6195 -6214 6605 0
-6195 -6215 6606 0
-6195 -6216 6607 0
-6195 -6217 6608 0
-6195 -6218 6609 0
-6195 -6219 6610 0
-6195 -6220 6611 0
-6195 -6221 6612 0
-6195 -6222 6613 0
-6195 -6223 6614 0
-6196 -6210 6602 0
-6196 -6211 6603 0
-6196 -6212 6604 0
-6196 -6213 6605 0
-6196 -6214 6606 0
-6196 -6215 6607 0
-6196 -6216 6608 0
-6196 -6217 6609 0
-6196 -6218 6610 0
-6196 -6219 6611 0
-6196 -6220 6612 0
-6196 -6221 6613 0
-6196 -6222 6614 0
-6197 -6210 6603 0
-6197 -6211 6604 0
-6197 -6212 6605 0
-6197 -6213 6606 0
-6197 -6214 6607 0
-6197 -6215 6608 0
-6197 -6216 6609 0
-6197 -6217 6610 0
-6197 -6218 6611 0
-6197 -6219 6612 0
-6197 -6220 6613 0
-6197 -6221 6614 0
-6198 -6210 6604 0
-6198 -6211 6605 0
-6198 -6212 6606 0
-6198 -6213 6607 0
-6198 -6214 6608 0
-6198 -6215 6609 0
-6198 -6216 6610 0
-6198 -6217 6611 0
-6198 -6218 6612 0
-6198 -6219 6613 0
-6198 -6220 6614 0
-6199 -6210 6605 0
-6199 -6211 6606 0
-6199 -6212 6607 0
-6199 -6213 6608 0
-6199 -6214 6609 0
-6199 -6215 6610 0
-6199 -6216 6611 0
-6199 -6217 6612 0
-6199 -6218 6613 0
-6199 -6219 6614 0
-6200 -6210 6606 0
-6200 -6211 6607 0
-6200 -6212 6608 0
-6200 -6213 6609 0
-6200 -6214 6610 0
-6200 -6215 6611 0
-6200 -6216 6612 0
-6200 -6217 6613 0
-6200 -6218 6614 0
-6201 -6210 6607 0
-6201 -6211 6608 0
-6201 -6212 6609 0
-6201 -6213 6610 0
-6201 -6214 6611 0
-6201 -6215 6612 0
-6201 -6216 6613 0
-6201 -6217 6614 0
-6202 -6210 6608 0
-6202 -6211 6609 0
-6202 -6212 6610 0
-6202 -6213 6611 0
-6202 -6214 6612 0
-6202 -6215 6613 0
-6202 -6216 6614 0
-6203 -6210 6609 0
-6203 -6211 6610 0
-6203 -6212 6611 0
-6203 -6213 6612 0
-6203 -6214 6613 0
-6203 -6215 6614 0
-6204 -6210 6610 0
-6204 -6211 6611 0
-6204 -6212 6612 0
-6204 -6213 6613 0
-6204 -6214 6614 0
-6205 -6210 6611 0
-6205 -6211 6612 0
-6205 -6212 6613 0
-6205 -6213 6614 0
-6206 -6210 6612 0
-6206 -6211 6613 0
-6206 -6212 6614 0
-6207 -6210 6613 0
-6207 -6211 6614 0
-6208 -6210 6614 0
-6240 6615 0
-6241 6616 0
-6242 6617 0
-6243 6618 0
-6244 6619 0
-6245 6620 0
-6246 6621 0
-6247 6622 0
-6248 6623 0
-6249 6624 0
-6250 6625 0
-6251 6626 0
-6252 6627 0
-6253 6628 0
-6254 6629 0
-6225 6615 0
-6226 6616 0
-6227 6617 0
-6228 6618 0
-6229 6619 0
-6230 6620 0
-6231 6621 0
-6232 6622 0
-6233 6623 0
-6234 6624 0
-6235 6625 0
-6236 6626 0
-6237 6627 0
-6238 6628 0
-6239 6629 0
-6225 -6240 6616 0
-6225 -6241 6617 0
-6225 -6242 6618 0
-6225 -6243 6619 0
-6225 -6244 6620 0
-6225 -6245 6621 0
-6225 -6246 6622 0
-6225 -6247 6623 0
-6225 -6248 6624 0
-6225 -6249 6625 0
-6225 -6250 6626 0
-6225 -6251 6627 0
-6225 -6252 6628 0
-6225 -6253 6629 0
-6226 -6240 6617 0
-6226 -6241 6618 0
-6226 -6242 6619 0
-6226 -6243 6620 0
-6226 -6244 6621 0
-6226 -6245 6622 0
-6226 -6246 6623 0
-6226 -6247 6624 0
-6226 -6248 6625 0
-6226 -6249 6626 0
-6226 -6250 6627 0
-6226 -6251 6628 0
-6226 -6252 6629 0
-6227 -6240 6618 0
-6227 -6241 6619 0
-6227 -6242 6620 0
-6227 -6243 6621 0
-6227 -6244 6622 0
-6227 -6245 6623 0
-6227 -6246 6624 0
-6227 -6247 6625 0
-6227 -6248 6626 0
-6227 -6249 6627 0
-6227 -6250 6628 0
-6227 -6251 6629 0
-6228 -6240 6619 0
-6228 -6241 6620 0
-6228 -6242 6621 0
-6228 -6243 6622 0
-6228 -6244 6623 0
-6228 -6245 6624 0
-6228 -6246 6625 0
-6228 -6247 6626 0
-6228 -6248 6627 0
-6228 -6249 6628 0
-6228 -6250 6629 0
-6229 -6240 6620 0
-6229 -6241 6621 0
-6229 -6242 6622 0
-6229 -6243 6623 0
-6229 -6244 6624 0
-6229 -6245 6625 0
-6229 -6246 6626 0
-6229 -6247 6627 0
-6229 -6248 6628 0
-6229 -6249 6629 0
-6230 -6240 6621 0
-6230 -6241 6622 0
-6230 -6242 6623 0
-6230 -6243 6624 0
-6230 -6244 6625 0
-6230 -6245 6626 0
-6230 -6246 6627 0
-6230 -6247 6628 0
-6230 -6248 6629 0
-6231 -6240 6622 0
-6231 -6241 6623 0
-6231 -6242 6624 0
-6231 -6243 6625 0
-6231 -6244 6626 0
-6231 -6245 6627 0
-6231 -6246 6628 0
-6231 -6247 6629 0
-6232 -6240 6623 0
-6232 -6241 6624 0
-6232 -6242 6625 0
-6232 -6243 6626 0
-6232 -6244 6627 0
-6232 -6245 6628 0
-6232 -6246 6629 0
-6233 -6240 6624 0
-6233 -6241 6625 0
-6233 -6242 6626 0
-6233 -6243 6627 0
-6233 -6244 6628 0
-6233 -6245 6629 0
-6234 -6240 6625 0
-6234 -6241 6626 0
-6234 -6242 6627 0
-6234 -6243 6628 0
-6234 -6244 6629 0
-6235 -6240 6626 0
-6235 -6241 6627 0
-6235 -6242 6628 0
-6235 -6243 6629 0
-6236 -6240 6627 0
-6236 -6241 6628 0
-6236 -6242 6629 0
-6237 -6240 6628 0
-6237 -6241 6629 0
-6238 -6240 6629 0
-6270 6630 0
-6271 6631 0
-6272 6632 0
-6273 6633 0
-6274 6634 0
-6275 6635 0
-6276 6636 0
-6277 6637 0
-6278 6638 0
-6279 6639 0
-6280 6640 0
-6281 6641 0
-6282 6642 0
-6283 6643 0
-6284 6644 0
-6255 6630 0
-6256 6631 0
-6257 6632 0
-6258 6633 0
-6259 6634 0
-6260 6635 0
-6261 6636 0
-6262 6637 0
-6263 6638 0
-6264 6639 0
-6265 6640 0
-6266 6641 0
-6267 6642 0
-6268 6643 0
-6269 6644 0
-6255 -6270 6631 0
-6255 -6271 6632 0
-6255 -6272 6633 0
-6255 -6273 6634 0
-6255 -6274 6635 0
-6255 -6275 6636 0
-6255 -6276 6637 0
-6255 -6277 6638 0
-6255 -6278 6639 0
-6255 -6279 6640 0
-6255 -6280 6641 0
-6255 -6281 6642 0
-6255 -6282 6643 0
-6255 -6283 6644 0
-6256 -6270 6632 0
-6256 -6271 6633 0
-6256 -6272 6634 0
-6256 -6273 6635 0
-6256 -6274 6636 0
-6256 -6275 6637 0
-6256 -6276 6638 0
-6256 -6277 6639 0
-6256 -6278 6640 0
-6256 -6279 6641 0
-6256 -6280 6642 0
-6256 -6281 6643 0
-6256 -6282 6644 0
-6257 -6270 6633 0
-6257 -6271 6634 0
-6257 -6272 6635 0
-6257 -6273 6636 0
-6257 -6274 6637 0
-6257 -6275 6638 0
-6257 -6276 6639 0
-6257 -6277 6640 0
-6257 -6278 6641 0
-6257 -6279 6642 0
-6257 -6280 6643 0
-6257 -6281 6644 0
-6258 -6270 6634 0
-6258 -6271 6635 0
-6258 -6272 6636 0
-6258 -6273 6637 0
-6258 -6274 6638 0
-6258 -6275 6639 0
-6258 -6276 6640 0
-6258 -6277 6641 0
-6258 -6278 6642 0
-6258 -6279 6643 0
-6258 -6280 6644 0
-6259 -6270 6635 0
-6259 -6271 6636 0
-6259 -6272 6637 0
-6259 -6273 6638 0
-6259 -6274 6639 0
-6259 -6275 6640 0
-6259 -6276 6641 0
-6259 -6277 6642 0
-6259 -6278 6643 0
-6259 -6279 6644 0
-6260 -6270 6636 0
-6260 -6271 6637 0
-6260 -6272 6638 0
-6260 -6273 6639 0
-6260 -6274 6640 0
-6260 -6275 6641 0
-6260 -6276 6642 0
-6260 -6277 6643 0
-6260 -6278 6644 0
-6261 -6270 6637 0
-6261 -6271 6638 0
-6261 -6272 6639 0
-6261 -6273 6640 0
-6261 -6274 6641 0
-6261 -6275 6642 0
-6261 -6276 6643 0
-6261 -6277 6644 0
-6262 -6270 6638 0
-6262 -6271 6639 0
-6262 -6272 6640 0
-6262 -6273 6641 0
-6262 -6274 6642 0
-6262 -6275 6643 0
-6262 -6276 6644 0
-6263 -6270 6639 0
-6263 -6271 6640 0
-6263 -6272 6641 0
-6263 -6273 6642 0
-6263 -6274 6643 0
-6263 -6275 6644 0
-6264 -6270 6640 0
-6264 -6271 6641 0
-6264 -6272 6642 0
-6264 -6273 6643 0
-6264 -6274 6644 0
-6265 -6270 6641 0
-6265 -6271 6642 0
-6265 -6272 6643 0
-6265 -6273 6644 0
-6266 -6270 6642 0
-6266 -6271 6643 0
-6266 -6272 6644 0
-6267 -6270 6643 0
-6267 -6271 6644 0
-6268 -6270 6644 0
-6300 6645 0
-6301 6646 0
-6302 6647 0
-6303 6648 0
-6304 6649 0
-6305 6650 0
-6306 6651 0
-6307 6652 0
-6308 6653 0
-6309 6654 0
-6310 6655 0
-6311 6656 0
-6312 6657 0
-6313 6658 0
-6314 6659 0
-6285 6645 0
-6286 6646 0
-6287 6647 0
-6288 6648 0
-6289 6649 0
-6290 6650 0
-6291 6651 0
-6292 6652 0
-6293 6653 0
-6294 6654 0
-6295 6655 0
-6296 6656 0
-6297 6657 0
-6298 6658 0
-6299 6659 0
-6285 -6300 6646 0
-6285 -6301 6647 0
-6285 -6302 6648 0
-6285 -6303 6649 0
-6285 -6304 6650 0
-6285 -6305 6651 0
-6285 -6306 6652 0
-6285 -6307 6653 0
-6285 -6308 6654 0
-6285 -6309 6655 0
-6285 -6310 6656 0
-6285 -6311 6657 0
-6285 -6312 6658 0
-6285 -6313 6659 0
-6286 -6300 6647 0
-6286 -6301 6648 0
-6286 -6302 6649 0
-6286 -6303 6650 0
-6286 -6304 6651 0
-6286 -6305 6652 0
-6286 -6306 6653 0
-6286 -6307 6654 0
-6286 -6308 6655 0
-6286 -6309 6656 0
-6286 -6310 6657 0
-6286 -6311 6658 0
-6286 -6312 6659 0
-6287 -6300 6648 0
-6287 -6301 6649 0
-6287 -6302 6650 0
-6287 -6303 6651 0
-6287 -6304 6652 0
-6287 -6305 6653 0
-6287 -6306 6654 0
-6287 -6307 6655 0
-6287 -6308 6656 0
-6287 -6309 6657 0
-6287 -6310 6658 0
-6287 -6311 6659 0
-6288 -6300 6649 0
-6288 -6301 6650 0
-6288 -6302 6651 0
-6288 -6303 6652 0
-6288 -6304 6653 0
-6288 -6305 6654 0
-6288 -6306 6655 0
-6288 -6307 6656 0
-6288 -6308 6657 0
-6288 -6309 6658 0
-6288 -6310 6659 0
-6289 -6300 6650 0
-6289 -6301 6651 0
-6289 -6302 6652 0
-6289 -6303 6653 0
-6289 -6304 6654 0
-6289 -6305 6655 0
-6289 -6306 6656 0
-6289 -6307 6657 0
-6289 -6308 6658 0
-6289 -6309 6659 0
-6290 -6300 6651 0
-6290 -6301 6652 0
-6290 -6302 6653 0
-6290 -6303 6654 0
-6290 -6304 6655 0
-6290 -6305 6656 0
-6290 -6306 6657 0
-6290 -6307 6658 0
-6290 -6308 6659 0
-6291 -6300 6652 0
-6291 -6301 6653 0
-6291 -6302 6654 0
-6291 -6303 6655 0
-6291 -6304 6656 0
-6291 -6305 6657 0
-6291 -6306 6658 0
-6291 -6307 6659 0
-6292 -6300 6653 0
-6292 -6301 6654 0
-6292 -6302 6655 0
-6292 -6303 6656 0
-6292 -6304 6657 0
-6292 -6305 6658 0
-6292 -6306 6659 0
-6293 -6300 6654 0
-6293 -6301 6655 0
-6293 -6302 6656 0
-6293 -6303 6657 0
-6293 -6304 6658 0
-6293 -6305 6659 0
-6294 -6300 6655 0
-6294 -6301 6656 0
-6294 -6302 6657 0
-6294 -6303 6658 0
-6294 -6304 6659 0
-6295 -6300 6656 0
-6295 -6301 6657 0
-6295 -6302 6658 0
-6295 -6303 6659 0
-6296 -6300 6657 0
-6296 -6301 6658 0
-6296 -6302 6659 0
-6297 -6300 6658 0
-6297 -6301 6659 0
-6298 -6300 6659 0
-6330 6660 0
-6331 6661 0
-6332 6662 0
-6333 6663 0
-6334 6664 0
-6335 6665 0
-6336 6666 0
-6337 6667 0
-6338 6668 0
-6339 6669 0
-6340 6670 0
-6341 6671 0
-6342 6672 0
-6343 6673 0
-6344 6674 0
-6315 6660 0
-6316 6661 0
-6317 6662 0
-6318 6663 0
-6319 6664 0
-6320 6665 0
-6321 6666 0
-6322 6667 0
-6323 6668 0
-6324 6669 0
-6325 6670 0
-6326 6671 0
-6327 6672 0
-6328 6673 0
-6329 6674 0
-6315 -6330 6661 0
-6315 -6331 6662 0
-6315 -6332 6663 0
-6315 -6333 6664 0
-6315 -6334 6665 0
-6315 -6335 6666 0
-6315 -6336 6667 0
-6315 -6337 6668 0
-6315 -6338 6669 0
-6315 -6339 6670 0
-6315 -6340 6671 0
-6315 -6341 6672 0
-6315 -6342 6673 0
-6315 -6343 6674 0
-6316 -6330 6662 0
-6316 -6331 6663 0
-6316 -6332 6664 0
-6316 -6333 6665 0
-6316 -6334 6666 0
-6316 -6335 6667 0
-6316 -6336 6668 0
-6316 -6337 6669 0
-6316 -6338 6670 0
-6316 -6339 6671 0
-6316 -6340 6672 0
-6316 -6341 6673 0
-6316 -6342 6674 0
-6317 -6330 6663 0
-6317 -6331 6664 0
-6317 -6332 6665 0
-6317 -6333 6666 0
-6317 -6334 6667 0
-6317 -6335 6668 0
-6317 -6336 6669 0
-6317 -6337 6670 0
-6317 -6338 6671 0
-6317 -6339 6672 0
-6317 -6340 6673 0
-6317 -6341 6674 0
-6318 -6330 6664 0
-6318 -6331 6665 0
-6318 -6332 6666 0
-6318 -6333 6667 0
-6318 -6334 6668 0
-6318 -6335 6669 0
-6318 -6336 6670 0
-6318 -6337 6671 0
-6318 -6338 6672 0
-6318 -6339 6673 0
-6318 -6340 6674 0
-6319 -6330 6665 0
-6319 -6331 6666 0
-6319 -6332 6667 0
-6319 -6333 6668 0
-6319 -6334 6669 0
-6319 -6335 6670 0
-6319 -6336 6671 0
-6319 -6337 6672 0
-6319 -6338 6673 0
-6319 -6339 6674 0
-6320 -6330 6666 0
-6320 -6331 6667 0
-6320 -6332 6668 0
-6320 -6333 6669 0
-6320 -6334 6670 0
-6320 -6335 6671 0
-6320 -6336 6672 0
-6320 -6337 6673 0
-6320 -6338 6674 0
-6321 -6330 6667 0
-6321 -6331 6668 0
-6321 -6332 6669 0
-6321 -6333 6670 0
-6321 -6334 6671 0
-6321 -6335 6672 0
-6321 -6336 6673 0
-6321 -6337 6674 0
-6322 -6330 6668 0
-6322 -6331 6669 0
-6322 -6332 6670 0
-6322 -6333 6671 0
-6322 -6334 6672 0
-6322 -6335 6673 0
-6322 -6336 6674 0
-6323 -6330 6669 0
-6323 -6331 6670 0
-6323 -6332 6671 0
-6323 -6333 6672 0
-6323 -6334 6673 0
-6323 -6335 6674 0
-6324 -6330 6670 0
-6324 -6331 6671 0
-6324 -6332 6672 0
-6324 -6333 6673 0
-6324 -6334 6674 0
-6325 -6330 6671 0
-6325 -6331 6672 0
-6325 -6332 6673 0
-6325 -6333 6674 0
-6326 -6330 6672 0
-6326 -6331 6673 0
-6326 -6332 6674 0
-6327 -6330 6673 0
-6327 -6331 6674 0
-6328 -6330 6674 0
-6360 6675 0
-6361 6676 0
-6362 6677 0
-6363 6678 0
-6364 6679 0
-6365 6680 0
-6366 6681 0
-6367 6682 0
-6368 6683 0
-6369 6684 0
-6370 6685 0
-6371 6686 0
-6372 6687 0
-6373 6688 0
-6374 6689 0
-6345 6675 0
-6346 6676 0
-6347 6677 0
-6348 6678 0
-6349 6679 0
-6350 6680 0
-6351 6681 0
-6352 6682 0
-6353 6683 0
-6354 6684 0
-6355 6685 0
-6356 6686 0
-6357 6687 0
-6358 6688 0
-6359 6689 0
-6345 -6360 6676 0
-6345 -6361 6677 0
-6345 -6362 6678 0
-6345 -6363 6679 0
-6345 -6364 6680 0
-6345 -6365 6681 0
-6345 -6366 6682 0
-6345 -6367 6683 0
-6345 -6368 6684 0
-6345 -6369 6685 0
-6345 -6370 6686 0
-6345 -6371 6687 0
-6345 -6372 6688 0
-6345 -6373 6689 0
-6346 -6360 6677 0
-6346 -6361 6678 0
-6346 -6362 6679 0
-6346 -6363 6680 0
-6346 -6364 6681 0
-6346 -6365 6682 0
-6346 -6366 6683 0
-6346 -6367 6684 0
-6346 -6368 6685 0
-6346 -6369 6686 0
-6346 -6370 6687 0
-6346 -6371 6688 0
-6346 -6372 6689 0
-6347 -6360 6678 0
-6347 -6361 6679 0
-6347 -6362 6680 0
-6347 -6363 6681 0
-6347 -6364 6682 0
-6347 -6365 6683 0
-6347 -6366 6684 0
-6347 -6367 6685 0
-6347 -6368 6686 0
-6347 -6369 6687 0
-6347 -6370 6688 0
-6347 -6371 6689 0
-6348 -6360 6679 0
-6348 -6361 6680 0
-6348 -6362 6681 0
-6348 -6363 6682 0
-6348 -6364 6683 0
-6348 -6365 6684 0
-6348 -6366 6685 0
-6348 -6367 6686 0
-6348 -6368 6687 0
-6348 -6369 6688 0
-6348 -6370 6689 0
-6349 -6360 6680 0
-6349 -6361 6681 0
-6349 -6362 6682 0
-6349 -6363 6683 0
-6349 -6364 6684 0
-6349 -6365 6685 0
-6349 -6366 6686 0
-6349 -6367 6687 0
-6349 -6368 6688 0
-6349 -6369 6689 0
-6350 -6360 6681 0
-6350 -6361 6682 0
-6350 -6362 6683 0
-6350 -6363 6684 0
-6350 -6364 6685 0
-6350 -6365 6686 0
-6350 -6366 6687 0
-6350 -6367 6688 0
-6350 -6368 6689 0
-6351 -6360 6682 0
-6351 -6361 6683 0
-6351 -6362 6684 0
-6351 -6363 6685 0
-6351 -6364 6686 0
-6351 -6365 6687 0
-6351 -6366 6688 0
-6351 -6367 6689 0
-6352 -6360 6683 0
-6352 -6361 6684 0
-6352 -6362 6685 0
-6352 -6363 6686 0
-6352 -6364 6687 0
-6352 -6365 6688 0
-6352 -6366 6689 0
-6353 -6360 6684 0
-6353 -6361 6685 0
-6353 -6362 6686 0
-6353 -6363 6687 0
-6353 -6364 6688 0
-6353 -6365 6689 0
-6354 -6360 6685 0
-6354 -6361 6686 0
-6354 -6362 6687 0
-6354 -6363 6688 0
-6354 -6364 6689 0
-6355 -6360 6686 0
-6355 -6361 6687 0
-6355 -6362 6688 0
-6355 -6363 6689 0
-6356 -6360 6687 0
-6356 -6361 6688 0
-6356 -6362 6689 0
-6357 -6360 6688 0
-6357 -6361 6689 0
-6358 -6360 6689 0
-6390 6690 0
-6391 6691 0
-6392 6692 0
-6393 6693 0
-6394 6694 0
-6395 6695 0
-6396 6696 0
-6397 6697 0
-6398 6698 0
-6399 6699 0
-6400 6700 0
-6401 6701 0
-6402 6702 0
-6403 6703 0
-6404 6704 0
-6375 6690 0
-6376 6691 0
-6377 6692 0
-6378 6693 0
-6379 6694 0
-6380 6695 0
-6381 6696 0
-6382 6697 0
-6383 6698 0
-6384 6699 0
-6385 6700 0
-6386 6701 0
-6387 6702 0
-6388 6703 0
-6389 6704 0
-6375 -6390 6691 0
-6375 -6391 6692 0
-6375 -6392 6693 0
-6375 -6393 6694 0
-6375 -6394 6695 0
-6375 -6395 6696 0
-6375 -6396 6697 0
-6375 -6397 6698 0
-6375 -6398 6699 0
-6375 -6399 6700 0
-6375 -6400 6701 0
-6375 -6401 6702 0
-6375 -6402 6703 0
-6375 -6403 6704 0
-6376 -6390 6692 0
-6376 -6391 6693 0
-6376 -6392 6694 0
-6376 -6393 6695 0
-6376 -6394 6696 0
-6376 -6395 6697 0
-6376 -6396 6698 0
-6376 -6397 6699 0
-6376 -6398 6700 0
-6376 -6399 6701 0
-6376 -6400 6702 0
-6376 -6401 6703 0
-6376 -6402 6704 0
-6377 -6390 6693 0
-6377 -6391 6694 0
-6377 -6392 6695 0
-6377 -6393 6696 0
-6377 -6394 6697 0
-6377 -6395 6698 0
-6377 -6396 6699 0
-6377 -6397 6700 0
-6377 -6398 6701 0
-6377 -6399 6702 0
-6377 -6400 6703 0
-6377 -6401 6704 0
-6378 -6390 6694 0
-6378 -6391 6695 0
-6378 -6392 6696 0
-6378 -6393 6697 0
-6378 -6394 6698 0
-6378 -6395 6699 0
-6378 -6396 6700 0
-6378 -6397 6701 0
-6378 -6398 6702 0
-6378 -6399 6703 0
-6378 -6400 6704 0
-6379 -6390 6695 0
-6379 -6391 6696 0
-6379 -6392 6697 0
-6379 -6393 6698 0
-6379 -6394 6699 0
-6379 -6395 6700 0
-6379 -6396 6701 0
-6379 -6397 6702 0
-6379 -6398 6703 0
-6379 -6399 6704 0
-6380 -6390 6696 0
-6380 -6391 6697 0
-6380 -6392 6698 0
-6380 -6393 6699 0
-6380 -6394 6700 0
-6380 -6395 6701 0
-6380 -6396 6702 0
-6380 -6397 6703 0
-6380 -6398 6704 0
-6381 -6390 6697 0
-6381 -6391 6698 0
-6381 -6392 6699 0
-6381 -6393 6700 0
-6381 -6394 6701 0
-6381 -6395 6702 0
-6381 -6396 6703 0
-6381 -6397 6704 0
-6382 -6390 6698 0
-6382 -6391 6699 0
-6382 -6392 6700 0
-6382 -6393 6701 0
-6382 -6394 6702 0
-6382 -6395 6703 0
-6382 -6396 6704 0
-6383 -6390 6699 0
-6383 -6391 6700 0
-6383 -6392 6701 0
-6383 -6393 6702 0
-6383 -6394 6703 0
-6383 -6395 6704 0
-6384 -6390 6700 0
-6384 -6391 6701 0
-6384 -6392 6702 0
-6384 -6393 6703 0
-6384 -6394 6704 0
-6385 -6390 6701 0
-6385 -6391 6702 0
-6385 -6392 6703 0
-6385 -6393 6704 0
-6386 -6390 6702 0
-6386 -6391 6703 0
-6386 -6392 6704 0
-6387 -6390 6703 0
-6387 -6391 6704 0
-6388 -6390 6704 0
-6420 6705 0
-6421 6706 0
-6422 6707 0
-6423 6708 0
-6424 6709 0
-6425 6710 0
-6426 6711 0
-6427 6712 0
-6428 6713 0
-6429 6714 0
-6430 6715 0
-6431 6716 0
-6432 6717 0
-6433 6718 0
-6434 6719 0
-6405 6705 0
-6406 6706 0
-6407 6707 0
-6408 6708 0
-6409 6709 0
-6410 6710 0
-6411 6711 0
-6412 6712 0
-6413 6713 0
-6414 6714 0
-6415 6715 0
-6416 6716 0
-6417 6717 0
-6418 6718 0
-6419 6719 0
-6405 -6420 6706 0
-6405 -6421 6707 0
-6405 -6422 6708 0
-6405 -6423 6709 0
-6405 -6424 6710 0
-6405 -6425 6711 0
-6405 -6426 6712 0
-6405 -6427 6713 0
-6405 -6428 6714 0
-6405 -6429 6715 0
-6405 -6430 6716 0
-6405 -6431 6717 0
-6405 -6432 6718 0
-6405 -6433 6719 0
-6406 -6420 6707 0
-6406 -6421 6708 0
-6406 -6422 6709 0
-6406 -6423 6710 0
-6406 -6424 6711 0
-6406 -6425 6712 0
-6406 -6426 6713 0
-6406 -6427 6714 0
-6406 -6428 6715 0
-6406 -6429 6716 0
-6406 -6430 6717 0
-6406 -6431 6718 0
-6406 -6432 6719 0
-6407 -6420 6708 0
-6407 -6421 6709 0
-6407 -6422 6710 0
-6407 -6423 6711 0
-6407 -6424 6712 0
-6407 -6425 6713 0
-6407 -6426 6714 0
-6407 -6427 6715 0
-6407 -6428 6716 0
-6407 -6429 6717 0
-6407 -6430 6718 0
-6407 -6431 6719 0
-6408 -6420 6709 0
-6408 -6421 6710 0
-6408 -6422 6711 0
-6408 -6423 6712 0
-6408 -6424 6713 0
-6408 -6425 6714 0
-6408 -6426 6715 0
-6408 -6427 6716 0
-6408 -6428 6717 0
-6408 -6429 6718 0
-6408 -6430 6719 0
-6409 -6420 6710 0
-6409 -6421 6711 0
-6409 -6422 6712 0
-6409 -6423 6713 0
-6409 -6424 6714 0
-6409 -6425 6715 0
-6409 -6426 6716 0
-6409 -6427 6717 0
-6409 -6428 6718 0
-6409 -6429 6719 0
-6410 -6420 6711 0
-6410 -6421 6712 0
-6410 -6422 6713 0
-6410 -6423 6714 0
-6410 -6424 6715 0
-6410 -6425 6716 0
-6410 -6426 6717 0
-6410 -6427 6718 0
-6410 -6428 6719 0
-6411 -6420 6712 0
-6411 -6421 6713 0
-6411 -6422 6714 0
-6411 -6423 6715 0
-6411 -6424 6716 0
-6411 -6425 6717 0
-6411 -6426 6718 0
-6411 -6427 6719 0
-6412 -6420 6713 0
-6412 -6421 6714 0
-6412 -6422 6715 0
-6412 -6423 6716 0
-6412 -6424 6717 0
-6412 -6425 6718 0
-6412 -6426 6719 0
-6413 -6420 6714 0
-6413 -6421 6715 0
-6413 -6422 6716 0
-6413 -6423 6717 0
-6413 -6424 6718 0
-6413 -6425 6719 0
-6414 -6420 6715 0
-6414 -6421 6716 0
-6414 -6422 6717 0
-6414 -6423 6718 0
-6414 -6424 6719 0
-6415 -6420 6716 0
-6415 -6421 6717 0
-6415 -6422 6718 0
-6415 -6423 6719 0
-6416 -6420 6717 0
-6416 -6421 6718 0
-6416 -6422 6719 0
-6417 -6420 6718 0
-6417 -6421 6719 0
-6418 -6420 6719 0
-6450 6720 0
-6451 6721 0
-6452 6722 0
-6453 6723 0
-6454 6724 0
-6455 6725 0
-6456 6726 0
-6457 6727 0
-6458 6728 0
-6459 6729 0
-6460 6730 0
-6461 6731 0
-6462 6732 0
-6463 6733 0
-6464 6734 0
-6435 6720 0
-6436 6721 0
-6437 6722 0
-6438 6723 0
-6439 6724 0
-6440 6725 0
-6441 6726 0
-6442 6727 0
-6443 6728 0
-6444 6729 0
-6445 6730 0
-6446 6731 0
-6447 6732 0
-6448 6733 0
-6449 6734 0
-6435 -6450 6721 0
-6435 -6451 6722 0
-6435 -6452 6723 0
-6435 -6453 6724 0
-6435 -6454 6725 0
-6435 -6455 6726 0
-6435 -6456 6727 0
-6435 -6457 6728 0
-6435 -6458 6729 0
-6435 -6459 6730 0
-6435 -6460 6731 0
-6435 -6461 6732 0
-6435 -6462 6733 0
-6435 -6463 6734 0
-6436 -6450 6722 0
-6436 -6451 6723 0
-6436 -6452 6724 0
-6436 -6453 6725 0
-6436 -6454 6726 0
-6436 -6455 6727 0
-6436 -6456 6728 0
-6436 -6457 6729 0
-6436 -6458 6730 0
-6436 -6459 6731 0
-6436 -6460 6732 0
-6436 -6461 6733 0
-6436 -6462 6734 0
-6437 -6450 6723 0
-6437 -6451 6724 0
-6437 -6452 6725 0
-6437 -6453 6726 0
-6437 -6454 6727 0
-6437 -6455 6728 0
-6437 -6456 6729 0
-6437 -6457 6730 0
-6437 -6458 6731 0
-6437 -6459 6732 0
-6437 -6460 6733 0
-6437 -6461 6734 0
-6438 -6450 6724 0
-6438 -6451 6725 0
-6438 -6452 6726 0
-6438 -6453 6727 0
-6438 -6454 6728 0
-6438 -6455 6729 0
-6438 -6456 6730 0
-6438 -6457 6731 0
-6438 -6458 6732 0
-6438 -6459 6733 0
-6438 -6460 6734 0
-6439 -6450 6725 0
-6439 -6451 6726 0
-6439 -6452 6727 0
-6439 -6453 6728 0
-6439 -6454 6729 0
-6439 -6455 6730 0
-6439 -6456 6731 0
-6439 -6457 6732 0
-6439 -6458 6733 0
-6439 -6459 6734 0
-6440 -6450 6726 0
-6440 -6451 6727 0
-6440 -6452 6728 0
-6440 -6453 6729 0
-6440 -6454 6730 0
-6440 -6455 6731 0
-6440 -6456 6732 0
-6440 -6457 6733 0
-6440 -6458 6734 0
-6441 -6450 6727 0
-6441 -6451 6728 0
-6441 -6452 6729 0
-6441 -6453 6730 0
-6441 -6454 6731 0
-6441 -6455 6732 0
-6441 -6456 6733 0
-6441 -6457 6734 0
-6442 -6450 6728 0
-6442 -6451 6729 0
-6442 -6452 6730 0
-6442 -6453 6731 0
-6442 -6454 6732 0
-6442 -6455 6733 0
-6442 -6456 6734 0
-6443 -6450 6729 0
-6443 -6451 6730 0
-6443 -6452 6731 0
-6443 -6453 6732 0
-6443 -6454 6733 0
-6443 -6455 6734 0
-6444 -6450 6730 0
-6444 -6451 6731 0
-6444 -6452 6732 0
-6444 -6453 6733 0
-6444 -6454 6734 0
-6445 -6450 6731 0
-6445 -6451 6732 0
-6445 -6452 6733 0
-6445 -6453 6734 0
-6446 -6450 6732 0
-6446 -6451 6733 0
-6446 -6452 6734 0
-6447 -6450 6733 0
-6447 -6451 6734 0
-6448 -6450 6734 0
-6480 6735 0
-6481 6736 0
-6482 6737 0
-6483 6738 0
-6484 6739 0
-6485 6740 0
-6486 6741 0
-6487 6742 0
-6488 6743 0
-6489 6744 0
-6490 6745 0
-6491 6746 0
-6492 6747 0
-6493 6748 0
-6494 6749 0
-6465 6735 0
-6466 6736 0
-6467 6737 0
-6468 6738 0
-6469 6739 0
-6470 6740 0
-6471 6741 0
-6472 6742 0
-6473 6743 0
-6474 6744 0
-6475 6745 0
-6476 6746 0
-6477 6747 0
-6478 6748 0
-6479 6749 0
-6465 -6480 6736 0
-6465 -6481 6737 0
-6465 -6482 6738 0
-6465 -6483 6739 0
-6465 -6484 6740 0
-6465 -6485 6741 0
-6465 -6486 6742 0
-6465 -6487 6743 0
-6465 -6488 6744 0
-6465 -6489 6745 0
-6465 -6490 6746 0
-6465 -6491 6747 0
-6465 -6492 6748 0
-6465 -6493 6749 0
-6466 -6480 6737 0
-6466 -6481 6738 0
-6466 -6482 6739 0
-6466 -6483 6740 0
-6466 -6484 6741 0
-6466 -6485 6742 0
-6466 -6486 6743 0
-6466 -6487 6744 0
-6466 -6488 6745 0
-6466 -6489 6746 0
-6466 -6490 6747 0
-6466 -6491 6748 0
-6466 -6492 6749 0
-6467 -6480 6738 0
-6467 -6481 6739 0
-6467 -6482 6740 0
-6467 -6483 6741 0
-6467 -6484 6742 0
-6467 -6485 6743 0
-6467 -6486 6744 0
-6467 -6487 6745 0
-6467 -6488 6746 0
-6467 -6489 6747 0
-6467 -6490 6748 0
-6467 -6491 6749 0
-6468 -6480 6739 0
-6468 -6481 6740 0
-6468 -6482 6741 0
-6468 -6483 6742 0
-6468 -6484 6743 0
-6468 -6485 6744 0
-6468 -6486 6745 0
-6468 -6487 6746 0
-6468 -6488 6747 0
-6468 -6489 6748 0
-6468 -6490 6749 0
-6469 -6480 6740 0
-6469 -6481 6741 0
-6469 -6482 6742 0
-6469 -6483 6743 0
-6469 -6484 6744 0
-6469 -6485 6745 0
-6469 -6486 6746 0
-6469 -6487 6747 0
-6469 -6488 6748 0
-6469 -6489 6749 0
-6470 -6480 6741 0
-6470 -6481 6742 0
-6470 -6482 6743 0
-6470 -6483 6744 0
-6470 -6484 6745 0
-6470 -6485 6746 0
-6470 -6486 6747 0
-6470 -6487 6748 0
-6470 -6488 6749 0
-6471 -6480 6742 0
-6471 -6481 6743 0
-6471 -6482 6744 0
-6471 -6483 6745 0
-6471 -6484 6746 0
-6471 -6485 6747 0
-6471 -6486 6748 0
-6471 -6487 6749 0
-6472 -6480 6743 0
-6472 -6481 6744 0
-6472 -6482 6745 0
-6472 -6483 6746 0
-6472 -6484 6747 0
-6472 -6485 6748 0
-6472 -6486 6749 0
-6473 -6480 6744 0
-6473 -6481 6745 0
-6473 -6482 6746 0
-6473 -6483 6747 0
-6473 -6484 6748 0
-6473 -6485 6749 0
-6474 -6480 6745 0
-6474 -6481 6746 0
-6474 -6482 6747 0
-6474 -6483 6748 0
-6474 -6484 6749 0
-6475 -6480 6746 0
-6475 -6481 6747 0
-6475 -6482 6748 0
-6475 -6483 6749 0
-6476 -6480 6747 0
-6476 -6481 6748 0
-6476 -6482 6749 0
-6477 -6480 6748 0
-6477 -6481 6749 0
-6478 -6480 6749 0
-6510 6750 0
-6511 6751 0
-6512 6752 0
-6513 6753 0
-6514 6754 0
-6515 6755 0
-6516 6756 0
-6517 6757 0
-6518 6758 0
-6519 6759 0
-6520 6760 0
-6521 6761 0
-6522 6762 0
-6523 6763 0
-6524 6764 0
-6495 6750 0
-6496 6751 0
-6497 6752 0
-6498 6753 0
-6499 6754 0
-6500 6755 0
-6501 6756 0
-6502 6757 0
-6503 6758 0
-6504 6759 0
-6505 6760 0
-6506 6761 0
-6507 6762 0
-6508 6763 0
-6509 6764 0
-6495 -6510 6751 0
-6495 -6511 6752 0
-6495 -6512 6753 0
-6495 -6513 6754 0
-6495 -6514 6755 0
-6495 -6515 6756 0
-6495 -6516 6757 0
-6495 -6517 6758 0
-6495 -6518 6759 0
-6495 -6519 6760 0
-6495 -6520 6761 0
-6495 -6521 6762 0
-6495 -6522 6763 0
-6495 -6523 6764 0
-6496 -6510 6752 0
-6496 -6511 6753 0
-6496 -6512 6754 0
-6496 -6513 6755 0
-6496 -6514 6756 0
-6496 -6515 6757 0
-6496 -6516 6758 0
-6496 -6517 6759 0
-6496 -6518 6760 0
-6496 -6519 6761 0
-6496 -6520 6762 0
-6496 -6521 6763 0
-6496 -6522 6764 0
-6497 -6510 6753 0
-6497 -6511 6754 0
-6497 -6512 6755 0
-6497 -6513 6756 0
-6497 -6514 6757 0
-6497 -6515 6758 0
-6497 -6516 6759 0
-6497 -6517 6760 0
-6497 -6518 6761 0
-6497 -6519 6762 0
-6497 -6520 6763 0
-6497 -6521 6764 0
-6498 -6510 6754 0
-6498 -6511 6755 0
-6498 -6512 6756 0
-6498 -6513 6757 0
-6498 -6514 6758 0
-6498 -6515 6759 0
-6498 -6516 6760 0
-6498 -6517 6761 0
-6498 -6518 6762 0
-6498 -6519 6763 0
-6498 -6520 6764 0
-6499 -6510 6755 0
-6499 -6511 6756 0
-6499 -6512 6757 0
-6499 -6513 6758 0
-6499 -6514 6759 0
-6499 -6515 6760 0
-6499 -6516 6761 0
-6499 -6517 6762 0
-6499 -6518 6763 0
-6499 -6519 6764 0
-6500 -6510 6756 0
-6500 -6511 6757 0
-6500 -6512 6758 0
-6500 -6513 6759 0
-6500 -6514 6760 0
-6500 -6515 6761 0
-6500 -6516 6762 0
-6500 -6517 6763 0
-6500 -6518 6764 0
-6501 -6510 6757 0
-6501 -6511 6758 0
-6501 -6512 6759 0
-6501 -6513 6760 0
-6501 -6514 6761 0
-6501 -6515 6762 0
-6501 -6516 6763 0
-6501 -6517 6764 0
-6502 -6510 6758 0
-6502 -6511 6759 0
-6502 -6512 6760 0
-6502 -6513 6761 0
-6502 -6514 6762 0
-6502 -6515 6763 0
-6502 -6516 6764 0
-6503 -6510 6759 0
-6503 -6511 6760 0
-6503 -6512 6761 0
-6503 -6513 6762 0
-6503 -6514 6763 0
-6503 -6515 6764 0
-6504 -6510 6760 0
-6504 -6511 6761 0
-6504 -6512 6762 0
-6504 -6513 6763 0
-6504 -6514 6764 0
-6505 -6510 6761 0
-6505 -6511 6762 0
-6505 -6512 6763 0
-6505 -6513 6764 0
-6506 -6510 6762 0
-6506 -6511 6763 0
-6506 -6512 6764 0
-6507 -6510 6763 0
-6507 -6511 6764 0
-6508 -6510 6764 0
-6540 6765 0
-6541 6766 0
-6542 6767 0
-6543 6768 0
-6544 6769 0
-6545 6770 0
-6546 6771 0
-6547 6772 0
-6548 6773 0
-6549 6774 0
-6550 6775 0
-6551 6776 0
-6552 6777 0
-6553 6778 0
-6554 6779 0
-6525 6765 0
-6526 6766 0
-6527 6767 0
-6528 6768 0
-6529 6769 0
-6530 6770 0
-6531 6771 0
-6532 6772 0
-6533 6773 0
-6534 6774 0
-6535 6775 0
-6536 6776 0
-6537 6777 0
-6538 6778 0
-6539 6779 0
-6525 -6540 6766 0
-6525 -6541 6767 0
-6525 -6542 6768 0
-6525 -6543 6769 0
-6525 -6544 6770 0
-6525 -6545 6771 0
-6525 -6546 6772 0
-6525 -6547 6773 0
-6525 -6548 6774 0
-6525 -6549 6775 0
-6525 -6550 6776 0
-6525 -6551 6777 0
-6525 -6552 6778 0
-6525 -6553 6779 0
-6526 -6540 6767 0
-6526 -6541 6768 0
-6526 -6542 6769 0
-6526 -6543 6770 0
-6526 -6544 6771 0
-6526 -6545 6772 0
-6526 -6546 6773 0
-6526 -6547 6774 0
-6526 -6548 6775 0
-6526 -6549 6776 0
-6526 -6550 6777 0
-6526 -6551 6778 0
-6526 -6552 6779 0
-6527 -6540 6768 0
-6527 -6541 6769 0
-6527 -6542 6770 0
-6527 -6543 6771 0
-6527 -6544 6772 0
-6527 -6545 6773 0
-6527 -6546 6774 0
-6527 -6547 6775 0
-6527 -6548 6776 0
-6527 -6549 6777 0
-6527 -6550 6778 0
-6527 -6551 6779 0
-6528 -6540 6769 0
-6528 -6541 6770 0
-6528 -6542 6771 0
-6528 -6543 6772 0
-6528 -6544 6773 0
-6528 -6545 6774 0
-6528 -6546 6775 0
-6528 -6547 6776 0
-6528 -6548 6777 0
-6528 -6549 6778 0
-6528 -6550 6779 0
-6529 -6540 6770 0
-6529 -6541 6771 0
-6529 -6542 6772 0
-6529 -6543 6773 0
-6529 -6544 6774 0
-6529 -6545 6775 0
-6529 -6546 6776 0
-6529 -6547 6777 0
-6529 -6548 6778 0
-6529 -6549 6779 0
-6530 -6540 6771 0
-6530 -6541 6772 0
-6530 -6542 6773 0
-6530 -6543 6774 0
-6530 -6544 6775 0
-6530 -6545 6776 0
-6530 -6546 6777 0
-6530 -6547 6778 0
-6530 -6548 6779 0
-6531 -6540 6772 0
-6531 -6541 6773 0
-6531 -6542 6774 0
-6531 -6543 6775 0
-6531 -6544 6776 0
-6531 -6545 6777 0
-6531 -6546 6778 0
-6531 -6547 6779 0
-6532 -6540 6773 0
-6532 -6541 6774 0
-6532 -6542 6775 0
-6532 -6543 6776 0
-6532 -6544 6777 0
-6532 -6545 6778 0
-6532 -6546 6779 0
-6533 -6540 6774 0
-6533 -6541 6775 0
-6533 -6542 6776 0
-6533 -6543 6777 0
-6533 -6544 6778 0
-6533 -6545 6779 0
-6534 -6540 6775 0
-6534 -6541 6776 0
-6534 -6542 6777 0
-6534 -6543 6778 0
-6534 -6544 6779 0
-6535 -6540 6776 0
-6535 -6541 6777 0
-6535 -6542 6778 0
-6535 -6543 6779 0
-6536 -6540 6777 0
-6536 -6541 6778 0
-6536 -6542 6779 0
-6537 -6540 6778 0
-6537 -6541 6779 0
-6538 -6540 6779 0
-6570 6780 0
-6571 6781 0
-6572 6782 0
-6573 6783 0
-6574 6784 0
-6575 6785 0
-6576 6786 0
-6577 6787 0
-6578 6788 0
-6579 6789 0
-6580 6790 0
-6581 6791 0
-6582 6792 0
-6583 6793 0
-6584 6794 0
-6555 6780 0
-6556 6781 0
-6557 6782 0
-6558 6783 0
-6559 6784 0
-6560 6785 0
-6561 6786 0
-6562 6787 0
-6563 6788 0
-6564 6789 0
-6565 6790 0
-6566 6791 0
-6567 6792 0
-6568 6793 0
-6569 6794 0
-6555 -6570 6781 0
-6555 -6571 6782 0
-6555 -6572 6783 0
-6555 -6573 6784 0
-6555 -6574 6785 0
-6555 -6575 6786 0
-6555 -6576 6787 0
-6555 -6577 6788 0
-6555 -6578 6789 0
-6555 -6579 6790 0
-6555 -6580 6791 0
-6555 -6581 6792 0
-6555 -6582 6793 0
-6555 -6583 6794 0
-6556 -6570 6782 0
-6556 -6571 6783 0
-6556 -6572 6784 0
-6556 -6573 6785 0
-6556 -6574 6786 0
-6556 -6575 6787 0
-6556 -6576 6788 0
-6556 -6577 6789 0
-6556 -6578 6790 0
-6556 -6579 6791 0
-6556 -6580 6792 0
-6556 -6581 6793 0
-6556 -6582 6794 0
-6557 -6570 6783 0
-6557 -6571 6784 0
-6557 -6572 6785 0
-6557 -6573 6786 0
-6557 -6574 6787 0
-6557 -6575 6788 0
-6557 -6576 6789 0
-6557 -6577 6790 0
-6557 -6578 6791 0
-6557 -6579 6792 0
-6557 -6580 6793 0
-6557 -6581 6794 0
-6558 -6570 6784 0
-6558 -6571 6785 0
-6558 -6572 6786 0
-6558 -6573 6787 0
-6558 -6574 6788 0
-6558 -6575 6789 0
-6558 -6576 6790 0
-6558 -6577 6791 0
-6558 -6578 6792 0
-6558 -6579 6793 0
-6558 -6580 6794 0
-6559 -6570 6785 0
-6559 -6571 6786 0
-6559 -6572 6787 0
-6559 -6573 6788 0
-6559 -6574 6789 0
-6559 -6575 6790 0
-6559 -6576 6791 0
-6559 -6577 6792 0
-6559 -6578 6793 0
-6559 -6579 6794 0
-6560 -6570 6786 0
-6560 -6571 6787 0
-6560 -6572 6788 0
-6560 -6573 6789 0
-6560 -6574 6790 0
-6560 -6575 6791 0
-6560 -6576 6792 0
-6560 -6577 6793 0
-6560 -6578 6794 0
-6561 -6570 6787 0
-6561 -6571 6788 0
-6561 -6572 6789 0
-6561 -6573 6790 0
-6561 -6574 6791 0
-6561 -6575 6792 0
-6561 -6576 6793 0
-6561 -6577 6794 0
-6562 -6570 6788 0
-6562 -6571 6789 0
-6562 -6572 6790 0
-6562 -6573 6791 0
-6562 -6574 6792 0
-6562 -6575 6793 0
-6562 -6576 6794 0
-6563 -6570 6789 0
-6563 -6571 6790 0
-6563 -6572 6791 0
-6563 -6573 6792 0
-6563 -6574 6793 0
-6563 -6575 6794 0
-6564 -6570 6790 0
-6564 -6571 6791 0
-6564 -6572 6792 0
-6564 -6573 6793 0
-6564 -6574 6794 0
-6565 -6570 6791 0
-6565 -6571 6792 0
-6565 -6572 6793 0
-6565 -6573 6794 0
-6566 -6570 6792 0
-6566 -6571 6793 0
-6566 -6572 6794 0
-6567 -6570 6793 0
-6567 -6571 6794 0
-6568 -6570 6794 0
-6600 6795 0
-6601 6796 0
-6602 6797 0
-6603 6798 0
-6604 6799 0
-6605 6800 0
-6606 6801 0
-6607 6802 0
-6608 6803 0
-6609 6804 0
-6610 6805 0
-6611 6806 0
-6612 6807 0
-6613 6808 0
-6614 6809 0
-6585 6795 0
-6586 6796 0
-6587 6797 0
-6588 6798 0
-6589 6799 0
-6590 6800 0
-6591 6801 0
-6592 6802 0
-6593 6803 0
-6594 6804 0
-6595 6805 0
-6596 6806 0
-6597 6807 0
-6598 6808 0
-6599 6809 0
-6585 -6600 6796 0
-6585 -6601 6797 0
-6585 -6602 6798 0
-6585 -6603 6799 0
-6585 -6604 6800 0
-6585 -6605 6801 0
-6585 -6606 6802 0
-6585 -6607 6803 0
-6585 -6608 6804 0
-6585 -6609 6805 0
-6585 -6610 6806 0
-6585 -6611 6807 0
-6585 -6612 6808 0
-6585 -6613 6809 0
-6586 -6600 6797 0
-6586 -6601 6798 0
-6586 -6602 6799 0
-6586 -6603 6800 0
-6586 -6604 6801 0
-6586 -6605 6802 0
-6586 -6606 6803 0
-6586 -6607 6804 0
-6586 -6608 6805 0
-6586 -6609 6806 0
-6586 -6610 6807 0
-6586 -6611 6808 0
-6586 -6612 6809 0
-6587 -6600 6798 0
-6587 -6601 6799 0
-6587 -6602 6800 0
-6587 -6603 6801 0
-6587 -6604 6802 0
-6587 -6605 6803 0
-6587 -6606 6804 0
-6587 -6607 6805 0
-6587 -6608 6806 0
-6587 -6609 6807 0
-6587 -6610 6808 0
-6587 -6611 6809 0
-6588 -6600 6799 0
-6588 -6601 6800 0
-6588 -6602 6801 0
-6588 -6603 6802 0
-6588 -6604 6803 0
-6588 -6605 6804 0
-6588 -6606 6805 0
-6588 -6607 6806 0
-6588 -6608 6807 0
-6588 -6609 6808 0
-6588 -6610 6809 0
-6589 -6600 6800 0
-6589 -6601 6801 0
-6589 -6602 6802 0
-6589 -6603 6803 0
-6589 -6604 6804 0
-6589 -6605 6805 0
-6589 -6606 6806 0
-6589 -6607 6807 0
-6589 -6608 6808 0
-6589 -6609 6809 0
-6590 -6600 6801 0
-6590 -6601 6802 0
-6590 -6602 6803 0
-6590 -6603 6804 0
-6590 -6604 6805 0
-6590 -6605 6806 0
-6590 -6606 6807 0
-6590 -6607 6808 0
-6590 -6608 6809 0
-6591 -6600 6802 0
-6591 -6601 6803 0
-6591 -6602 6804 0
-6591 -6603 6805 0
-6591 -6604 6806 0
-6591 -6605 6807 0
-6591 -6606 6808 0
-6591 -6607 6809 0
-6592 -6600 6803 0
-6592 -6601 6804 0
-6592 -6602 6805 0
-6592 -6603 6806 0
-6592 -6604 6807 0
-6592 -6605 6808 0
-6592 -6606 6809 0
-6593 -6600 6804 0
-6593 -6601 6805 0
-6593 -6602 6806 0
-6593 -6603 6807 0
-6593 -6604 6808 0
-6593 -6605 6809 0
-6594 -6600 6805 0
-6594 -6601 6806 0
-6594 -6602 6807 0
-6594 -6603 6808 0
-6594 -6604 6809 0
-6595 -6600 6806 0
-6595 -6601 6807 0
-6595 -6602 6808 0
-6595 -6603 6809 0
-6596 -6600 6807 0
-6596 -6601 6808 0
-6596 -6602 6809 0
-6597 -6600 6808 0
-6597 -6601 6809 0
-6598 -6600 6809 0
-6630 6810 0
-6631 6811 0
-6632 6812 0
-6633 6813 0
-6634 6814 0
-6635 6815 0
-6636 6816 0
-6637 6817 0
-6638 6818 0
-6639 6819 0
-6640 6820 0
-6641 6821 0
-6642 6822 0
-6643 6823 0
-6644 6824 0
-6615 6810 0
-6616 6811 0
-6617 6812 0
-6618 6813 0
-6619 6814 0
-6620 6815 0
-6621 6816 0
-6622 6817 0
-6623 6818 0
-6624 6819 0
-6625 6820 0
-6626 6821 0
-6627 6822 0
-6628 6823 0
-6629 6824 0
-6615 -6630 6811 0
-6615 -6631 6812 0
-6615 -6632 6813 0
-6615 -6633 6814 0
-6615 -6634 6815 0
-6615 -6635 6816 0
-6615 -6636 6817 0
-6615 -6637 6818 0
-6615 -6638 6819 0
-6615 -6639 6820 0
-6615 -6640 6821 0
-6615 -6641 6822 0
-6615 -6642 6823 0
-6615 -6643 6824 0
-6616 -6630 6812 0
-6616 -6631 6813 0
-6616 -6632 6814 0
-6616 -6633 6815 0
-6616 -6634 6816 0
-6616 -6635 6817 0
-6616 -6636 6818 0
-6616 -6637 6819 0
-6616 -6638 6820 0
-6616 -6639 6821 0
-6616 -6640 6822 0
-6616 -6641 6823 0
-6616 -6642 6824 0
-6617 -6630 6813 0
-6617 -6631 6814 0
-6617 -6632 6815 0
-6617 -6633 6816 0
-6617 -6634 6817 0
-6617 -6635 6818 0
-6617 -6636 6819 0
-6617 -6637 6820 0
-6617 -6638 6821 0
-6617 -6639 6822 0
-6617 -6640 6823 0
-6617 -6641 6824 0
-6618 -6630 6814 0
-6618 -6631 6815 0
-6618 -6632 6816 0
-6618 -6633 6817 0
-6618 -6634 6818 0
-6618 -6635 6819 0
-6618 -6636 6820 0
-6618 -6637 6821 0
-6618 -6638 6822 0
-6618 -6639 6823 0
-6618 -6640 6824 0
-6619 -6630 6815 0
-6619 -6631 6816 0
-6619 -6632 6817 0
-6619 -6633 6818 0
-6619 -6634 6819 0
-6619 -6635 6820 0
-6619 -6636 6821 0
-6619 -6637 6822 0
-6619 -6638 6823 0
-6619 -6639 6824 0
-6620 -6630 6816 0
-6620 -6631 6817 0
-6620 -6632 6818 0
-6620 -6633 6819 0
-6620 -6634 6820 0
-6620 -6635 6821 0
-6620 -6636 6822 0
-6620 -6637 6823 0
-6620 -6638 6824 0
-6621 -6630 6817 0
-6621 -6631 6818 0
-6621 -6632 6819 0
-6621 -6633 6820 0
-6621 -6634 6821 0
-6621 -6635 6822 0
-6621 -6636 6823 0
-6621 -6637 6824 0
-6622 -6630 6818 0
-6622 -6631 6819 0
-6622 -6632 6820 0
-6622 -6633 6821 0
-6622 -6634 6822 0
-6622 -6635 6823 0
-6622 -6636 6824 0
-6623 -6630 6819 0
-6623 -6631 6820 0
-6623 -6632 6821 0
-6623 -6633 6822 0
-6623 -6634 6823 0
-6623 -6635 6824 0
-6624 -6630 6820 0
-6624 -6631 6821 0
-6624 -6632 6822 0
-6624 -6633 6823 0
-6624 -6634 6824 0
-6625 -6630 6821 0
-6625 -6631 6822 0
-6625 -6632 6823 0
-6625 -6633 6824 0
-6626 -6630 6822 0
-6626 -6631 6823 0
-6626 -6632 6824 0
-6627 -6630 6823 0
-6627 -6631 6824 0
-6628 -6630 6824 0
-6660 6825 0
-6661 6826 0
-6662 6827 0
-6663 6828 0
-6664 6829 0
-6665 6830 0
-6666 6831 0
-6667 6832 0
-6668 6833 0
-6669 6834 0
-6670 6835 0
-6671 6836 0
-6672 6837 0
-6673 6838 0
-6674 6839 0
-6645 6825 0
-6646 6826 0
-6647 6827 0
-6648 6828 0
-6649 6829 0
-6650 6830 0
-6651 6831 0
-6652 6832 0
-6653 6833 0
-6654 6834 0
-6655 6835 0
-6656 6836 0
-6657 6837 0
-6658 6838 0
-6659 6839 0
-6645 -6660 6826 0
-6645 -6661 6827 0
-6645 -6662 6828 0
-6645 -6663 6829 0
-6645 -6664 6830 0
-6645 -6665 6831 0
-6645 -6666 6832 0
-6645 -6667 6833 0
-6645 -6668 6834 0
-6645 -6669 6835 0
-6645 -6670 6836 0
-6645 -6671 6837 0
-6645 -6672 6838 0
-6645 -6673 6839 0
-6646 -6660 6827 0
-6646 -6661 6828 0
-6646 -6662 6829 0
-6646 -6663 6830 0
-6646 -6664 6831 0
-6646 -6665 6832 0
-6646 -6666 6833 0
-6646 -6667 6834 0
-6646 -6668 6835 0
-6646 -6669 6836 0
-6646 -6670 6837 0
-6646 -6671 6838 0
-6646 -6672 6839 0
-6647 -6660 6828 0
-6647 -6661 6829 0
-6647 -6662 6830 0
-6647 -6663 6831 0
-6647 -6664 6832 0
-6647 -6665 6833 0
-6647 -6666 6834 0
-6647 -6667 6835 0
-6647 -6668 6836 0
-6647 -6669 6837 0
-6647 -6670 6838 0
-6647 -6671 6839 0
-6648 -6660 6829 0
-6648 -6661 6830 0
-6648 -6662 6831 0
-6648 -6663 6832 0
-6648 -6664 6833 0
-6648 -6665 6834 0
-6648 -6666 6835 0
-6648 -6667 6836 0
-6648 -6668 6837 0
-6648 -6669 6838 0
-6648 -6670 6839 0
-6649 -6660 6830 0
-6649 -6661 6831 0
-6649 -6662 6832 0
-6649 -6663 6833 0
-6649 -6664 6834 0
-6649 -6665 6835 0
-6649 -6666 6836 0
-6649 -6667 6837 0
-6649 -6668 6838 0
-6649 -6669 6839 0
-6650 -6660 6831 0
-6650 -6661 6832 0
-6650 -6662 6833 0
-6650 -6663 6834 0
-6650 -6664 6835 0
-6650 -6665 6836 0
-6650 -6666 6837 0
-6650 -6667 6838 0
-6650 -6668 6839 0
-6651 -6660 6832 0
-6651 -6661 6833 0
-6651 -6662 6834 0
-6651 -6663 6835 0
-6651 -6664 6836 0
-6651 -6665 6837 0
-6651 -6666 6838 0
-6651 -6667 6839 0
-6652 -6660 6833 0
-6652 -6661 6834 0
-6652 -6662 6835 0
-6652 -6663 6836 0
-6652 -6664 6837 0
-6652 -6665 6838 0
-6652 -6666 6839 0
-6653 -6660 6834 0
-6653 -6661 6835 0
-6653 -6662 6836 0
-6653 -6663 6837 0
-6653 -6664 6838 0
-6653 -6665 6839 0
-6654 -6660 6835 0
-6654 -6661 6836 0
-6654 -6662 6837 0
-6654 -6663 6838 0
-6654 -6664 6839 0
-6655 -6660 6836 0
-6655 -6661 6837 0
-6655 -6662 6838 0
-6655 -6663 6839 0
-6656 -6660 6837 0
-6656 -6661 6838 0
-6656 -6662 6839 0
-6657 -6660 6838 0
-6657 -6661 6839 0
-6658 -6660 6839 0
-6690 6840 0
-6691 6841 0
-6692 6842 0
-6693 6843 0
-6694 6844 0
-6695 6845 0
-6696 6846 0
-6697 6847 0
-6698 6848 0
-6699 6849 0
-6700 6850 0
-6701 6851 0
-6702 6852 0
-6703 6853 0
-6704 6854 0
-6675 6840 0
-6676 6841 0
-6677 6842 0
-6678 6843 0
-6679 6844 0
-6680 6845 0
-6681 6846 0
-6682 6847 0
-6683 6848 0
-6684 6849 0
-6685 6850 0
-6686 6851 0
-6687 6852 0
-6688 6853 0
-6689 6854 0
-6675 -6690 6841 0
-6675 -6691 6842 0
-6675 -6692 6843 0
-6675 -6693 6844 0
-6675 -6694 6845 0
-6675 -6695 6846 0
-6675 -6696 6847 0
-6675 -6697 6848 0
-6675 -6698 6849 0
-6675 -6699 6850 0
-6675 -6700 6851 0
-6675 -6701 6852 0
-6675 -6702 6853 0
-6675 -6703 6854 0
-6676 -6690 6842 0
-6676 -6691 6843 0
-6676 -6692 6844 0
-6676 -6693 6845 0
-6676 -6694 6846 0
-6676 -6695 6847 0
-6676 -6696 6848 0
-6676 -6697 6849 0
-6676 -6698 6850 0
-6676 -6699 6851 0
-6676 -6700 6852 0
-6676 -6701 6853 0
-6676 -6702 6854 0
-6677 -6690 6843 0
-6677 -6691 6844 0
-6677 -6692 6845 0
-6677 -6693 6846 0
-6677 -6694 6847 0
-6677 -6695 6848 0
-6677 -6696 6849 0
-6677 -6697 6850 0
-6677 -6698 6851 0
-6677 -6699 6852 0
-6677 -6700 6853 0
-6677 -6701 6854 0
-6678 -6690 6844 0
-6678 -6691 6845 0
-6678 -6692 6846 0
-6678 -6693 6847 0
-6678 -6694 6848 0
-6678 -6695 6849 0
-6678 -6696 6850 0
-6678 -6697 6851 0
-6678 -6698 6852 0
-6678 -6699 6853 0
-6678 -6700 6854 0
-6679 -6690 6845 0
-6679 -6691 6846 0
-6679 -6692 6847 0
-6679 -6693 6848 0
-6679 -6694 6849 0
-6679 -6695 6850 0
-6679 -6696 6851 0
-6679 -6697 6852 0
-6679 -6698 6853 0
-6679 -6699 6854 0
-6680 -6690 6846 0
-6680 -6691 6847 0
-6680 -6692 6848 0
-6680 -6693 6849 0
-6680 -6694 6850 0
-6680 -6695 6851 0
-6680 -6696 6852 0
-6680 -6697 6853 0
-6680 -6698 6854 0
-6681 -6690 6847 0
-6681 -6691 6848 0
-6681 -6692 6849 0
-6681 -6693 6850 0
-6681 -6694 6851 0
-6681 -6695 6852 0
-6681 -6696 6853 0
-6681 -6697 6854 0
-6682 -6690 6848 0
-6682 -6691 6849 0
-6682 -6692 6850 0
-6682 -6693 6851 0
-6682 -6694 6852 0
-6682 -6695 6853 0
-6682 -6696 6854 0
-6683 -6690 6849 0
-6683 -6691 6850 0
-6683 -6692 6851 0
-6683 -6693 6852 0
-6683 -6694 6853 0
-6683 -6695 6854 0
-6684 -6690 6850 0
-6684 -6691 6851 0
-6684 -6692 6852 0
-6684 -6693 6853 0
-6684 -6694 6854 0
-6685 -6690 6851 0
-6685 -6691 6852 0
-6685 -6692 6853 0
-6685 -6693 6854 0
-6686 -6690 6852 0
-6686 -6691 6853 0
-6686 -6692 6854 0
-6687 -6690 6853 0
-6687 -6691 6854 0
-6688 -6690 6854 0
-6720 6855 0
-6721 6856 0
-6722 6857 0
-6723 6858 0
-6724 6859 0
-6725 6860 0
-6726 6861 0
-6727 6862 0
-6728 6863 0
-6729 6864 0
-6730 6865 0
-6731 6866 0
-6732 6867 0
-6733 6868 0
-6734 6869 0
-6705 6855 0
-6706 6856 0
-6707 6857 0
-6708 6858 0
-6709 6859 0
-6710 6860 0
-6711 6861 0
-6712 6862 0
-6713 6863 0
-6714 6864 0
-6715 6865 0
-6716 6866 0
-6717 6867 0
-6718 6868 0
-6719 6869 0
-6705 -6720 6856 0
-6705 -6721 6857 0
-6705 -6722 6858 0
-6705 -6723 6859 0
-6705 -6724 6860 0
-6705 -6725 6861 0
-6705 -6726 6862 0
-6705 -6727 6863 0
-6705 -6728 6864 0
-6705 -6729 6865 0
-6705 -6730 6866 0
-6705 -6731 6867 0
-6705 -6732 6868 0
-6705 -6733 6869 0
-6706 -6720 6857 0
-6706 -6721 6858 0
-6706 -6722 6859 0
-6706 -6723 6860 0
-6706 -6724 6861 0
-6706 -6725 6862 0
-6706 -6726 6863 0
-6706 -6727 6864 0
-6706 -6728 6865 0
-6706 -6729 6866 0
-6706 -6730 6867 0
-6706 -6731 6868 0
-6706 -6732 6869 0
-6707 -6720 6858 0
-6707 -6721 6859 0
-6707 -6722 6860 0
-6707 -6723 6861 0
-6707 -6724 6862 0
-6707 -6725 6863 0
-6707 -6726 6864 0
-6707 -6727 6865 0
-6707 -6728 6866 0
-6707 -6729 6867 0
-6707 -6730 6868 0
-6707 -6731 6869 0
-6708 -6720 6859 0
-6708 -6721 6860 0
-6708 -6722 6861 0
-6708 -6723 6862 0
-6708 -6724 6863 0
-6708 -6725 6864 0
-6708 -6726 6865 0
-6708 -6727 6866 0
-6708 -6728 6867 0
-6708 -6729 6868 0
-6708 -6730 6869 0
-6709 -6720 6860 0
-6709 -6721 6861 0
-6709 -6722 6862 0
-6709 -6723 6863 0
-6709 -6724 6864 0
-6709 -6725 6865 0
-6709 -6726 6866 0
-6709 -6727 6867 0
-6709 -6728 6868 0
-6709 -6729 6869 0
-6710 -6720 6861 0
-6710 -6721 6862 0
-6710 -6722 6863 0
-6710 -6723 6864 0
-6710 -6724 6865 0
-6710 -6725 6866 0
-6710 -6726 6867 0
-6710 -6727 6868 0
-6710 -6728 6869 0
-6711 -6720 6862 0
-6711 -6721 6863 0
-6711 -6722 6864 0
-6711 -6723 6865 0
-6711 -6724 6866 0
-6711 -6725 6867 0
-6711 -6726 6868 0
-6711 -6727 6869 0
-6712 -6720 6863 0
-6712 -6721 6864 0
-6712 -6722 6865 0
-6712 -6723 6866 0
-6712 -6724 6867 0
-6712 -6725 6868 0
-6712 -6726 6869 0
-6713 -6720 6864 0
-6713 -6721 6865 0
-6713 -6722 6866 0
-6713 -6723 6867 0
-6713 -6724 6868 0
-6713 -6725 6869 0
-6714 -6720 6865 0
-6714 -6721 6866 0
-6714 -6722 6867 0
-6714 -6723 6868 0
-6714 -6724 6869 0
-6715 -6720 6866 0
-6715 -6721 6867 0
-6715 -6722 6868 0
-6715 -6723 6869 0
-6716 -6720 6867 0
-6716 -6721 6868 0
-6716 -6722 6869 0
-6717 -6720 6868 0
-6717 -6721 6869 0
-6718 -6720 6869 0
-6750 6870 0
-6751 6871 0
-6752 6872 0
-6753 6873 0
-6754 6874 0
-6755 6875 0
-6756 6876 0
-6757 6877 0
-6758 6878 0
-6759 6879 0
-6760 6880 0
-6761 6881 0
-6762 6882 0
-6763 6883 0
-6764 6884 0
-6735 6870 0
-6736 6871 0
-6737 6872 0
-6738 6873 0
-6739 6874 0
-6740 6875 0
-6741 6876 0
-6742 6877 0
-6743 6878 0
-6744 6879 0
-6745 6880 0
-6746 6881 0
-6747 6882 0
-6748 6883 0
-6749 6884 0
-6735 -6750 6871 0
-6735 -6751 6872 0
-6735 -6752 6873 0
-6735 -6753 6874 0
-6735 -6754 6875 0
-6735 -6755 6876 0
-6735 -6756 6877 0
-6735 -6757 6878 0
-6735 -6758 6879 0
-6735 -6759 6880 0
-6735 -6760 6881 0
-6735 -6761 6882 0
-6735 -6762 6883 0
-6735 -6763 6884 0
-6736 -6750 6872 0
-6736 -6751 6873 0
-6736 -6752 6874 0
-6736 -6753 6875 0
-6736 -6754 6876 0
-6736 -6755 6877 0
-6736 -6756 6878 0
-6736 -6757 6879 0
-6736 -6758 6880 0
-6736 -6759 6881 0
-6736 -6760 6882 0
-6736 -6761 6883 0
-6736 -6762 6884 0
-6737 -6750 6873 0
-6737 -6751 6874 0
-6737 -6752 6875 0
-6737 -6753 6876 0
-6737 -6754 6877 0
-6737 -6755 6878 0
-6737 -6756 6879 0
-6737 -6757 6880 0
-6737 -6758 6881 0
-6737 -6759 6882 0
-6737 -6760 6883 0
-6737 -6761 6884 0
-6738 -6750 6874 0
-6738 -6751 6875 0
-6738 -6752 6876 0
-6738 -6753 6877 0
-6738 -6754 6878 0
-6738 -6755 6879 0
-6738 -6756 6880 0
-6738 -6757 6881 0
-6738 -6758 6882 0
-6738 -6759 6883 0
-6738 -6760 6884 0
-6739 -6750 6875 0
-6739 -6751 6876 0
-6739 -6752 6877 0
-6739 -6753 6878 0
-6739 -6754 6879 0
-6739 -6755 6880 0
-6739 -6756 6881 0
-6739 -6757 6882 0
-6739 -6758 6883 0
-6739 -6759 6884 0
-6740 -6750 6876 0
-6740 -6751 6877 0
-6740 -6752 6878 0
-6740 -6753 6879 0
-6740 -6754 6880 0
-6740 -6755 6881 0
-6740 -6756 6882 0
-6740 -6757 6883 0
-6740 -6758 6884 0
-6741 -6750 6877 0
-6741 -6751 6878 0
-6741 -6752 6879 0
-6741 -6753 6880 0
-6741 -6754 6881 0
-6741 -6755 6882 0
-6741 -6756 6883 0
-6741 -6757 6884 0
-6742 -6750 6878 0
-6742 -6751 6879 0
-6742 -6752 6880 0
-6742 -6753 6881 0
-6742 -6754 6882 0
-6742 -6755 6883 0
-6742 -6756 6884 0
-6743 -6750 6879 0
-6743 -6751 6880 0
-6743 -6752 6881 0
-6743 -6753 6882 0
-6743 -6754 6883 0
-6743 -6755 6884 0
-6744 -6750 6880 0
-6744 -6751 6881 0
-6744 -6752 6882 0
-6744 -6753 6883 0
-6744 -6754 6884 0
-6745 -6750 6881 0
-6745 -6751 6882 0
-6745 -6752 6883 0
-6745 -6753 6884 0
-6746 -6750 6882 0
-6746 -6751 6883 0
-6746 -6752 6884 0
-6747 -6750 6883 0
-6747 -6751 6884 0
-6748 -6750 6884 0
-6780 6885 0
-6781 6886 0
-6782 6887 0
-6783 6888 0
-6784 6889 0
-6785 6890 0
-6786 6891 0
-6787 6892 0
-6788 6893 0
-6789 6894 0
-6790 6895 0
-6791 6896 0
-6792 6897 0
-6793 6898 0
-6794 6899 0
-6765 6885 0
-6766 6886 0
-6767 6887 0
-6768 6888 0
-6769 6889 0
-6770 6890 0
-6771 6891 0
-6772 6892 0
-6773 6893 0
-6774 6894 0
-6775 6895 0
-6776 6896 0
-6777 6897 0
-6778 6898 0
-6779 6899 0
-6765 -6780 6886 0
-6765 -6781 6887 0
-6765 -6782 6888 0
-6765 -6783 6889 0
-6765 -6784 6890 0
-6765 -6785 6891 0
-6765 -6786 6892 0
-6765 -6787 6893 0
-6765 -6788 6894 0
-6765 -6789 6895 0
-6765 -6790 6896 0
-6765 -6791 6897 0
-6765 -6792 6898 0
-6765 -6793 6899 0
-6766 -6780 6887 0
-6766 -6781 6888 0
-6766 -6782 6889 0
-6766 -6783 6890 0
-6766 -6784 6891 0
-6766 -6785 6892 0
-6766 -6786 6893 0
-6766 -6787 6894 0
-6766 -6788 6895 0
-6766 -6789 6896 0
-6766 -6790 6897 0
-6766 -6791 6898 0
-6766 -6792 6899 0
-6767 -6780 6888 0
-6767 -6781 6889 0
-6767 -6782 6890 0
-6767 -6783 6891 0
-6767 -6784 6892 0
-6767 -6785 6893 0
-6767 -6786 6894 0
-6767 -6787 6895 0
-6767 -6788 6896 0
-6767 -6789 6897 0
-6767 -6790 6898 0
-6767 -6791 6899 0
-6768 -6780 6889 0
-6768 -6781 6890 0
-6768 -6782 6891 0
-6768 -6783 6892 0
-6768 -6784 6893 0
-6768 -6785 6894 0
-6768 -6786 6895 0
-6768 -6787 6896 0
-6768 -6788 6897 0
-6768 -6789 6898 0
-6768 -6790 6899 0
-6769 -6780 6890 0
-6769 -6781 6891 0
-6769 -6782 6892 0
-6769 -6783 6893 0
-6769 -6784 6894 0
-6769 -6785 6895 0
-6769 -6786 6896 0
-6769 -6787 6897 0
-6769 -6788 6898 0
-6769 -6789 6899 0
-6770 -6780 6891 0
-6770 -6781 6892 0
-6770 -6782 6893 0
-6770 -6783 6894 0
-6770 -6784 6895 0
-6770 -6785 6896 0
-6770 -6786 6897 0
-6770 -6787 6898 0
-6770 -6788 6899 0
-6771 -6780 6892 0
-6771 -6781 6893 0
-6771 -6782 6894 0
-6771 -6783 6895 0
-6771 -6784 6896 0
-6771 -6785 6897 0
-6771 -6786 6898 0
-6771 -6787 6899 0
-6772 -6780 6893 0
-6772 -6781 6894 0
-6772 -6782 6895 0
-6772 -6783 6896 0
-6772 -6784 6897 0
-6772 -6785 6898 0
-6772 -6786 6899 0
-6773 -6780 6894 0
-6773 -6781 6895 0
-6773 -6782 6896 0
-6773 -6783 6897 0
-6773 -6784 6898 0
-6773 -6785 6899 0
-6774 -6780 6895 0
-6774 -6781 6896 0
-6774 -6782 6897 0
-6774 -6783 6898 0
-6774 -6784 6899 0
-6775 -6780 6896 0
-6775 -6781 6897 0
-6775 -6782 6898 0
-6775 -6783 6899 0
-6776 -6780 6897 0
-6776 -6781 6898 0
-6776 -6782 6899 0
-6777 -6780 6898 0
-6777 -6781 6899 0
-6778 -6780 6899 0
-6810 6900 0
-6811 6901 0
-6812 6902 0
-6813 6903 0
-6814 6904 0
-6815 6905 0
-6816 6906 0
-6817 6907 0
-6818 6908 0
-6819 6909 0
-6820 6910 0
-6821 6911 0
-6822 6912 0
-6823 6913 0
-6824 6914 0
-6795 6900 0
-6796 6901 0
-6797 6902 0
-6798 6903 0
-6799 6904 0
-6800 6905 0
-6801 6906 0
-6802 6907 0
-6803 6908 0
-6804 6909 0
-6805 6910 0
-6806 6911 0
-6807 6912 0
-6808 6913 0
-6809 6914 0
-6795 -6810 6901 0
-6795 -6811 6902 0
-6795 -6812 6903 0
-6795 -6813 6904 0
-6795 -6814 6905 0
-6795 -6815 6906 0
-6795 -6816 6907 0
-6795 -6817 6908 0
-6795 -6818 6909 0
-6795 -6819 6910 0
-6795 -6820 6911 0
-6795 -6821 6912 0
-6795 -6822 6913 0
-6795 -6823 6914 0
-6796 -6810 6902 0
-6796 -6811 6903 0
-6796 -6812 6904 0
-6796 -6813 6905 0
-6796 -6814 6906 0
-6796 -6815 6907 0
-6796 -6816 6908 0
-6796 -6817 6909 0
-6796 -6818 6910 0
-6796 -6819 6911 0
-6796 -6820 6912 0
-6796 -6821 6913 0
-6796 -6822 6914 0
-6797 -6810 6903 0
-6797 -6811 6904 0
-6797 -6812 6905 0
-6797 -6813 6906 0
-6797 -6814 6907 0
-6797 -6815 6908 0
-6797 -6816 6909 0
-6797 -6817 6910 0
-6797 -6818 6911 0
-6797 -6819 6912 0
-6797 -6820 6913 0
-6797 -6821 6914 0
-6798 -6810 6904 0
-6798 -6811 6905 0
-6798 -6812 6906 0
-6798 -6813 6907 0
-6798 -6814 6908 0
-6798 -6815 6909 0
-6798 -6816 6910 0
-6798 -6817 6911 0
-6798 -6818 6912 0
-6798 -6819 6913 0
-6798 -6820 6914 0
-6799 -6810 6905 0
-6799 -6811 6906 0
-6799 -6812 6907 0
-6799 -6813 6908 0
-6799 -6814 6909 0
-6799 -6815 6910 0
-6799 -6816 6911 0
-6799 -6817 6912 0
-6799 -6818 6913 0
-6799 -6819 6914 0
-6800 -6810 6906 0
-6800 -6811 6907 0
-6800 -6812 6908 0
-6800 -6813 6909 0
-6800 -6814 6910 0
-6800 -6815 6911 0
-6800 -6816 6912 0
-6800 -6817 6913 0
-6800 -6818 6914 0
-6801 -6810 6907 0
-6801 -6811 6908 0
-6801 -6812 6909 0
-6801 -6813 6910 0
-6801 -6814 6911 0
-6801 -6815 6912 0
-6801 -6816 6913 0
-6801 -6817 6914 0
-6802 -6810 6908 0
-6802 -6811 6909 0
-6802 -6812 6910 0
-6802 -6813 6911 0
-6802 -6814 6912 0
-6802 -6815 6913 0
-6802 -6816 6914 0
-6803 -6810 6909 0
-6803 -6811 6910 0
-6803 -6812 6911 0
-6803 -6813 6912 0
-6803 -6814 6913 0
-6803 -6815 6914 0
-6804 -6810 6910 0
-6804 -6811 6911 0
-6804 -6812 6912 0
-6804 -6813 6913 0
-6804 -6814 6914 0
-6805 -6810 6911 0
-6805 -6811 6912 0
-6805 -6812 6913 0
-6805 -6813 6914 0
-6806 -6810 6912 0
-6806 -6811 6913 0
-6806 -6812 6914 0
-6807 -6810 6913 0
-6807 -6811 6914 0
-6808 -6810 6914 0
-6840 6915 0
-6841 6916 0
-6842 6917 0
-6843 6918 0
-6844 6919 0
-6845 6920 0
-6846 6921 0
-6847 6922 0
-6848 6923 0
-6849 6924 0
-6850 6925 0
-6851 6926 0
-6852 6927 0
-6853 6928 0
-6854 6929 0
-6825 6915 0
-6826 6916 0
-6827 6917 0
-6828 6918 0
-6829 6919 0
-6830 6920 0
-6831 6921 0
-6832 6922 0
-6833 6923 0
-6834 6924 0
-6835 6925 0
-6836 6926 0
-6837 6927 0
-6838 6928 0
-6839 6929 0
-6825 -6840 6916 0
-6825 -6841 6917 0
-6825 -6842 6918 0
-6825 -6843 6919 0
-6825 -6844 6920 0
-6825 -6845 6921 0
-6825 -6846 6922 0
-6825 -6847 6923 0
-6825 -6848 6924 0
-6825 -6849 6925 0
-6825 -6850 6926 0
-6825 -6851 6927 0
-6825 -6852 6928 0
-6825 -6853 6929 0
-6826 -6840 6917 0
-6826 -6841 6918 0
-6826 -6842 6919 0
-6826 -6843 6920 0
-6826 -6844 6921 0
-6826 -6845 6922 0
-6826 -6846 6923 0
-6826 -6847 6924 0
-6826 -6848 6925 0
-6826 -6849 6926 0
-6826 -6850 6927 0
-6826 -6851 6928 0
-6826 -6852 6929 0
-6827 -6840 6918 0
-6827 -6841 6919 0
-6827 -6842 6920 0
-6827 -6843 6921 0
-6827 -6844 6922 0
-6827 -6845 6923 0
-6827 -6846 6924 0
-6827 -6847 6925 0
-6827 -6848 6926 0
-6827 -6849 6927 0
-6827 -6850 6928 0
-6827 -6851 6929 0
-6828 -6840 6919 0
-6828 -6841 6920 0
-6828 -6842 6921 0
-6828 -6843 6922 0
-6828 -6844 6923 0
-6828 -6845 6924 0
-6828 -6846 6925 0
-6828 -6847 6926 0
-6828 -6848 6927 0
-6828 -6849 6928 0
-6828 -6850 6929 0
-6829 -6840 6920 0
-6829 -6841 6921 0
-6829 -6842 6922 0
-6829 -6843 6923 0
-6829 -6844 6924 0
-6829 -6845 6925 0
-6829 -6846 6926 0
-6829 -6847 6927 0
-6829 -6848 6928 0
-6829 -6849 6929 0
-6830 -6840 6921 0
-6830 -6841 6922 0
-6830 -6842 6923 0
-6830 -6843 6924 0
-6830 -6844 6925 0
-6830 -6845 6926 0
-6830 -6846 6927 0
-6830 -6847 6928 0
-6830 -6848 6929 0
-6831 -6840 6922 0
-6831 -6841 6923 0
-6831 -6842 6924 0
-6831 -6843 6925 0
-6831 -6844 6926 0
-6831 -6845 6927 0
-6831 -6846 6928 0
-6831 -6847 6929 0
-6832 -6840 6923 0
-6832 -6841 6924 0
-6832 -6842 6925 0
-6832 -6843 6926 0
-6832 -6844 6927 0
-6832 -6845 6928 0
-6832 -6846 6929 0
-6833 -6840 6924 0
-6833 -6841 6925 0
-6833 -6842 6926 0
-6833 -6843 6927 0
-6833 -6844 6928 0
-6833 -6845 6929 0
-6834 -6840 6925 0
-6834 -6841 6926 0
-6834 -6842 6927 0
-6834 -6843 6928 0
-6834 -6844 6929 0
-6835 -6840 6926 0
-6835 -6841 6927 0
-6835 -6842 6928 0
-6835 -6843 6929 0
-6836 -6840 6927 0
-6836 -6841 6928 0
-6836 -6842 6929 0
-6837 -6840 6928 0
-6837 -6841 6929 0
-6838 -6840 6929 0
-6870 6930 0
-6871 6931 0
-6872 6932 0
-6873 6933 0
-6874 6934 0
-6875 6935 0
-6876 6936 0
-6877 6937 0
-6878 6938 0
-6879 6939 0
-6880 6940 0
-6881 6941 0
-6882 6942 0
-6883 6943 0
-6884 6944 0
-6855 6930 0
-6856 6931 0
-6857 6932 0
-6858 6933 0
-6859 6934 0
-6860 6935 0
-6861 6936 0
-6862 6937 0
-6863 6938 0
-6864 6939 0
-6865 6940 0
-6866 6941 0
-6867 6942 0
-6868 6943 0
-6869 6944 0
-6855 -6870 6931 0
-6855 -6871 6932 0
-6855 -6872 6933 0
-6855 -6873 6934 0
-6855 -6874 6935 0
-6855 -6875 6936 0
-6855 -6876 6937 0
-6855 -6877 6938 0
-6855 -6878 6939 0
-6855 -6879 6940 0
-6855 -6880 6941 0
-6855 -6881 6942 0
-6855 -6882 6943 0
-6855 -6883 6944 0
-6856 -6870 6932 0
-6856 -6871 6933 0
-6856 -6872 6934 0
-6856 -6873 6935 0
-6856 -6874 6936 0
-6856 -6875 6937 0
-6856 -6876 6938 0
-6856 -6877 6939 0
-6856 -6878 6940 0
-6856 -6879 6941 0
-6856 -6880 6942 0
-6856 -6881 6943 0
-6856 -6882 6944 0
-6857 -6870 6933 0
-6857 -6871 6934 0
-6857 -6872 6935 0
-6857 -6873 6936 0
-6857 -6874 6937 0
-6857 -6875 6938 0
-6857 -6876 6939 0
-6857 -6877 6940 0
-6857 -6878 6941 0
-6857 -6879 6942 0
-6857 -6880 6943 0
-6857 -6881 6944 0
-6858 -6870 6934 0
-6858 -6871 6935 0
-6858 -6872 6936 0
-6858 -6873 6937 0
-6858 -6874 6938 0
-6858 -6875 6939 0
-6858 -6876 6940 0
-6858 -6877 6941 0
-6858 -6878 6942 0
-6858 -6879 6943 0
-6858 -6880 6944 0
-6859 -6870 6935 0
-6859 -6871 6936 0
-6859 -6872 6937 0
-6859 -6873 6938 0
-6859 -6874 6939 0
-6859 -6875 6940 0
-6859 -6876 6941 0
-6859 -6877 6942 0
-6859 -6878 6943 0
-6859 -6879 6944 0
-6860 -6870 6936 0
-6860 -6871 6937 0
-6860 -6872 6938 0
-6860 -6873 6939 0
-6860 -6874 6940 0
-6860 -6875 6941 0
-6860 -6876 6942 0
-6860 -6877 6943 0
-6860 -6878 6944 0
-6861 -6870 6937 0
-6861 -6871 6938 0
-6861 -6872 6939 0
-6861 -6873 6940 0
-6861 -6874 6941 0
-6861 -6875 6942 0
-6861 -6876 6943 0
-6861 -6877 6944 0
-6862 -6870 6938 0
-6862 -6871 6939 0
-6862 -6872 6940 0
-6862 -6873 6941 0
-6862 -6874 6942 0
-6862 -6875 6943 0
-6862 -6876 6944 0
-6863 -6870 6939 0
-6863 -6871 6940 0
-6863 -6872 6941 0
-6863 -6873 6942 0
-6863 -6874 6943 0
-6863 -6875 6944 0
-6864 -6870 6940 0
-6864 -6871 6941 0
-6864 -6872 6942 0
-6864 -6873 6943 0
-6864 -6874 6944 0
-6865 -6870 6941 0
-6865 -6871 6942 0
-6865 -6872 6943 0
-6865 -6873 6944 0
-6866 -6870 6942 0
-6866 -6871 6943 0
-6866 -6872 6944 0
-6867 -6870 6943 0
-6867 -6871 6944 0
-6868 -6870 6944 0
-6900 6945 0
-6901 6946 0
-6902 6947 0
-6903 6948 0
-6904 6949 0
-6905 6950 0
-6906 6951 0
-6907 6952 0
-6908 6953 0
-6909 6954 0
-6910 6955 0
-6911 6956 0
-6912 6957 0
-6913 6958 0
-6914 6959 0
-6885 6945 0
-6886 6946 0
-6887 6947 0
-6888 6948 0
-6889 6949 0
-6890 6950 0
-6891 6951 0
-6892 6952 0
-6893 6953 0
-6894 6954 0
-6895 6955 0
-6896 6956 0
-6897 6957 0
-6898 6958 0
-6899 6959 0
-6885 -6900 6946 0
-6885 -6901 6947 0
-6885 -6902 6948 0
-6885 -6903 6949 0
-6885 -6904 6950 0
-6885 -6905 6951 0
-6885 -6906 6952 0
-6885 -6907 6953 0
-6885 -6908 6954 0
-6885 -6909 6955 0
-6885 -6910 6956 0
-6885 -6911 6957 0
-6885 -6912 6958 0
-6885 -6913 6959 0
-6886 -6900 6947 0
-6886 -6901 6948 0
-6886 -6902 6949 0
-6886 -6903 6950 0
-6886 -6904 6951 0
-6886 -6905 6952 0
-6886 -6906 6953 0
-6886 -6907 6954 0
-6886 -6908 6955 0
-6886 -6909 6956 0
-6886 -6910 6957 0
-6886 -6911 6958 0
-6886 -6912 6959 0
-6887 -6900 6948 0
-6887 -6901 6949 0
-6887 -6902 6950 0
-6887 -6903 6951 0
-6887 -6904 6952 0
-6887 -6905 6953 0
-6887 -6906 6954 0
-6887 -6907 6955 0
-6887 -6908 6956 0
-6887 -6909 6957 0
-6887 -6910 6958 0
-6887 -6911 6959 0
-6888 -6900 6949 0
-6888 -6901 6950 0
-6888 -6902 6951 0
-6888 -6903 6952 0
-6888 -6904 6953 0
-6888 -6905 6954 0
-6888 -6906 6955 0
-6888 -6907 6956 0
-6888 -6908 6957 0
-6888 -6909 6958 0
-6888 -6910 6959 0
-6889 -6900 6950 0
-6889 -6901 6951 0
-6889 -6902 6952 0
-6889 -6903 6953 0
-6889 -6904 6954 0
-6889 -6905 6955 0
-6889 -6906 6956 0
-6889 -6907 6957 0
-6889 -6908 6958 0
-6889 -6909 6959 0
-6890 -6900 6951 0
-6890 -6901 6952 0
-6890 -6902 6953 0
-6890 -6903 6954 0
-6890 -6904 6955 0
-6890 -6905 6956 0
-6890 -6906 6957 0
-6890 -6907 6958 0
-6890 -6908 6959 0
-6891 -6900 6952 0
-6891 -6901 6953 0
-6891 -6902 6954 0
-6891 -6903 6955 0
-6891 -6904 6956 0
-6891 -6905 6957 0
-6891 -6906 6958 0
-6891 -6907 6959 0
-6892 -6900 6953 0
-6892 -6901 6954 0
-6892 -6902 6955 0
-6892 -6903 6956 0
-6892 -6904 6957 0
-6892 -6905 6958 0
-6892 -6906 6959 0
-6893 -6900 6954 0
-6893 -6901 6955 0
-6893 -6902 6956 0
-6893 -6903 6957 0
-6893 -6904 6958 0
-6893 -6905 6959 0
-6894 -6900 6955 0
-6894 -6901 6956 0
-6894 -6902 6957 0
-6894 -6903 6958 0
-6894 -6904 6959 0
-6895 -6900 6956 0
-6895 -6901 6957 0
-6895 -6902 6958 0
-6895 -6903 6959 0
-6896 -6900 6957 0
-6896 -6901 6958 0
-6896 -6902 6959 0
-6897 -6900 6958 0
-6897 -6901 6959 0
-6898 -6900 6959 0
-6930 6960 0
-6931 6961 0
-6932 6962 0
-6933 6963 0
-6934 6964 0
-6935 6965 0
-6936 6966 0
-6937 6967 0
-6938 6968 0
-6939 6969 0
-6940 6970 0
-6941 6971 0
-6942 6972 0
-6943 6973 0
-6944 6974 0
-6915 6960 0
-6916 6961 0
-6917 6962 0
-6918 6963 0
-6919 6964 0
-6920 6965 0
-6921 6966 0
-6922 6967 0
-6923 6968 0
-6924 6969 0
-6925 6970 0
-6926 6971 0
-6927 6972 0
-6928 6973 0
-6929 6974 0
-6915 -6930 6961 0
-6915 -6931 6962 0
-6915 -6932 6963 0
-6915 -6933 6964 0
-6915 -6934 6965 0
-6915 -6935 6966 0
-6915 -6936 6967 0
-6915 -6937 6968 0
-6915 -6938 6969 0
-6915 -6939 6970 0
-6915 -6940 6971 0
-6915 -6941 6972 0
-6915 -6942 6973 0
-6915 -6943 6974 0
-6916 -6930 6962 0
-6916 -6931 6963 0
-6916 -6932 6964 0
-6916 -6933 6965 0
-6916 -6934 6966 0
-6916 -6935 6967 0
-6916 -6936 6968 0
-6916 -6937 6969 0
-6916 -6938 6970 0
-6916 -6939 6971 0
-6916 -6940 6972 0
-6916 -6941 6973 0
-6916 -6942 6974 0
-6917 -6930 6963 0
-6917 -6931 6964 0
-6917 -6932 6965 0
-6917 -6933 6966 0
-6917 -6934 6967 0
-6917 -6935 6968 0
-6917 -6936 6969 0
-6917 -6937 6970 0
-6917 -6938 6971 0
-6917 -6939 6972 0
-6917 -6940 6973 0
-6917 -6941 6974 0
-6918 -6930 6964 0
-6918 -6931 6965 0
-6918 -6932 6966 0
-6918 -6933 6967 0
-6918 -6934 6968 0
-6918 -6935 6969 0
-6918 -6936 6970 0
-6918 -6937 6971 0
-6918 -6938 6972 0
-6918 -6939 6973 0
-6918 -6940 6974 0
-6919 -6930 6965 0
-6919 -6931 6966 0
-6919 -6932 6967 0
-6919 -6933 6968 0
-6919 -6934 6969 0
-6919 -6935 6970 0
-6919 -6936 6971 0
-6919 -6937 6972 0
-6919 -6938 6973 0
-6919 -6939 6974 0
-6920 -6930 6966 0
-6920 -6931 6967 0
-6920 -6932 6968 0
-6920 -6933 6969 0
-6920 -6934 6970 0
-6920 -6935 6971 0
-6920 -6936 6972 0
-6920 -6937 6973 0
-6920 -6938 6974 0
-6921 -6930 6967 0
-6921 -6931 6968 0
-6921 -6932 6969 0
-6921 -6933 6970 0
-6921 -6934 6971 0
-6921 -6935 6972 0
-6921 -6936 6973 0
-6921 -6937 6974 0
-6922 -6930 6968 0
-6922 -6931 6969 0
-6922 -6932 6970 0
-6922 -6933 6971 0
-6922 -6934 6972 0
-6922 -6935 6973 0
-6922 -6936 6974 0
-6923 -6930 6969 0
-6923 -6931 6970 0
-6923 -6932 6971 0
-6923 -6933 6972 0
-6923 -6934 6973 0
-6923 -6935 6974 0
-6924 -6930 6970 0
-6924 -6931 6971 0
-6924 -6932 6972 0
-6924 -6933 6973 0
-6924 -6934 6974 0
-6925 -6930 6971 0
-6925 -6931 6972 0
-6925 -6932 6973 0
-6925 -6933 6974 0
-6926 -6930 6972 0
-6926 -6931 6973 0
-6926 -6932 6974 0
-6927 -6930 6973 0
-6927 -6931 6974 0
-6928 -6930 6974 0
-6960 6975 0
-6961 6976 0
-6962 6977 0
-6963 6978 0
-6964 6979 0
-6965 6980 0
-6966 6981 0
-6967 6982 0
-6968 6983 0
-6969 6984 0
-6970 6985 0
-6971 6986 0
-6972 6987 0
-6973 6988 0
-6974 6989 0
-6945 6975 0
-6946 6976 0
-6947 6977 0
-6948 6978 0
-6949 6979 0
-6950 6980 0
-6951 6981 0
-6952 6982 0
-6953 6983 0
-6954 6984 0
-6955 6985 0
-6956 6986 0
-6957 6987 0
-6958 6988 0
-6959 6989 0
-6945 -6960 6976 0
-6945 -6961 6977 0
-6945 -6962 6978 0
-6945 -6963 6979 0
-6945 -6964 6980 0
-6945 -6965 6981 0
-6945 -6966 6982 0
-6945 -6967 6983 0
-6945 -6968 6984 0
-6945 -6969 6985 0
-6945 -6970 6986 0
-6945 -6971 6987 0
-6945 -6972 6988 0
-6945 -6973 6989 0
-6946 -6960 6977 0
-6946 -6961 6978 0
-6946 -6962 6979 0
-6946 -6963 6980 0
-6946 -6964 6981 0
-6946 -6965 6982 0
-6946 -6966 6983 0
-6946 -6967 6984 0
-6946 -6968 6985 0
-6946 -6969 6986 0
-6946 -6970 6987 0
-6946 -6971 6988 0
-6946 -6972 6989 0
-6947 -6960 6978 0
-6947 -6961 6979 0
-6947 -6962 6980 0
-6947 -6963 6981 0
-6947 -6964 6982 0
-6947 -6965 6983 0
-6947 -6966 6984 0
-6947 -6967 6985 0
-6947 -6968 6986 0
-6947 -6969 6987 0
-6947 -6970 6988 0
-6947 -6971 6989 0
-6948 -6960 6979 0
-6948 -6961 6980 0
-6948 -6962 6981 0
-6948 -6963 6982 0
-6948 -6964 6983 0
-6948 -6965 6984 0
-6948 -6966 6985 0
-6948 -6967 6986 0
-6948 -6968 6987 0
-6948 -6969 6988 0
-6948 -6970 6989 0
-6949 -6960 6980 0
-6949 -6961 6981 0
-6949 -6962 6982 0
-6949 -6963 6983 0
-6949 -6964 6984 0
-6949 -6965 6985 0
-6949 -6966 6986 0
-6949 -6967 6987 0
-6949 -6968 6988 0
-6949 -6969 6989 0
-6950 -6960 6981 0
-6950 -6961 6982 0
-6950 -6962 6983 0
-6950 -6963 6984 0
-6950 -6964 6985 0
-6950 -6965 6986 0
-6950 -6966 6987 0
-6950 -6967 6988 0
-6950 -6968 6989 0
-6951 -6960 6982 0
-6951 -6961 6983 0
-6951 -6962 6984 0
-6951 -6963 6985 0
-6951 -6964 6986 0
-6951 -6965 6987 0
-6951 -6966 6988 0
-6951 -6967 6989 0
-6952 -6960 6983 0
-6952 -6961 6984 0
-6952 -6962 6985 0
-6952 -6963 6986 0
-6952 -6964 6987 0
-6952 -6965 6988 0
-6952 -6966 6989 0
-6953 -6960 6984 0
-6953 -6961 6985 0
-6953 -6962 6986 0
-6953 -6963 6987 0
-6953 -6964 6988 0
-6953 -6965 6989 0
-6954 -6960 6985 0
-6954 -6961 6986 0
-6954 -6962 6987 0
-6954 -6963 6988 0
-6954 -6964 6989 0
-6955 -6960 6986 0
-6955 -6961 6987 0
-6955 -6962 6988 0
-6955 -6963 6989 0
-6956 -6960 6987 0
-6956 -6961 6988 0
-6956 -6962 6989 0
-6957 -6960 6988 0
-6957 -6961 6989 0
-6958 -6960 6989 0
-6990 7 0
-6990 846 0
-6991 7 0
-6991 947 0
-6992 7 0
-6992 950 0
-6993 18 0
-6993 1264 0
-6994 23 0
-6994 854 0
-6995 23 0
-6995 939 0
-6996 23 0
-6996 1336 0
-6997 31 0
-6997 749 0
-6998 31 0
-6998 774 0
-6999 34 0
-6999 1199 0
-7000 46 0
-7000 700 0
-7001 46 0
-7001 934 0
-7002 48 0
-7002 1135 0
-7003 51 0
-7003 1004 0
-7004 51 0
-7004 1263 0
-7005 83 0
-7005 892 0
-7006 86 0
-7006 1067 0
-7007 90 0
-7007 504 0
-7008 108 0
-7008 1228 0
-7009 109 0
-7009 790 0
-7010 122 0
-7010 701 0
-7011 125 0
-7011 524 0
-7012 129 0
-7012 569 0
-7013 129 0
-7013 1018 0
-7014 129 0
-7014 1109 0
-7015 129 0
-7015 1124 0
-7016 163 0
-7016 505 0
-7017 163 0
-7017 589 0
-7018 169 0
-7018 647 0
-7019 182 0
-7019 531 0
-7020 192 0
-7020 963 0
-7021 207 0
-7021 594 0
-7022 207 0
-7022 682 0
-7023 207 0
-7023 707 0
-7024 207 0
-7024 805 0
-7025 211 0
-7025 1387 0
-7026 211 0
-7026 1424 0
-7027 219 0
-7027 731 0
-7028 219 0
-7028 804 0
-7029 221 0
-7029 1076 0
-7030 223 0
-7030 678 0
-7031 234 0
-7031 580 0
-7032 234 0
-7032 674 0
-7033 234 0
-7033 1179 0
-7034 245 0
-7034 1029 0
-7035 247 0
-7035 836 0
-7036 247 0
-7036 1304 0
-7037 270 0
-7037 588 0
-7038 270 0
-7038 1175 0
-7039 275 0
-7039 577 0
-7040 277 0
-7040 674 0
-7041 277 0
-7041 1189 0
-7042 286 0
-7042 578 0
-7043 286 0
-7043 612 0
-7044 291 0
-7044 1085 0
-7045 293 0
-7045 542 0
-7046 293 0
-7046 930 0
-7047 299 0
-7047 810 0
-7048 299 0
-7048 1239 0
-7049 300 0
-7049 1004 0
-7050 300 0
-7050 1260 0
-7051 315 0
-7051 677 0
-7052 317 0
-7052 1164 0
-7053 322 0
-7053 1140 0
-7054 322 0
-7054 1142 0
-7055 325 0
-7055 1098 0
-7056 329 0
-7056 562 0
-7057 329 0
-7057 1219 0
-7058 329 0
-7058 1230 0
-7059 329 0
-7059 1236 0
-7060 332 0
-7060 528 0
-7061 332 0
-7061 744 0
-7062 332 0
-7062 846 0
-7063 335 0
-7063 1214 0
-7064 338 0
-7064 810 0
-7065 338 0
-7065 840 0
-7066 344 0
-7066 596 0
-7067 344 0
-7067 998 0
-7068 344 0
-7068 1215 0
-7069 345 0
-7069 819 0
-7070 345 0
-7070 1153 0
-7071 346 0
-7071 601 0
-7072 346 0
-7072 709 0
-7073 349 0
-7073 704 0
-7074 350 0
-7074 1283 0
-7075 354 0
-7075 997 0
-7076 354 0
-7076 1003 0
-7077 354 0
-7077 1006 0
-7078 359 0
-7078 1150 0
-7079 359 0
-7079 1176 0
-7080 361 0
-7080 1106 0
-7081 361 0
-7081 1133 0
-7082 363 0
-7082 1075 0
-7083 366 0
-7083 812 0
-7084 366 0
-7084 1040 0
-7085 368 0
-7085 1292 0
-7086 379 0
-7086 1462 0
-7087 383 0
-7087 1520 0
-7088 384 0
-7088 1490 0
-7089 391 0
-7089 1490 0
-7090 405 0
-7090 1496 0
-7091 410 0
-7091 1489 0
-7092 416 0
-7092 1459 0
-7093 417 0
-7093 1594 0
-7094 433 0
-7094 1457 0
-7095 441 0
-7095 1487 0
-7096 448 0
-7096 1476 0
-7097 448 0
-7097 1512 0
-7098 456 0
-7098 1462 0
-7099 459 0
-7099 1580 0
-7100 472 0
-7100 1584 0
-7101 483 0
-7101 1516 0
-7102 485 0
-7102 1507 0
-7103 487 0
-7103 1475 0
-7104 512 0
-7104 753 0
-7105 514 0
-7105 755 0
-7106 554 0
-7106 907 0
-7107 573 0
-7107 1097 0
-7108 587 0
-7108 1029 0
-7109 600 0
-7109 601 0
-7110 609 0
-7110 753 0
-7111 613 0
-7111 941 0
-7112 615 0
-7112 1141 0
-7113 654 0
-7113 1235 0
-7114 677 0
-7114 1052 0
-7115 752 0
-7115 872 0
-7116 799 0
-7116 1130 0
-7117 800 0
-7117 1399 0
-7118 809 0
-7118 932 0
-7119 829 0
-7119 909 0
-7120 878 0
-7120 880 0
-7121 952 0
-7121 1414 0
-7122 978 0
-7122 1223 0
-7123 1008 0
-7123 1434 0
-7124 1077 0
-7124 1093 0
-7125 1080 0
-7125 1081 0
-7126 1084 0
-7126 1446 0
-7127 1093 0
-7127 1098 0
-7128 1354 0
-7128 1357 0
-7129 1453 0
-7129 1454 0
-7130 1476 0
-7130 1578 0
-7131 1526 0
-7131 1543 0
6990 6991 6992 6993 6994 6995 6996 6997 6998 6999 7000 7001 7002 7003 7004 7005 7006 7007 7008 7009 7010 7011 7012 7013 7014 7015 7016 7017 7018 7019 7020 7021 7022 7023 7024 7025 7026 7027 7028 7029 7030 7031 7032 7033 7034 7035 7036 7037 7038 7039 7040 7041 7042 7043 7044 7045 7046 7047 7048 7049 7050 7051 7052 7053 7054 7055 7056 7057 7058 7059 7060 7061 7062 7063 7064 7065 7066 7067 7068 7069 7070 7071 7072 7073 7074 7075 7076 7077 7078 7079 7080 7081 7082 7083 7084 7085 7086 7087 7088 7089 7090 7091 7092 7093 7094 7095 7096 7097 7098 7099 7100 7101 7102 7103 7104 7105 7106 7107 7108 7109 7110 7111 7112 7113 7114 7115 7116 7117 7118 7119 7120 7121 7122 7123 7124 7125 7126 7127 7128 7129 7130 7131 0
-7132 32 0
-7132 1067 0
-7133 88 0
-7133 1065 0
-7134 90 0
-7134 677 0
-7135 115 0
-7135 1264 0
-7136 120 0
-7136 1230 0
-7137 121 0
-7137 947 0
-7138 125 0
-7138 1399 0
-7139 158 0
-7139 596 0
-7140 192 0
-7140 753 0
-7141 207 0
-7141 909 0
-7142 234 0
-7142 1029 0
-7143 234 0
-7143 1215 0
-7144 234 0
-7144 1446 0
-7145 250 0
-7145 1199 0
-7146 363 0
-7146 1093 0
-7147 366 0
-7147 1046 0
-7148 366 0
-7148 1097 0
-7149 368 0
-7149 1283 0
-7150 372 0
-7150 1476 0
-7151 408 0
-7151 1496 0
-7152 417 0
-7152 1459 0
-7153 424 0
-7153 1508 0
-7154 448 0
-7154 1594 0
-7155 469 0
-7155 1516 0
-7156 490 0
-7156 1580 0
-7157 502 0
-7157 678 0
-7158 513 0
-7158 755 0
-7159 519 0
-7159 753 0
-7160 585 0
-7160 1189 0
-7161 600 0
-7161 1085 0
-7162 819 0
-7162 952 0
-7163 836 0
-7163 848 0
-7164 871 0
-7164 872 0
-7165 920 0
-7165 1153 0
-7166 934 0
-7166 942 0
-7167 978 0
-7167 1029 0
-7168 1004 0
-7168 1213 0
-7169 1004 0
-7169 1270 0
-7170 1028 0
-7170 1081 0
-7171 1075 0
-7171 1077 0
-7172 1076 0
-7172 1277 0
-7173 1093 0
-7173 1155 0
-7174 1104 0
-7174 1133 0
-7175 1405 0
-7175 1434 0
-7176 1476 0
-7176 1477 0
6990 6992 6994 6995 6996 6997 6998 7000 7002 7004 7005 7007 7008 7009 7010 7011 7013 7014 7016 7017 7018 7019 7020 7021 7022 7023 7024 7025 7026 7027 7028 7031 7032 7033 7036 7037 7038 7039 7040 7042 7043 7045 7046 7047 7050 7052 7053 7054 7055 7056 7057 7059 7060 7061 7062 7063 7064 7065 7067 7069 7071 7072 7073 7075 7076 7077 7078 7079 7080 7083 7084 7085 7087 7088 7089 7091 7094 7095 7097 7100 7102 7103 7106 7109 7111 7112 7113 7116 7118 7120 7122 7128 7129 7131 7132 7133 7134 7135 7136 7137 7138 7139 7140 7141 7142 7143 7144 7145 7146 7147 7148 7149 7150 7151 7152 7153 7154 7155 7156 7157 7158 7159 7160 7161 7162 7163 7164 7165 7166 7167 7168 7169 7170 7171 7172 7173 7174 7175 7176 0
-7177 2 0
-7177 1000 0
-7178 14 0
-7178 852 0
-7179 19 0
-7179 1066 0
-7180 23 0
-7180 1316 0
-7181 27 0
-7181 956 0
-7182 27 0
-7182 1359 0
-7183 28 0
-7183 870 0
-7184 37 0
-7184 635 0
-7185 45 0
-7185 1199 0
-7186 57 0
-7186 844 0
-7187 69 0
-7187 875 0
-7188 77 0
-7188 603 0
-7189 90 0
-7189 549 0
-7190 113 0
-7190 864 0
-7191 114 0
-7191 1211 0
-7192 115 0
-7192 1098 0
-7193 115 0
-7193 1295 0
-7194 118 0
-7194 521 0
-7195 126 0
-7195 876 0
-7196 128 0
-7196 1205 0
-7197 138 0
-7197 774 0
-7198 141 0
-7198 1267 0
-7199 166 0
-7199 588 0
-7200 169 0
-7200 553 0
-7201 169 0
-7201 567 0
-7202 169 0
-7202 648 0
-7203 176 0
-7203 749 0
-7204 177 0
-7204 660 0
-7205 178 0
-7205 978 0
-7206 187 0
-7206 908 0
-7207 187 0
-7207 917 0
-7208 187 0
-7208 926 0
-7209 187 0
-7209 952 0
-7210 187 0
-7210 954 0
-7211 200 0
-7211 511 0
-7212 205 0
-7212 989 0
-7213 205 0
-7213 999 0
-7214 205 0
-7214 1253 0
-7215 211 0
-7215 1179 0
-7216 211 0
-7216 1250 0
-7217 211 0
-7217 1263 0
-7218 211 0
-7218 1289 0
-7219 219 0
-7219 860 0
-7220 219 0
-7220 1015 0
-7221 225 0
-7221 1285 0
-7222 245 0
-7222 596 0
-7223 245 0
-7223 1185 0
-7224 245 0
-7224 1198 0
-7225 253 0
-7225 925 0
-7226 254 0
-7226 1356 0
-7227 272 0
-7227 924 0
-7228 283 0
-7228 1400 0
-7229 289 0
-7229 688 0
-7230 297 0
-7230 820 0
-7231 315 0
-7231 502 0
-7232 315 0
-7232 662 0
-7233 317 0
-7233 1249 0
-7234 320 0
-7234 587 0
-7235 320 0
-7235 678 0
-7236 320 0
-7236 1301 0
-7237 323 0
-7237 851 0
-7238 326 0
-7238 565 0
-7239 326 0
-7239 798 0
-7240 326 0
-7240 873 0
-7241 326 0
-7241 1299 0
-7242 336 0
-7242 1348 0
-7243 342 0
-7243 613 0
-7244 342 0
-7244 1005 0
-7245 343 0
-7245 559 0
-7246 343 0
-7246 566 0
-7247 343 0
-7247 1059 0
-7248 343 0
-7248 1074 0
-7249 344 0
-7249 830 0
-7250 346 0
-7250 1087 0
-7251 346 0
-7251 1239 0
-7252 358 0
-7252 1141 0
-7253 360 0
-7253 853 0
-7254 362 0
-7254 788 0
-7255 364 0
-7255 947 0
-7256 366 0
-7256 1091 0
-7257 416 0
-7257 1510 0
-7258 419 0
-7258 1573 0
-7259 425 0
-7259 1578 0
-7260 428 0
-7260 1578 0
-7261 440 0
-7261 1511 0
-7262 448 0
-7262 1457 0
-7263 461 0
-7263 567 0
-7264 464 0
-7264 1596 0
-7265 472 0
-7265 1519 0
-7266 493 0
-7266 1534 0
-7267 497 0
-7267 554 0
-7268 516 0
-7268 526 0
-7269 569 0
-7269 1081 0
-7270 585 0
-7270 1135 0
-7271 605 0
-7271 1142 0
-7272 685 0
-7272 831 0
-7273 715 0
-7273 1166 0
-7274 717 0
-7274 719 0
-7275 718 0
-7275 1197 0
-7276 739 0
-7276 930 0
-7277 765 0
-7277 1105 0
-7278 871 0
-7278 966 0
-7279 892 0
-7279 947 0
-7280 906 0
-7280 1284 0
-7281 975 0
-7281 1101 0
-7282 985 0
-7282 1085 0
-7283 1087 0
-7283 1147 0
-7284 1095 0
-7284 1155 0
-7285 1138 0
-7285 1364 0
-7286 1166 0
-7286 1345 0
-7287 1259 0
-7287 1265 0
-7288 1309 0
-7288 1333 0
-7289 1365 0
-7289 1439 0
-7290 1420 0
-7290 1444 0
-7291 1583 0
-7291 1584 0
7093 7147 7148 7177 7178 7179 7180 7181 7182 7183 7184 7185 7186 7187 7188 7189 7190 7191 7192 7193 7194 7195 7196 7197 7198 7199 7200 7201 7202 7203 7204 7205 7206 7207 7208 7209 7210 7211 7212 7213 7214 7215 7216 7217 7218 7219 7220 7221 7222 7223 7224 7225 7226 7227 7228 7229 7230 7231 7232 7233 7234 7235 7236 7237 7238 7239 7240 7241 7242 7243 7244 7245 7246 7247 7248 7249 7250 7251 7252 7253 7254 7255 7256 7257 7258 7259 7260 7261 7262 7263 7264 7265 7266 7267 7268 7269 7270 7271 7272 7273 7274 7275 7276 7277 7278 7279 7280 7281 7282 7283 7284 7285 7286 7287 7288 7289 7290 7291 0
-7292 8 0
-7292 908 0
-7293 20 0
-7293 1285 0
-7294 84 0
-7294 648 0
-7295 94 0
-7295 860 0
-7296 100 0
-7296 1135 0
-7297 110 0
-7297 926 0
-7298 113 0
-7298 871 0
-7299 156 0
-7299 660 0
-7300 187 0
-7300 820 0
-7301 194 0
-7301 739 0
-7302 208 0
-7302 1265 0
-7303 240 0
-7303 1400 0
-7304 245 0
-7304 1195 0
-7305 329 0
-7305 831 0
-7306 340 0
-7306 1249 0
-7307 342 0
-7307 1147 0
-7308 344 0
-7308 1166 0
-7309 366 0
-7309 798 0
-7310 411 0
-7310 1583 0
-7311 526 0
-7311 838 0
-7312 554 0
-7312 965 0
-7313 566 0
-7313 689 0
-7314 592 0
-7314 1166 0
-7315 641 0
-7315 952 0
-7316 648 0
-7316 1047 0
-7317 690 0
-7317 1309 0
-7318 695 0
-7318 954 0
-7319 863 0
-7319 864 0
-7320 989 0
-7320 1230 0
-7321 999 0
-7321 1212 0
-7322 1000 0
-7322 1254 0
-7323 1059 0
-7323 1261 0
-7324 1076 0
-7324 1091 0
-7325 1179 0
-7325 1218 0
-7326 1184 0
-7326 1253 0
-7327 1199 0
-7327 1254 0
-7328 1278 0
-7328 1299 0
-7329 1587 0
-7329 1596 0
7147 7148 7154 7180 7181 7182 7183 7184 7186 7187 7188 7189 7192 7193 7194 7195 7196 7197 7198 7199 7200 7201 7203 7205 7207 7211 7216 7217 7218 7220 7222 7223 7224 7225 7226 7227 7229 7231 7232 7234 7235 7236 7237 7238 7240 7242 7243 7244 7245 7248 7249 7250 7251 7252 7253 7254 7255 7257 7258 7259 7260 7261 7262 7263 7265 7266 7271 7274 7275 7277 7279 7280 7281 7282 7285 7289 7292 7293 7294 7295 7296 7297 7298 7299 7300 7301 7302 7303 7304 7305 7306 7307 7308 7309 7310 7311 7312 7313 7314 7315 7316 7317 7318 7319 7320 7321 7322 7323 7324 7325 7326 7327 7328 7329 0
1087 925 660 1267 1135 975 648 989 875 1316 978 1253 749 774 971 765 1400 718 719 502 1249 930 906 1364 916 1301 838 1289 999 559 873 587 715 1091 1239 497 947 1285 1218 511 908 596 588 565 876 851 1596 1573 509 956 1205 1594 1439 1348 1356 603 1359 954 1457 1142 1005 1263 0
-7330 375 0
-7330 1494 0
-7331 376 0
-7331 1496 0
-7332 409 0
-7332 1602 0
-7333 411 0
-7333 1601 0
-7334 415 0
-7334 573 0
-7335 427 0
-7335 1495 0
-7336 1493 0
-7336 1517 0
7330 7331 7332 7333 7334 7335 7336 0
-7337 376 0
-7337 1498 0
-7338 377 0
-7338 1504 0
-7339 382 0
-7339 1518 0
-7340 405 0
-7340 1598 0
-7341 419 0
-7341 588 0
-7342 431 0
-7342 1530 0
-7343 1466 0
-7343 1467 0
-7344 1469 0
-7344 1569 0
-7345 1480 0
-7345 1496 0
-7346 1492 0
-7346 1496 0
-7347 1515 0
-7347 1520 0
7337 7338 7339 7340 7341 7342 7343 7344 7345 7346 7347 0
-7348 378 0
-7348 1496 0
7337 7338 7339 7340 7341 7342 7344 7347 7348 0
1518 1480 1598 1504 1492 1520 1467 0
-7349 3 0
-7349 694 0
-7350 14 0
-7350 854 0
-7351 21 0
-7351 802 0
-7352 24 0
-7352 770 0
-7353 28 0
-7353 1380 0
-7354 48 0
-7354 969 0
-7355 81 0
-7355 539 0
-7356 86 0
-7356 1062 0
-7357 89 0
-7357 1006 0
-7358 97 0
-7358 1112 0
-7359 106 0
-7359 935 0
-7360 114 0
-7360 771 0
-7361 115 0
-7361 1164 0
-7362 123 0
-7362 1235 0
-7363 127 0
-7363 913 0
-7364 131 0
-7364 1004 0
-7365 131 0
-7365 1033 0
-7366 132 0
-7366 509 0
-7367 132 0
-7367 674 0
-7368 132 0
-7368 695 0
-7369 132 0
-7369 708 0
-7370 132 0
-7370 711 0
-7371 132 0
-7371 733 0
-7372 140 0
-7372 700 0
-7373 143 0
-7373 1112 0
-7374 152 0
-7374 568 0
-7375 155 0
-7375 560 0
-7376 166 0
-7376 650 0
-7377 179 0
-7377 656 0
-7378 179 0
-7378 1123 0
-7379 180 0
-7379 542 0
-7380 180 0
-7380 942 0
-7381 193 0
-7381 681 0
-7382 202 0
-7382 995 0
-7383 207 0
-7383 556 0
-7384 207 0
-7384 949 0
-7385 210 0
-7385 970 0
-7386 213 0
-7386 703 0
-7387 213 0
-7387 853 0
-7388 213 0
-7388 896 0
-7389 218 0
-7389 752 0
-7390 218 0
-7390 846 0
-7391 218 0
-7391 918 0
-7392 218 0
-7392 1243 0
-7393 224 0
-7393 1221 0
-7394 229 0
-7394 1431 0
-7395 244 0
-7395 1023 0
-7396 245 0
-7396 589 0
-7397 245 0
-7397 827 0
-7398 245 0
-7398 1141 0
-7399 245 0
-7399 1208 0
-7400 249 0
-7400 1321 0
-7401 261 0
-7401 1448 0
-7402 265 0
-7402 1266 0
-7403 270 0
-7403 1154 0
-7404 279 0
-7404 1305 0
-7405 280 0
-7405 558 0
-7406 280 0
-7406 635 0
-7407 280 0
-7407 1306 0
-7408 281 0
-7408 557 0
-7409 281 0
-7409 627 0
-7410 287 0
-7410 813 0
-7411 297 0
-7411 514 0
-7412 316 0
-7412 629 0
-7413 316 0
-7413 909 0
-7414 331 0
-7414 1169 0
-7415 350 0
-7415 1099 0
-7416 353 0
-7416 1001 0
-7417 353 0
-7417 1020 0
-7418 353 0
-7418 1042 0
-7419 357 0
-7419 1010 0
-7420 357 0
-7420 1212 0
-7421 360 0
-7421 1077 0
-7422 465 0
-7422 582 0
-7423 500 0
-7423 643 0
-7424 516 0
-7424 747 0
-7425 539 0
-7425 813 0
-7426 604 0
-7426 1002 0
-7427 617 0
-7427 943 0
-7428 665 0
-7428 996 0
-7429 667 0
-7429 792 0
-7430 684 0
-7430 689 0
-7431 715 0
-7431 955 0
-7432 802 0
-7432 862 0
-7433 907 0
-7433 1286 0
-7434 950 0
-7434 1310 0
-7435 1083 0
-7435 1232 0
-7436 1105 0
-7436 1133 0
-7437 1158 0
-7437 1179 0
-7438 1176 0
-7438 1218 0
-7439 1180 0
-7439 1254 0
-7440 1307 0
-7440 1319 0
-7441 1312 0
-7441 1337 0
-7442 1423 0
-7442 1443 0
7022 7023 7024 7055 7075 7304 7349 7350 7351 7352 7353 7354 7355 7356 7357 7358 7359 7360 7361 7362 7363 7364 7365 7366 7367 7368 7369 7370 7371 7372 7373 7374 7375 7376 7377 7378 7379 7380 7381 7382 7383 7384 7385 7386 7387 7388 7389 7390 7391 7392 7393 7394 7395 7396 7397 7398 7399 7400 7401 7402 7403 7404 7405 7406 7407 7408 7409 7410 7411 7412 7413 7414 7415 7416 7417 7418 7419 7420 7421 7422 7423 7424 7425 7426 7427 7428 7429 7430 7431 7432 7433 7434 7435 7436 7437 7438 7439 7440 7441 7442 0
-7443 161 0
-7443 656 0
-7444 556 0
-7444 1010 0
7022 7023 7024 7055 7304 7349 7350 7351 7352 7353 7354 7355 7356 7357 7358 7359 7360 7361 7362 7363 7364 7365 7366 7367 7368 7369 7370 7371 7372 7373 7374 7375 7376 7378 7379 7380 7381 7382 7383 7384 7385 7386 7387 7388 7389 7390 7391 7392 7393 7394 7395 7396 7397 7398 7399 7400 7401 7402 7403 7404 7405 7406 7407 7408 7409 7410 7411 7412 7413 7414 7415 7416 7417 7418 7420 7421 7422 7423 7424 7425 7426 7427 7428 7429 7430 7431 7432 7434 7435 7436 7437 7438 7439 7440 7441 7442 7443 7444 0
-7445 17 0
-7445 677 0
-7446 23 0
-7446 1402 0
-7447 26 0
-7447 783 0
-7448 26 0
-7448 1420 0
-7449 44 0
-7449 1064 0
-7450 83 0
-7450 978 0
-7451 123 0
-7451 1158 0
-7452 123 0
-7452 1336 0
-7453 145 0
-7453 1025 0
-7454 160 0
-7454 524 0
-7455 181 0
-7455 1109 0
-7456 181 0
-7456 1158 0
-7457 185 0
-7457 689 0
-7458 185 0
-7458 831 0
-7459 189 0
-7459 1008 0
-7460 192 0
-7460 554 0
-7461 205 0
-7461 1298 0
-7462 217 0
-7462 626 0
-7463 217 0
-7463 1045 0
-7464 217 0
-7464 1050 0
-7465 217 0
-7465 1094 0
-7466 217 0
-7466 1262 0
-7467 217 0
-7467 1272 0
-7468 217 0
-7468 1287 0
-7469 218 0
-7469 914 0
-7470 219 0
-7470 972 0
-7471 228 0
-7471 1059 0
-7472 242 0
-7472 1399 0
-7473 246 0
-7473 574 0
-7474 246 0
-7474 581 0
-7475 246 0
-7475 1104 0
-7476 246 0
-7476 1121 0
-7477 257 0
-7477 1058 0
-7478 257 0
-7478 1114 0
-7479 277 0
-7479 1036 0
-7480 300 0
-7480 754 0
-7481 300 0
-7481 795 0
-7482 329 0
-7482 1184 0
-7483 345 0
-7483 1145 0
-7484 345 0
-7484 1162 0
-7485 351 0
-7485 1091 0
-7486 352 0
-7486 1048 0
-7487 355 0
-7487 985 0
-7488 355 0
-7488 988 0
-7489 360 0
-7489 1098 0
-7490 368 0
-7490 1174 0
-7491 400 0
-7491 1463 0
-7492 400 0
-7492 1536 0
-7493 416 0
-7493 1505 0
-7494 423 0
-7494 1593 0
-7495 542 0
-7495 926 0
-7496 562 0
-7496 1009 0
-7497 588 0
-7497 1134 0
-7498 588 0
-7498 1182 0
-7499 593 0
-7499 829 0
-7500 647 0
-7500 790 0
-7501 694 0
-7501 936 0
-7502 727 0
-7502 805 0
-7503 731 0
-7503 1354 0
-7504 733 0
-7504 918 0
-7505 754 0
-7505 1384 0
-7506 770 0
-7506 1380 0
-7507 845 0
-7507 1003 0
-7508 848 0
-7508 1354 0
-7509 886 0
-7509 1110 0
-7510 1055 0
-7510 1060 0
-7511 1081 0
-7511 1444 0
-7512 1099 0
-7512 1289 0
-7513 1242 0
-7513 1431 0
-7514 1330 0
-7514 1419 0
-7515 1334 0
-7515 1402 0
-7516 1395 0
-7516 1413 0
-7517 1459 0
-7517 1521 0
6990 6991 6992 6998 6999 7000 7007 7013 7014 7016 7018 7020 7021 7022 7023 7026 7027 7040 7045 7046 7057 7058 7059 7061 7062 7073 7082 7085 7105 7111 7116 7124 7132 7163 7166 7215 7217 7246 7389 7390 7393 7445 7446 7447 7448 7449 7450 7451 7452 7453 7454 7455 7456 7457 7458 7459 7460 7461 7462 7463 7464 7465 7466 7467 7468 7469 7470 7471 7472 7473 7474 7475 7476 7477 7478 7479 7480 7481 7482 7483 7484 7485 7486 7487 7488 7489 7490 7491 7492 7493 7494 7495 7496 7497 7498 7499 7500 7501 7502 7503 7504 7505 7506 7507 7508 7509 7510 7511 7512 7513 7514 7515 7516 7517 0
542 950 674 594 1093 1067 689 749 1008 795 554 1399 1289 1199 1109 1162 744 731 1263 524 1242 846 1145 755 1003 704 978 1413 804 947 707 963 1075 647 1444 799 1298 1064 1098 512 504 1424 1179 1533 1219 1380 1158 1505 694 1018 682 1094 802 1402 505 1422 774 1058 752 988 985 581 562 1463 1050 1506 700 1336 909 1025 1272 574 1121 1036 928 1174 1114 588 848 0
-7518 96 0
-7518 978 0
-7519 112 0
-7519 1393 0
-7520 157 0
-7520 505 0
-7521 158 0
-7521 554 0
-7522 248 0
-7522 1418 0
-7523 302 0
-7523 799 0
-7524 332 0
-7524 819 0
-7525 346 0
-7525 609 0
-7526 346 0
-7526 810 0
-7527 512 0
-7527 754 0
-7528 519 0
-7528 795 0
-7529 600 0
-7529 1242 0
-7530 616 0
-7530 774 0
-7531 704 0
-7531 955 0
-7532 734 0
-7532 1374 0
-7533 770 0
-7533 972 0
-7534 782 0
-7534 1387 0
-7535 805 0
-7535 1354 0
-7536 819 0
-7536 820 0
-7537 936 0
-7537 1077 0
-7538 938 0
-7538 1336 0
-7539 1067 0
-7539 1081 0
-7540 1336 0
-7540 1360 0
-7541 1413 0
-7541 1414 0
-7542 1463 0
-7542 1504 0
6990 6991 6992 6994 6995 6997 6999 7005 7010 7011 7018 7020 7021 7022 7023 7027 7028 7040 7045 7060 7061 7062 7071 7072 7111 7125 7128 7132 7141 7158 7163 7393 7421 7430 7451 7453 7455 7456 7459 7461 7472 7477 7478 7479 7487 7488 7489 7500 7502 7507 7518 7519 7520 7521 7522 7523 7524 7525 7526 7527 7528 7529 7530 7531 7532 7533 7534 7535 7536 7537 7538 7539 7540 7541 7542 0
-7543 25 0
-7543 1413 0
-7544 30 0
-7544 1246 0
-7545 86 0
-7545 643 0
-7546 111 0
-7546 1375 0
-7547 198 0
-7547 820 0
-7548 266 0
-7548 985 0
-7549 271 0
-7549 1150 0
-7550 338 0
-7550 941 0
-7551 410 0
-7551 1504 0
-7552 528 0
-7552 818 0
-7553 647 0
-7553 1162 0
-7554 682 0
-7554 727 0
-7555 692 0
-7555 854 0
-7556 731 0
-7556 950 0
-7557 744 0
-7557 1256 0
-7558 749 0
-7558 1059 0
-7559 892 0
-7559 1064 0
-7560 935 0
-7560 1113 0
-7561 938 0
-7561 1407 0
6990 6991 6992 6999 7010 7020 7021 7022 7023 7040 7045 7062 7071 7072 7082 7117 7124 7125 7132 7158 7163 7393 7430 7453 7454 7455 7458 7459 7460 7461 7470 7477 7478 7479 7488 7489 7499 7507 7508 7518 7520 7523 7524 7525 7526 7527 7528 7529 7530 7531 7534 7539 7540 7543 7544 7545 7546 7547 7548 7549 7550 7551 7552 7553 7554 7555 7556 7557 7558 7559 7560 7561 0
-7562 321 0
-7562 533 0
-7563 321 0
-7563 621 0
-7564 321 0
-7564 624 0
-7565 321 0
-7565 647 0
-7566 321 0
-7566 865 0
-7567 321 0
-7567 1275 0
-7568 379 0
-7568 1504 0
-7569 380 0
-7569 1502 0
-7570 381 0
-7570 1491 0
-7571 386 0
-7571 1480 0
-7572 422 0
-7572 1530 0
-7573 425 0
-7573 1493 0
-7574 427 0
-7574 1562 0
-7575 486 0
-7575 1597 0
-7576 491 0
-7576 1563 0
-7577 493 0
-7577 1501 0
-7578 494 0
-7578 1599 0
-7579 1566 0
-7579 1600 0
7334 7562 7563 7564 7565 7566 7567 7568 7569 7570 7571 7572 7573 7574 7575 7576 7577 7578 7579 0
1599 1600 1501 1502 1504 0
-7580 8 0
-7580 876 0
-7581 8 0
-7581 1067 0
-7582 8 0
-7582 1157 0
-7583 19 0
-7583 906 0
-7584 25 0
-7584 848 0
-7585 28 0
-7585 1392 0
-7586 37 0
-7586 846 0
-7587 38 0
-7587 1032 0
-7588 45 0
-7588 825 0
-7589 49 0
-7589 1093 0
-7590 79 0
-7590 549 0
-7591 79 0
-7591 871 0
-7592 82 0
-7592 1187 0
-7593 91 0
-7593 654 0
-7594 91 0
-7594 675 0
-7595 116 0
-7595 1441 0
-7596 119 0
-7596 659 0
-7597 119 0
-7597 1074 0
-7598 134 0
-7598 545 0
-7599 134 0
-7599 910 0
-7600 136 0
-7600 833 0
-7601 177 0
-7601 1170 0
-7602 177 0
-7602 1250 0
-7603 195 0
-7603 591 0
-7604 195 0
-7604 1162 0
-7605 198 0
-7605 836 0
-7606 201 0
-7606 572 0
-7607 201 0
-7607 732 0
-7608 201 0
-7608 809 0
-7609 201 0
-7609 813 0
-7610 201 0
-7610 919 0
-7611 201 0
-7611 1374 0
-7612 211 0
-7612 628 0
-7613 213 0
-7613 816 0
-7614 220 0
-7614 983 0
-7615 220 0
-7615 1165 0
-7616 222 0
-7616 1070 0
-7617 230 0
-7617 1085 0
-7618 235 0
-7618 1010 0
-7619 244 0
-7619 559 0
-7620 244 0
-7620 566 0
-7621 244 0
-7621 1005 0
-7622 244 0
-7622 1017 0
-7623 244 0
-7623 1020 0
-7624 262 0
-7624 840 0
-7625 262 0
-7625 941 0
-7626 267 0
-7626 560 0
-7627 269 0
-7627 1184 0
-7628 274 0
-7628 1106 0
-7629 284 0
-7629 801 0
-7630 284 0
-7630 1039 0
-7631 288 0
-7631 1072 0
-7632 292 0
-7632 660 0
-7633 296 0
-7633 646 0
-7634 298 0
-7634 1097 0
-7635 301 0
-7635 931 0
-7636 316 0
-7636 997 0
-7637 319 0
-7637 1184 0
-7638 323 0
-7638 1075 0
-7639 323 0
-7639 1134 0
-7640 324 0
-7640 520 0
-7641 324 0
-7641 642 0
-7642 324 0
-7642 664 0
-7643 326 0
-7643 787 0
-7644 327 0
-7644 1067 0
-7645 333 0
-7645 1058 0
-7646 356 0
-7646 1166 0
-7647 356 0
-7647 1181 0
-7648 359 0
-7648 1175 0
-7649 360 0
-7649 1140 0
-7650 361 0
-7650 1135 0
-7651 362 0
-7651 732 0
-7652 362 0
-7652 1108 0
-7653 363 0
-7653 1055 0
-7654 363 0
-7654 1092 0
-7655 367 0
-7655 984 0
-7656 407 0
-7656 1520 0
-7657 421 0
-7657 1508 0
-7658 529 0
-7658 571 0
-7659 548 0
-7659 963 0
-7660 549 0
-7660 875 0
-7661 565 0
-7661 751 0
-7662 579 0
-7662 865 0
-7663 617 0
-7663 1007 0
-7664 636 0
-7664 1294 0
-7665 654 0
-7665 1240 0
-7666 673 0
-7666 1239 0
-7667 729 0
-7667 844 0
-7668 742 0
-7668 1087 0
-7669 783 0
-7669 1216 0
-7670 846 0
-7670 1322 0
-7671 868 0
-7671 1122 0
-7672 873 0
-7672 982 0
-7673 876 0
-7673 967 0
-7674 987 0
-7674 1063 0
-7675 1049 0
-7675 1097 0
-7676 1072 0
-7676 1073 0
-7677 1099 0
-7677 1263 0
-7678 1101 0
-7678 1105 0
-7679 1150 0
-7679 1154 0
-7680 1392 0
-7680 1434 0
6991 7017 7055 7057 7058 7076 7077 7139 7153 7217 7334 7339 7341 7447 7448 7476 7483 7546 7580 7581 7582 7583 7584 7585 7586 7587 7588 7589 7590 7591 7592 7593 7594 7595 7596 7597 7598 7599 7600 7601 7602 7603 7604 7605 7606 7607 7608 7609 7610 7611 7612 7613 7614 7615 7616 7617 7618 7619 7620 7621 7622 7623 7624 7625 7626 7627 7628 7629 7630 7631 7632 7633 7634 7635 7636 7637 7638 7639 7640 7641 7642 7643 7644 7645 7646 7647 7648 7649 7650 7651 7652 7653 7654 7655 7656 7657 7658 7659 7660 7661 7662 7663 7664 7665 7666 7667 7668 7669 7670 7671 7672 7673 7674 7675 7676 7677 7678 7679 7680 0
-7681 39 0
-7681 875 0
-7682 79 0
-7682 846 0
-7683 201 0
-7683 729 0
-7684 223 0
-7684 1101 0
-7685 228 0
-7685 1006 0
-7686 240 0
-7686 1108 0
-7687 244 0
-7687 997 0
-7688 246 0
-7688 1108 0
-7689 262 0
-7689 846 0
-7690 271 0
-7690 1140 0
-7691 325 0
-7691 1097 0
-7692 326 0
-7692 1092 0
-7693 348 0
-7693 1184 0
-7694 361 0
-7694 1121 0
-7695 362 0
-7695 1097 0
-7696 416 0
-7696 1518 0
-7697 447 0
-7697 1508 0
-7698 513 0
-7698 742 0
-7699 554 0
-7699 983 0
-7700 560 0
-7700 1010 0
-7701 597 0
-7701 931 0
-7702 947 0
-7702 1322 0
-7703 984 0
-7703 1071 0
-7704 1020 0
-7704 1041 0
-7705 1240 0
-7705 1441 0
-7706 1375 0
-7706 1413 0
-7707 1488 0
-7707 1508 0
7017 7055 7057 7058 7076 7139 7216 7217 7326 7334 7341 7347 7447 7448 7483 7580 7581 7582 7583 7584 7585 7587 7588 7589 7590 7591 7592 7593 7594 7596 7597 7598 7599 7601 7603 7604 7605 7606 7607 7608 7609 7610 7611 7612 7613 7615 7616 7617 7619 7620 7621 7622 7624 7625 7626 7628 7629 7630 7631 7632 7633 7638 7640 7641 7642 7643 7644 7645 7646 7647 7648 7650 7651 7653 7658 7659 7661 7662 7663 7664 7665 7666 7669 7671 7672 7673 7674 7676 7677 7679 7680 7681 7682 7683 7684 7685 7686 7687 7688 7689 7690 7691 7692 7693 7694 7695 7696 7697 7698 7699 7700 7701 7702 7703 7704 7705 7706 7707 0
-7708 379 0
-7708 1500 0
-7709 412 0
-7709 1501 0
-7710 421 0
-7710 1499 0
-7711 439 0
-7711 1551 0
-7712 482 0
-7712 1553 0
-7713 1467 0
-7713 1469 0
7340 7569 7708 7709 7710 7711 7712 7713 0
1499 1502 1598 1551 1568 1500 1553 0
-7714 25 0
-7714 842 0
-7715 30 0
-7715 1082 0
-7716 48 0
-7716 1164 0
-7717 58 0
-7717 500 0
-7718 81 0
-7718 913 0
-7719 94 0
-7719 912 0
-7720 109 0
-7720 961 0
-7721 116 0
-7721 1159 0
-7722 116 0
-7722 1216 0
-7723 130 0
-7723 802 0
-7724 152 0
-7724 566 0
-7725 156 0
-7725 640 0
-7726 172 0
-7726 604 0
-7727 182 0
-7727 970 0
-7728 202 0
-7728 990 0
-7729 202 0
-7729 1277 0
-7730 209 0
-7730 538 0
-7731 210 0
-7731 667 0
-7732 210 0
-7732 771 0
-7733 210 0
-7733 898 0
-7734 210 0
-7734 901 0
-7735 222 0
-7735 1066 0
-7736 232 0
-7736 915 0
-7737 232 0
-7737 958 0
-7738 249 0
-7738 1307 0
-7739 250 0
-7739 1382 0
-7740 272 0
-7740 943 0
-7741 297 0
-7741 822 0
-7742 309 0
-7742 511 0
-7743 309 0
-7743 638 0
-7744 309 0
-7744 663 0
-7745 318 0
-7745 652 0
-7746 318 0
-7746 666 0
-7747 319 0
-7747 1182 0
-7748 321 0
-7748 529 0
-7749 321 0
-7749 665 0
-7750 331 0
-7750 1099 0
-7751 331 0
-7751 1158 0
-7752 335 0
-7752 1226 0
-7753 339 0
-7753 564 0
-7754 339 0
-7754 1103 0
-7755 345 0
-7755 581 0
-7756 345 0
-7756 701 0
-7757 345 0
-7757 1092 0
-7758 345 0
-7758 1140 0
-7759 347 0
-7759 555 0
-7760 347 0
-7760 563 0
-7761 351 0
-7761 744 0
-7762 355 0
-7762 987 0
-7763 358 0
-7763 898 0
-7764 358 0
-7764 1029 0
-7765 358 0
-7765 1125 0
-7766 368 0
-7766 1134 0
-7767 412 0
-7767 1462 0
-7768 417 0
-7768 560 0
-7769 421 0
-7769 1524 0
-7770 423 0
-7770 1512 0
-7771 431 0
-7771 1466 0
-7772 443 0
-7772 1487 0
-7773 456 0
-7773 1465 0
-7774 456 0
-7774 1529 0
-7775 456 0
-7775 1530 0
-7776 463 0
-7776 595 0
-7777 477 0
-7777 1554 0
-7778 573 0
-7778 966 0
-7779 573 0
-7779 1040 0
-7780 576 0
-7780 1130 0
-7781 634 0
-7781 1248 0
-7782 681 0
-7782 1236 0
-7783 724 0
-7783 1307 0
-7784 802 0
-7784 1073 0
-7785 841 0
-7785 1221 0
-7786 882 0
-7786 1423 0
-7787 995 0
-7787 1045 0
-7788 1001 0
-7788 1009 0
-7789 1013 0
-7789 1017 0
-7790 1062 0
-7790 1221 0
-7791 1112 0
-7791 1194 0
-7792 1144 0
-7792 1188 0
-7793 1151 0
-7793 1161 0
-7794 1155 0
-7794 1156 0
7107 7135 7192 7349 7352 7353 7355 7359 7372 7377 7378 7379 7380 7386 7387 7389 7390 7391 7392 7394 7400 7403 7405 7406 7407 7408 7409 7410 7411 7414 7416 7417 7418 7425 7430 7435 7436 7438 7439 7441 7465 7466 7467 7468 7473 7475 7483 7484 7487 7488 7490 7544 7644 7714 7715 7716 7717 7718 7719 7720 7721 7722 7723 7724 7725 7726 7727 7728 7729 7730 7731 7732 7733 7734 7735 7736 7737 7738 7739 7740 7741 7742 7743 7744 7745 7746 7747 7748 7749 7750 7751 7752 7753 7754 7755 7756 7757 7758 7759 7760 7761 7762 7763 7764 7765 7766 7767 7768 7769 7770 7771 7772 7773 7774 7775 7776 7777 7778 7779 7780 7781 7782 7783 7784 7785 7786 7787 7788 7789 7790 7791 7792 7793 7794 0
-7795 116 0
-7795 1144 0
-7796 266 0
-7796 1001 0
-7797 281 0
-7797 1429 0
-7798 319 0
-7798 1180 0
-7799 339 0
-7799 1104 0
-7800 345 0
-7800 574 0
-7801 681 0
-7801 1208 0
-7802 747 0
-7802 901 0
-7803 767 0
-7803 770 0
-7804 842 0
-7804 943 0
-7805 896 0
-7805 898 0
-7806 1001 0
-7806 1017 0
-7807 1171 0
-7807 1174 0
7135 7192 7349 7353 7355 7359 7372 7377 7378 7379 7380 7386 7387 7389 7390 7391 7392 7394 7400 7403 7405 7406 7407 7408 7409 7410 7411 7414 7417 7418 7425 7430 7438 7441 7465 7466 7467 7468 7476 7483 7484 7487 7488 7544 7644 7715 7716 7717 7718 7719 7720 7721 7722 7723 7725 7726 7727 7728 7729 7730 7731 7732 7735 7736 7737 7738 7739 7740 7741 7742 7743 7744 7745 7746 7747 7748 7749 7750 7751 7752 7753 7754 7755 7756 7757 7758 7759 7760 7761 7762 7764 7765 7766 7767 7768 7769 7770 7771 7772 7773 7774 7775 7776 7777 7780 7781 7783 7784 7785 7786 7787 7789 7790 7791 7793 7794 7795 7796 7797 7798 7799 7800 7801 7802 7803 7804 7805 7806 7807 0
-7808 30 0
-7808 1155 0
-7809 49 0
-7809 1125 0
-7810 159 0
-7810 634 0
-7811 213 0
-7811 700 0
-7812 232 0
-7812 1307 0
-7813 233 0
-7813 1017 0
-7814 236 0
-7814 1154 0
-7815 246 0
-7815 1123 0
-7816 248 0
-7816 1431 0
-7817 250 0
-7817 640 0
-7818 271 0
-7818 1134 0
-7819 272 0
-7819 813 0
-7820 296 0
-7820 1161 0
-7821 307 0
-7821 1443 0
-7822 318 0
-7822 538 0
-7823 318 0
-7823 1066 0
-7824 326 0
-7824 1020 0
-7825 358 0
-7825 1264 0
-7826 385 0
-7826 1512 0
-7827 410 0
-7827 1466 0
-7828 482 0
-7828 1464 0
-7829 482 0
-7829 1554 0
-7830 523 0
-7830 813 0
-7831 532 0
-7831 542 0
-7832 566 0
-7832 573 0
-7833 580 0
-7833 1121 0
-7834 603 0
-7834 1125 0
-7835 744 0
-7835 1103 0
-7836 899 0
-7836 1123 0
-7837 904 0
-7837 1018 0
-7838 922 0
-7838 1134 0
-7839 932 0
-7839 943 0
-7840 1106 0
-7840 1112 0
-7841 1156 0
-7841 1161 0
-7842 1162 0
-7842 1204 0
-7843 1169 0
-7843 1179 0
-7844 1169 0
-7844 1222 0
-7845 1454 0
-7845 1465 0
-7846 1455 0
-7846 1466 0
7000 7107 7192 7349 7351 7352 7353 7355 7359 7361 7377 7380 7382 7386 7387 7389 7390 7391 7392 7393 7400 7405 7406 7407 7408 7409 7411 7415 7418 7430 7432 7435 7438 7439 7440 7441 7466 7467 7468 7473 7475 7483 7487 7488 7490 7512 7544 7549 7644 7715 7717 7718 7719 7720 7721 7722 7726 7727 7728 7729 7731 7732 7734 7736 7737 7739 7741 7742 7743 7744 7745 7746 7747 7748 7749 7751 7752 7753 7755 7756 7757 7759 7760 7761 7762 7764 7767 7768 7769 7772 7775 7776 7778 7779 7792 7796 7801 7805 7808 7809 7810 7811 7812 7813 7814 7815 7816 7817 7818 7819 7820 7821 7822 7823 7824 7825 7826 7827 7828 7829 7830 7831 7832 7833 7834 7835 7836 7837 7838 7839 7840 7841 7842 7843 7844 7845 7846 0
-7847 218 0
-7847 689 0
-7848 224 0
-7848 1180 0
-7849 539 0
-7849 904 0
-7850 573 0
-7850 574 0
-7851 1121 0
-7851 1133 0
-7852 1231 0
-7852 1443 0
-7853 1463 0
-7853 1530 0
-7854 1465 0
-7854 1466 0
7192 7349 7351 7353 7355 7359 7372 7377 7379 7380 7382 7386 7387 7388 7389 7390 7391 7392 7393 7400 7403 7405 7406 7407 7408 7409 7410 7411 7414 7415 7417 7418 7425 7432 7435 7438 7440 7441 7466 7467 7468 7473 7475 7483 7487 7488 7490 7512 7544 7549 7644 7715 7716 7717 7718 7719 7720 7721 7722 7726 7727 7728 7729 7731 7732 7736 7737 7739 7741 7742 7743 7744 7745 7746 7747 7748 7749 7751 7752 7753 7755 7756 7757 7759 7760 7761 7762 7764 7765 7766 7767 7768 7769 7771 7772 7776 7782 7792 7796 7802 7803 7808 7810 7812 7813 7815 7816 7817 7820 7822 7823 7825 7826 7828 7829 7835 7836 7839 7840 7841 7842 7845 7847 7848 7849 7850 7851 7852 7853 7854 0
1262 1272 514 1380 1123 630 1099 1002 853 656 943 802 1112 1246 913 1169 1121 1466 663 942 1465 557 532 1162 1188 634 1236 665 1159 990 538 1104 558 1155 1020 1504 985 529 912 1067 1487 667 813 595 1161 966 1182 1243 935 970 1082 638 581 627 1218 703 500 1512 689 566 511 1264 1097 1431 918 1013 958 560 1216 694 1443 700 701 1180 995 1287 539 1040 0
-7855 377 0
-7855 1494 0
-7856 403 0
-7856 1599 0
-7857 412 0
-7857 1502 0
-7858 484 0
-7858 1507 0
-7859 490 0
-7859 1601 0
-7860 1495 0
-7860 1569 0
-7861 1499 0
-7861 1518 0
-7862 1501 0
-7862 1568 0
7153 7340 7348 7776 7855 7856 7857 7858 7859 7860 7861 7862 0
-7863 27 0
-7863 735 0
-7864 29 0
-7864 622 0
-7865 29 0
-7865 810 0
-7866 29 0
-7866 813 0
-7867 29 0
-7867 826 0
-7868 29 0
-7868 1362 0
-7869 33 0
-7869 716 0
-7870 52 0
-7870 1052 0
-7871 52 0
-7871 1080 0
-7872 66 0
-7872 497 0
-7873 81 0
-7873 720 0
-7874 81 0
-7874 932 0
-7875 81 0
-7875 965 0
-7876 81 0
-7876 1359 0
-7877 84 0
-7877 1205 0
-7878 92 0
-7878 662 0
-7879 92 0
-7879 784 0
-7880 92 0
-7880 1262 0
-7881 118 0
-7881 830 0
-7882 133 0
-7882 1197 0
-7883 178 0
-7883 550 0
-7884 178 0
-7884 960 0
-7885 211 0
-7885 603 0
-7886 211 0
-7886 1138 0
-7887 211 0
-7887 1143 0
-7888 216 0
-7888 791 0
-7889 223 0
-7889 1249 0
-7890 245 0
-7890 925 0
-7891 258 0
-7891 1345 0
-7892 264 0
-7892 727 0
-7893 311 0
-7893 1040 0
-7894 314 0
-7894 1198 0
-7895 317 0
-7895 1030 0
-7896 343 0
-7896 688 0
-7897 343 0
-7897 985 0
-7898 343 0
-7898 1048 0
-7899 350 0
-7899 614 0
-7900 350 0
-7900 623 0
-7901 357 0
-7901 1196 0
-7902 360 0
-7902 1154 0
-7903 362 0
-7903 1024 0
-7904 362 0
-7904 1049 0
-7905 367 0
-7905 1265 0
-7906 385 0
-7906 1486 0
-7907 385 0
-7907 1583 0
-7908 411 0
-7908 1582 0
-7909 419 0
-7909 1565 0
-7910 441 0
-7910 1454 0
-7911 441 0
-7911 1484 0
-7912 447 0
-7912 1510 0
-7913 450 0
-7913 1471 0
-7914 450 0
-7914 1578 0
-7915 452 0
-7915 1469 0
-7916 453 0
-7916 1563 0
-7917 458 0
-7917 1581 0
-7918 473 0
-7918 1559 0
-7919 553 0
-7919 873 0
-7920 679 0
-7920 1296 0
-7921 716 0
-7921 827 0
-7922 732 0
-7922 733 0
-7923 835 0
-7923 841 0
-7924 838 0
-7924 1411 0
-7925 847 0
-7925 894 0
-7926 857 0
-7926 913 0
-7927 860 0
-7927 916 0
-7928 876 0
-7928 1424 0
-7929 939 0
-7929 946 0
-7930 975 0
-7930 1077 0
-7931 993 0
-7931 1001 0
-7932 1331 0
-7932 1371 0
-7933 1489 0
-7933 1504 0
-7934 1490 0
-7934 1579 0
-7935 1492 0
-7935 1525 0
-7936 1538 0
-7936 1539 0
7076 7194 7198 7211 7212 7213 7214 7215 7216 7217 7218 7220 7222 7223 7245 7246 7247 7248 7263 7276 7277 7294 7299 7304 7355 7396 7398 7419 7422 7649 7652 7678 7681 7684 7863 7864 7865 7866 7867 7868 7869 7870 7871 7872 7873 7874 7875 7876 7877 7878 7879 7880 7881 7882 7883 7884 7885 7886 7887 7888 7889 7890 7891 7892 7893 7894 7895 7896 7897 7898 7899 7900 7901 7902 7903 7904 7905 7906 7907 7908 7909 7910 7911 7912 7913 7914 7915 7916 7917 7918 7919 7920 7921 7922 7923 7924 7925 7926 7927 7928 7929 7930 7931 7932 7933 7934 7935 7936 0
-7937 29 0
-7937 841 0
-7938 79 0
-7938 975 0
-7939 175 0
-7939 1265 0
-7940 216 0
-7940 733 0
-7941 216 0
-7941 872 0
-7942 255 0
-7942 946 0
-7943 338 0
-7943 818 0
-7944 367 0
-7944 1296 0
-7945 412 0
-7945 1487 0
-7946 443 0
-7946 1582 0
-7947 453 0
-7947 1565 0
-7948 457 0
-7948 1510 0
-7949 457 0
-7949 1539 0
-7950 481 0
-7950 1489 0
-7951 511 0
-7951 742 0
-7952 563 0
-7952 1052 0
-7953 588 0
-7953 589 0
-7954 889 0
-7954 894 0
-7955 939 0
-7955 1371 0
-7956 1101 0
-7956 1197 0
-7957 1106 0
-7957 1108 0
-7958 1195 0
-7958 1211 0
-7959 1486 0
-7959 1535 0
7026 7076 7088 7089 7194 7198 7204 7214 7215 7216 7217 7218 7220 7222 7223 7224 7229 7245 7246 7247 7248 7249 7263 7277 7294 7295 7301 7305 7306 7308 7314 7317 7320 7346 7355 7398 7419 7420 7422 7649 7681 7718 7863 7864 7865 7866 7868 7871 7872 7873 7874 7875 7876 7877 7879 7880 7882 7883 7884 7885 7886 7887 7888 7890 7892 7893 7895 7897 7898 7899 7900 7901 7902 7903 7904 7910 7911 7913 7914 7915 7917 7918 7924 7931 7937 7938 7939 7940 7941 7942 7943 7944 7945 7946 7947 7948 7949 7950 7951 7952 7953 7954 7955 7956 7957 7958 7959 0
939 1490 1578 1583 1471 648 563 559 1582 913 1198 550 521 989 1469 1249 1345 810 1263 1359 1040 732 1179 1253 932 1211 566 539 582 567 1049 510 673 791 963 1001 1010 1265 1267 841 1362 1250 1462 1525 660 1510 765 872 497 0
-7960 380 0
-7960 1498 0
-7961 413 0
-7961 1600 0
-7962 414 0
-7962 1499 0
-7963 492 0
-7963 1547 0
-7964 494 0
-7964 1529 0
7087 7259 7263 7333 7340 7708 7770 7860 7960 7961 7962 7963 7964 0
-7965 2 0
-7965 1022 0
-7966 4 0
-7966 1235 0
-7967 6 0
-7967 881 0
-7968 19 0
-7968 1041 0
-7969 28 0
-7969 1389 0
-7970 45 0
-7970 1198 0
-7971 93 0
-7971 1187 0
-7972 118 0
-7972 1351 0
-7973 124 0
-7973 1061 0
-7974 124 0
-7974 1231 0
-7975 130 0
-7975 811 0
-7976 130 0
-7976 827 0
-7977 130 0
-7977 841 0
-7978 134 0
-7978 810 0
-7979 141 0
-7979 1179 0
-7980 161 0
-7980 654 0
-7981 197 0
-7981 868 0
-7982 198 0
-7982 810 0
-7983 218 0
-7983 694 0
-7984 218 0
-7984 854 0
-7985 220 0
-7985 967 0
-7986 221 0
-7986 897 0
-7987 221 0
-7987 1067 0
-7988 221 0
-7988 1279 0
-7989 255 0
-7989 1400 0
-7990 266 0
-7990 1085 0
-7991 271 0
-7991 1108 0
-7992 281 0
-7992 906 0
-7993 294 0
-7993 1263 0
-7994 301 0
-7994 922 0
-7995 302 0
-7995 1025 0
-7996 303 0
-7996 1072 0
-7997 311 0
-7997 1297 0
-7998 314 0
-7998 747 0
-7999 314 0
-7999 985 0
-8000 316 0
-8000 998 0
-8001 343 0
-8001 987 0
-8002 354 0
-8002 993 0
-8003 355 0
-8003 986 0
-8004 366 0
-8004 872 0
-8005 400 0
-8005 1535 0
-8006 448 0
-8006 1511 0
-8007 472 0
-8007 1589 0
-8008 524 0
-8008 533 0
-8009 529 0
-8009 863 0
-8010 548 0
-8010 549 0
-8011 585 0
-8011 1032 0
-8012 601 0
-8012 932 0
-8013 625 0
-8013 987 0
-8014 646 0
-8014 734 0
-8015 707 0
-8015 1198 0
-8016 711 0
-8016 856 0
-8017 711 0
-8017 921 0
-8018 714 0
-8018 720 0
-8019 729 0
-8019 982 0
-8020 783 0
-8020 1008 0
-8021 783 0
-8021 1396 0
-8022 803 0
-8022 1023 0
-8023 868 0
-8023 1161 0
-8024 888 0
-8024 1108 0
-8025 898 0
-8025 953 0
-8026 911 0
-8026 1322 0
-8027 956 0
-8027 1165 0
-8028 967 0
-8028 1396 0
-8029 997 0
-8029 1010 0
-8030 1011 0
-8030 1017 0
-8031 1063 0
-8031 1072 0
-8032 1099 0
-8032 1281 0
-8033 1170 0
-8033 1311 0
-8034 1183 0
-8034 1263 0
-8035 1420 0
-8035 1421 0
7011 7029 7048 7055 7065 7076 7077 7107 7148 7209 7216 7232 7262 7263 7419 7476 7483 7484 7491 7495 7526 7580 7581 7582 7585 7586 7589 7595 7596 7597 7603 7605 7612 7614 7619 7620 7625 7628 7629 7630 7632 7638 7644 7645 7646 7647 7649 7650 7651 7653 7659 7664 7678 7680 7692 7698 7723 7902 7965 7966 7967 7968 7969 7970 7971 7972 7973 7974 7975 7976 7977 7978 7979 7980 7981 7982 7983 7984 7985 7986 7987 7988 7989 7990 7991 7992 7993 7994 7995 7996 7997 7998 7999 8000 8001 8002 8003 8004 8005 8006 8007 8008 8009 8010 8011 8012 8013 8014 8015 8016 8017 8018 8019 8020 8021 8022 8023 8024 8025 8026 8027 8028 8029 8030 8031 8032 8033 8034 8035 0
-8036 19 0
-8036 863 0
-8037 152 0
-8037 548 0
-8038 244 0
-8038 1022 0
-8039 548 0
-8039 899 0
-8040 865 0
-8040 1400 0
-8041 1108 0
-8041 1134 0
7011 7029 7048 7055 7065 7076 7077 7209 7232 7262 7263 7419 7476 7483 7484 7491 7495 7526 7580 7581 7582 7585 7586 7589 7595 7596 7597 7602 7603 7605 7612 7614 7619 7620 7625 7628 7629 7630 7632 7638 7644 7645 7646 7647 7649 7650 7651 7652 7653 7664 7678 7680 7691 7692 7695 7698 7723 7902 7966 7967 7968 7969 7970 7971 7972 7973 7974 7975 7976 7977 7978 7979 7980 7981 7982 7983 7984 7985 7986 7987 7988 7990 7992 7993 7994 7995 7996 7997 7998 7999 8000 8001 8002 8003 8004 8005 8006 8007 8008 8011 8012 8013 8014 8015 8016 8017 8018 8019 8020 8021 8022 8023 8026 8027 8028 8029 8030 8031 8033 8034 8035 8036 8037 8038 8039 8040 8041 0
810 854 628 1351 963 585 932 1263 1101 1441 1106 846 840 1396 969 1294 564 742 591 1093 1145 1072 660 1039 654 1400 876 1250 952 1074 941 1392 836 956 801 922 747 1154 659 987 1055 574 1457 1067 1239 1297 1097 958 1077 1355 1311 1008 1085 1231 720 1187 1017 527 694 549 1003 841 752 1420 926 689 1389 992 1025 1098 1006 1020 1061 986 1184 1157 1162 906 524 1371 732 1198 711 0
-8042 18 0
-8042 1183 0
-8043 28 0
-8043 977 0
-8044 38 0
-8044 1079 0
-8045 48 0
-8045 1170 0
-8046 51 0
-8046 1190 0
-8047 82 0
-8047 1155 0
-8048 91 0
-8048 1207 0
-8049 96 0
-8049 1267 0
-8050 99 0
-8050 643 0
-8051 99 0
-8051 803 0
-8052 99 0
-8052 1201 0
-8053 105 0
-8053 761 0
-8054 105 0
-8054 965 0
-8055 111 0
-8055 1374 0
-8056 129 0
-8056 1025 0
-8057 133 0
-8057 1202 0
-8058 158 0
-8058 660 0
-8059 160 0
-8059 596 0
-8060 164 0
-8060 664 0
-8061 174 0
-8061 810 0
-8062 174 0
-8062 872 0
-8063 189 0
-8063 870 0
-8064 189 0
-8064 1025 0
-8065 213 0
-8065 792 0
-8066 213 0
-8066 856 0
-8067 213 0
-8067 921 0
-8068 216 0
-8068 875 0
-8069 216 0
-8069 968 0
-8070 252 0
-8070 1113 0
-8071 257 0
-8071 1067 0
-8072 268 0
-8072 700 0
-8073 291 0
-8073 1217 0
-8074 294 0
-8074 1222 0
-8075 301 0
-8075 1148 0
-8076 302 0
-8076 868 0
-8077 302 0
-8077 895 0
-8078 302 0
-8078 1281 0
-8079 330 0
-8079 546 0
-8080 330 0
-8080 867 0
-8081 330 0
-8081 920 0
-8082 330 0
-8082 930 0
-8083 330 0
-8083 942 0
-8084 332 0
-8084 833 0
-8085 345 0
-8085 1163 0
-8086 386 0
-8086 1562 0
-8087 406 0
-8087 1457 0
-8088 406 0
-8088 1574 0
-8089 453 0
-8089 1484 0
-8090 486 0
-8090 1515 0
-8091 512 0
-8091 513 0
-8092 513 0
-8092 757 0
-8093 520 0
-8093 565 0
-8094 556 0
-8094 800 0
-8095 570 0
-8095 1101 0
-8096 642 0
-8096 1022 0
-8097 655 0
-8097 1250 0
-8098 660 0
-8098 859 0
-8099 711 0
-8099 1146 0
-8100 720 0
-8100 805 0
-8101 720 0
-8101 955 0
-8102 744 0
-8102 1021 0
-8103 754 0
-8103 870 0
-8104 787 0
-8104 788 0
-8105 833 0
-8105 1103 0
-8106 943 0
-8106 1155 0
-8107 977 0
-8107 1188 0
-8108 1001 0
-8108 1007 0
-8109 1011 0
-8109 1022 0
-8110 1011 0
-8110 1120 0
-8111 1053 0
-8111 1071 0
-8112 1111 0
-8112 1156 0
-8113 1135 0
-8113 1141 0
-8114 1184 0
-8114 1267 0
-8115 1460 0
-8115 1494 0
6991 6995 7013 7015 7028 7045 7070 7155 7180 7214 7224 7269 7304 7403 7421 7448 7459 7477 7478 7481 7485 7487 7488 7489 7513 7527 7585 7593 7605 7755 7758 7762 7800 7811 7882 7943 7953 7995 8030 8042 8043 8044 8045 8046 8047 8048 8049 8050 8051 8052 8053 8054 8055 8056 8057 8058 8059 8060 8061 8062 8063 8064 8065 8066 8067 8068 8069 8070 8071 8072 8073 8074 8075 8076 8077 8078 8079 8080 8081 8082 8083 8084 8085 8086 8087 8088 8089 8090 8091 8092 8093 8094 8095 8096 8097 8098 8099 8100 8101 8102 8103 8104 8105 8106 8107 8108 8109 8110 8111 8112 8113 8114 8115 0
-8116 2 0
-8116 597 0
-8117 12 0
-8117 803 0
-8118 37 0
-8118 700 0
-8119 41 0
-8119 987 0
-8120 80 0
-8120 1032 0
-8121 80 0
-8121 1253 0
-8122 95 0
-8122 1124 0
-8123 118 0
-8123 750 0
-8124 133 0
-8124 1183 0
-8125 136 0
-8125 810 0
-8126 138 0
-8126 965 0
-8127 139 0
-8127 1170 0
-8128 169 0
-8128 574 0
-8129 175 0
-8129 1217 0
-8130 205 0
-8130 616 0
-8131 205 0
-8131 1267 0
-8132 213 0
-8132 1327 0
-8133 216 0
-8133 788 0
-8134 229 0
-8134 1001 0
-8135 252 0
-8135 1201 0
-8136 300 0
-8136 1035 0
-8137 302 0
-8137 1120 0
-8138 315 0
-8138 1244 0
-8139 340 0
-8139 1053 0
-8140 468 0
-8140 1515 0
-8141 496 0
-8141 520 0
-8142 542 0
-8142 925 0
-8143 581 0
-8143 908 0
-8144 610 0
-8144 1266 0
-8145 647 0
-8145 1300 0
-8146 660 0
-8146 1242 0
-8147 744 0
-8147 1022 0
-8148 810 0
-8148 932 0
-8149 817 0
-8149 818 0
-8150 941 0
-8150 1153 0
-8151 977 0
-8151 1157 0
-8152 977 0
-8152 1384 0
-8153 995 0
-8153 1267 0
-8154 1091 0
-8154 1092 0
-8155 1106 0
-8155 1111 0
-8156 1123 0
-8156 1124 0
-8157 1140 0
-8157 1289 0
-8158 1183 0
-8158 1213 0
-8159 1186 0
-8159 1207 0
-8160 1208 0
-8160 1438 0
-8161 1482 0
-8161 1562 0
6991 6995 7013 7028 7037 7101 7138 7222 7224 7269 7392 7394 7403 7421 7446 7448 7459 7478 7480 7483 7487 7488 7489 7503 7505 7585 7593 7632 7634 7779 7813 7832 7882 7941 7965 7987 7995 8022 8023 8053 8056 8057 8060 8063 8064 8065 8066 8067 8068 8069 8070 8077 8078 8079 8080 8081 8082 8083 8084 8089 8091 8092 8100 8101 8105 8113 8116 8117 8118 8119 8120 8121 8122 8123 8124 8125 8126 8127 8128 8129 8130 8131 8132 8133 8134 8135 8136 8137 8138 8139 8140 8141 8142 8143 8144 8145 8146 8147 8148 8149 8150 8151 8152 8153 8154 8155 8156 8157 8158 8159 8160 8161 0
-8162 733 0
-8162 921 0
-8163 908 0
-8163 1163 0
6991 6995 7013 7015 7028 7037 7101 7222 7224 7269 7392 7394 7403 7421 7446 7448 7459 7472 7478 7480 7483 7487 7488 7489 7503 7505 7582 7585 7593 7632 7634 7779 7813 7832 7882 7941 7965 7987 7995 8022 8023 8053 8056 8057 8060 8063 8064 8065 8066 8068 8069 8070 8077 8078 8079 8080 8081 8082 8083 8084 8089 8091 8092 8100 8101 8105 8113 8116 8117 8118 8119 8120 8121 8123 8124 8125 8126 8127 8128 8129 8130 8131 8132 8133 8134 8135 8136 8137 8138 8139 8140 8141 8142 8144 8145 8146 8147 8148 8149 8150 8152 8153 8154 8155 8157 8158 8159 8160 8161 8162 8163 0
1432 1392 660 711 1114 1170 804 1157 754 1022 1124 955 700 1032 1155 870 795 1267 810 904 512 805 925 664 1270 1156 1067 803 1053 1183 1243 1431 1438 496 588 1017 1399 985 1035 643 872 757 1198 1125 1420 818 1001 1201 1253 1040 856 1163 596 1148 1098 1202 1154 921 654 1153 1516 947 546 1207 867 1008 1217 868 987 970 1025 0
-8164 66 0
-8164 514 0
-8165 138 0
-8165 750 0
-8166 139 0
-8166 1011 0
-8167 175 0
-8167 1007 0
-8168 205 0
-8168 1270 0
-8169 215 0
-8169 520 0
-8170 643 0
-8170 731 0
-8171 652 0
-8171 1300 0
-8172 680 0
-8172 1101 0
-8173 803 0
-8173 1074 0
-8174 1170 0
-8174 1222 0
-8175 1384 0
-8175 1432 0
6991 7012 7013 7015 7028 7138 7242 7448 7459 7477 7478 7480 7513 7585 7593 7632 7965 8045 8056 8060 8061 8063 8064 8071 8073 8075 8091 8092 8099 8100 8101 8111 8112 8118 8120 8121 8131 8136 8146 8151 8158 8164 8165 8166 8167 8168 8169 8170 8171 8172 8173 8174 8175 0
-8176 315 0
-8176 548 0
-8177 315 0
-8177 599 0
-8178 315 0
-8178 634 0
-8179 315 0
-8179 653 0
-8180 315 0
-8180 676 0
-8181 315 0
-8181 1242 0
-8182 375 0
-8182 1500 0
-8183 407 0
-8183 1597 0
-8184 408 0
-8184 1495 0
-8185 422 0
-8185 1598 0
-8186 444 0
-8186 1566 0
-8187 1516 0
-8187 1518 0
7333 7337 7964 8176 8177 8178 8179 8180 8181 8182 8183 8184 8185 8186 8187 0
1495 1500 1498 1600 1601 0
-8188 15 0
-8188 1227 0
-8189 25 0
-8189 1344 0
-8190 35 0
-8190 782 0
-8191 50 0
-8191 829 0
-8192 57 0
-8192 751 0
-8193 60 0
-8193 495 0
-8194 76 0
-8194 836 0
-8195 76 0
-8195 1345 0
-8196 77 0
-8196 836 0
-8197 77 0
-8197 886 0
-8198 80 0
-8198 1197 0
-8199 80 0
-8199 1219 0
-8200 82 0
-8200 1295 0
-8201 112 0
-8201 1118 0
-8202 113 0
-8202 992 0
-8203 125 0
-8203 945 0
-8204 153 0
-8204 595 0
-8205 173 0
-8205 641 0
-8206 188 0
-8206 787 0
-8207 204 0
-8207 727 0
-8208 289 0
-8208 512 0
-8209 290 0
-8209 988 0
-8210 297 0
-8210 799 0
-8211 310 0
-8211 601 0
-8212 310 0
-8212 1047 0
-8213 311 0
-8213 808 0
-8214 314 0
-8214 592 0
-8215 326 0
-8215 571 0
-8216 326 0
-8216 864 0
-8217 328 0
-8217 688 0
-8218 328 0
-8218 720 0
-8219 342 0
-8219 1255 0
-8220 344 0
-8220 589 0
-8221 344 0
-8221 1175 0
-8222 352 0
-8222 982 0
-8223 354 0
-8223 949 0
-8224 356 0
-8224 998 0
-8225 367 0
-8225 993 0
-8226 382 0
-8226 1453 0
-8227 382 0
-8227 1457 0
-8228 385 0
-8228 1490 0
-8229 389 0
-8229 1486 0
-8230 403 0
-8230 1460 0
-8231 406 0
-8231 1471 0
-8232 412 0
-8232 1554 0
-8233 437 0
-8233 1567 0
-8234 440 0
-8234 1479 0
-8235 441 0
-8235 1489 0
-8236 451 0
-8236 1579 0
-8237 510 0
-8237 697 0
-8238 516 0
-8238 533 0
-8239 518 0
-8239 773 0
-8240 538 0
-8240 904 0
-8241 543 0
-8241 945 0
-8242 564 0
-8242 787 0
-8243 606 0
-8243 999 0
-8244 666 0
-8244 1286 0
-8245 670 0
-8245 671 0
-8246 716 0
-8246 1029 0
-8247 778 0
-8247 782 0
-8248 886 0
-8248 1424 0
-8249 894 0
-8249 1065 0
-8250 1071 0
-8250 1237 0
-8251 1281 0
-8251 1364 0
-8252 1451 0
-8252 1452 0
7059 7071 7107 7115 7116 7135 7147 7192 7216 7241 7249 7361 7368 7369 7370 7371 7487 7490 7525 7576 7584 7768 7779 7910 7911 7995 8057 8076 8101 8137 8173 8188 8189 8190 8191 8192 8193 8194 8195 8196 8197 8198 8199 8200 8201 8202 8203 8204 8205 8206 8207 8208 8209 8210 8211 8212 8213 8214 8215 8216 8217 8218 8219 8220 8221 8222 8223 8224 8225 8226 8227 8228 8229 8230 8231 8232 8233 8234 8235 8236 8237 8238 8239 8240 8241 8242 8243 8244 8245 8246 8247 8248 8249 8250 8251 8252 0
-8253 35 0
-8253 886 0
-8254 125 0
-8254 839 0
-8255 126 0
-8255 952 0
-8256 146 0
-8256 751 0
-8257 146 0
-8257 888 0
-8258 147 0
-8258 836 0
-8259 147 0
-8259 1345 0
-8260 150 0
-8260 641 0
-8261 165 0
-8261 543 0
-8262 302 0
-8262 803 0
-8263 314 0
-8263 670 0
-8264 328 0
-8264 727 0
-8265 344 0
-8265 1222 0
-8266 344 0
-8266 1236 0
-8267 348 0
-8267 1286 0
-8268 488 0
-8268 1579 0
-8269 592 0
-8269 667 0
-8270 601 0
-8270 662 0
-8271 645 0
-8271 1281 0
-8272 674 0
-8272 1264 0
-8273 705 0
-8273 955 0
-8274 715 0
-8274 778 0
-8275 717 0
-8275 1308 0
-8276 787 0
-8276 871 0
-8277 1138 0
-8277 1202 0
-8278 1278 0
-8278 1281 0
-8279 1280 0
-8279 1281 0
-8280 1282 0
-8280 1299 0
-8281 1482 0
-8281 1494 0
7107 7109 7115 7116 7155 7192 7249 7262 7361 7368 7369 7370 7371 7487 7525 7527 7576 7768 7779 7896 7910 7911 7950 7995 8076 8124 8137 8188 8189 8190 8191 8193 8198 8199 8200 8201 8202 8203 8204 8209 8210 8212 8213 8214 8215 8216 8218 8219 8220 8221 8222 8223 8224 8225 8226 8228 8229 8231 8232 8233 8234 8237 8239 8240 8243 8246 8249 8250 8252 8253 8254 8255 8256 8257 8258 8259 8260 8261 8262 8263 8264 8265 8266 8267 8268 8269 8270 8271 8272 8273 8274 8275 8276 8277 8278 8279 8280 8281 0
-8282 158 0
-8282 510 0
7071 7107 7115 7116 7155 7190 7192 7249 7262 7282 7361 7368 7369 7370 7371 7525 7527 7576 7768 7779 7896 7910 7911 7950 7995 8076 8124 8137 8173 8188 8189 8190 8191 8193 8198 8199 8200 8201 8202 8203 8204 8209 8210 8211 8212 8213 8214 8215 8218 8219 8220 8221 8222 8223 8224 8225 8226 8228 8229 8231 8232 8233 8234 8239 8240 8243 8244 8246 8249 8250 8251 8252 8253 8254 8255 8256 8257 8258 8259 8260 8261 8263 8264 8265 8266 8268 8269 8272 8273 8274 8275 8276 8277 8280 8282 0
1227 1197 1237 518 711 1219 595 782 1345 1308 1202 538 1183 1344 1175 848 886 894 945 836 1255 1236 829 803 799 1489 589 609 641 1025 1295 560 495 727 512 688 877 1299 1118 708 733 1286 1320 998 601 1280 982 993 999 751 0
-8283 114 0
-8283 986 0
-8284 114 0
-8284 1181 0
-8285 150 0
-8285 518 0
-8286 173 0
-8286 1227 0
-8287 495 0
-8287 519 0
7508 7730 8057 8124 8189 8190 8191 8192 8194 8196 8197 8198 8199 8201 8203 8205 8208 8249 8250 8254 8259 8261 8267 8269 8283 8284 8285 8286 8287 0
-8288 36 0
-8288 1263 0
-8289 80 0
-8289 654 0
-8290 87 0
-8290 778 0
-8291 114 0
-8291 829 0
-8292 495 0
-8292 512 0
-8293 1183 0
-8293 1250 0
-8294 1344 0
-8294 1349 0
7584 8190 8194 8196 8197 8201 8203 8205 8240 8249 8250 8256 8259 8261 8267 8274 8277 8283 8284 8285 8286 8287 8288 8289 8290 8291 8292 8293 8294 0
981 641 654 889 1286 1118 836 1237 538 1263 782 848 1202 1344 1183 945 495 751 871 886 778 1227 0
-8295 13 0
-8295 757 0
-8296 17 0
-8296 577 0
-8297 20 0
-8297 1290 0
-8298 41 0
-8298 749 0
-8299 54 0
-8299 749 0
-8300 134 0
-8300 932 0
-8301 142 0
-8301 886 0
-8302 142 0
-8302 1395 0
-8303 145 0
-8303 1263 0
-8304 166 0
-8304 581 0
-8305 180 0
-8305 707 0
-8306 180 0
-8306 782 0
-8307 182 0
-8307 888 0
-8308 217 0
-8308 1381 0
-8309 225 0
-8309 1153 0
-8310 228 0
-8310 1003 0
-8311 234 0
-8311 1125 0
-8312 244 0
-8312 1003 0
-8313 257 0
-8313 1081 0
-8314 263 0
-8314 1040 0
-8315 280 0
-8315 1018 0
-8316 292 0
-8316 795 0
-8317 293 0
-8317 928 0
-8318 306 0
-8318 1412 0
-8319 310 0
-8319 1048 0
-8320 311 0
-8320 986 0
-8321 313 0
-8321 992 0
-8322 352 0
-8322 1064 0
-8323 353 0
-8323 1045 0
-8324 409 0
-8324 1591 0
-8325 450 0
-8325 1475 0
-8326 450 0
-8326 1579 0
-8327 567 0
-8327 574 0
-8328 577 0
-8328 585 0
-8329 601 0
-8329 602 0
-8330 703 0
-8330 704 0
-8331 715 0
-8331 930 0
-8332 732 0
-8332 923 0
-8333 839 0
-8333 848 0
-8334 1014 0
-8334 1109 0
-8335 1048 0
-8335 1261 0
-8336 1093 0
-8336 1145 0
6990 6991 6992 6995 6996 6998 6999 7003 7006 7011 7014 7018 7021 7022 7027 7028 7037 7040 7044 7045 7047 7061 7062 7072 7073 7075 7077 7085 7110 7141 7164 7175 7215 7334 7393 7430 7450 7462 7463 7464 7465 7466 7467 7468 7470 7472 7475 7476 7484 7487 7490 7495 7500 7503 7511 7521 7526 7537 7552 7554 7555 7559 7584 7653 7659 7768 7796 8081 8083 8108 8208 8224 8295 8296 8297 8298 8299 8300 8301 8302 8303 8304 8305 8306 8307 8308 8309 8310 8311 8312 8313 8314 8315 8316 8317 8318 8319 8320 8321 8322 8323 8324 8325 8326 8327 8328 8329 8330 8331 8332 8333 8334 8335 8336 0
-8337 178 0
-8337 972 0
-8338 242 0
-8338 1064 0
-8339 244 0
-8339 1001 0
-8340 263 0
-8340 1003 0
-8341 268 0
-8341 704 0
-8342 317 0
-8342 704 0
-8343 346 0
-8343 1003 0
-8344 352 0
-8344 1060 0
-8345 353 0
-8345 1040 0
-8346 441 0
-8346 1591 0
-8347 588 0
-8347 1125 0
-8348 749 0
-8348 892 0
-8349 754 0
-8349 1381 0
-8350 802 0
-8350 1221 0
-8351 853 0
-8351 920 0
-8352 987 0
-8352 1064 0
-8353 1065 0
-8353 1067 0
-8354 1412 0
-8354 1417 0
6990 6991 6992 6994 6995 6996 6997 6998 7003 7009 7011 7014 7018 7021 7022 7023 7027 7028 7037 7040 7045 7047 7061 7062 7072 7075 7077 7085 7110 7119 7132 7145 7161 7170 7175 7215 7334 7430 7450 7462 7463 7464 7465 7466 7467 7468 7472 7473 7474 7475 7476 7484 7486 7488 7490 7495 7503 7521 7526 7528 7537 7548 7552 7554 7584 7659 7768 7893 8012 8083 8134 8208 8295 8296 8297 8301 8302 8303 8306 8307 8309 8315 8317 8320 8321 8323 8325 8326 8328 8329 8331 8333 8334 8336 8337 8338 8339 8340 8341 8342 8343 8344 8345 8346 8347 8348 8349 8350 8351 8352 8353 8354 0
-8355 25 0
-8355 950 0
-8356 44 0
-8356 986 0
-8357 64 0
-8357 1263 0
-8358 86 0
-8358 1162 0
-8359 179 0
-8359 1292 0
-8360 261 0
-8360 577 0
-8361 330 0
-8361 704 0
-8362 368 0
-8362 1182 0
-8363 521 0
-8363 524 0
-8364 643 0
-8364 647 0
-8365 651 0
-8365 652 0
-8366 698 0
-8366 950 0
-8367 804 0
-8367 829 0
-8368 810 0
-8368 814 0
-8369 871 0
-8369 1040 0
-8370 988 0
-8370 998 0
-8371 1155 0
-8371 1162 0
-8372 1575 0
-8372 1591 0
6990 6991 6995 6996 6998 7003 7006 7011 7014 7021 7022 7023 7033 7040 7044 7045 7061 7062 7064 7065 7072 7075 7076 7077 7110 7111 7121 7138 7141 7145 7170 7175 7334 7430 7450 7460 7462 7463 7464 7465 7466 7467 7468 7470 7474 7475 7476 7483 7485 7486 7487 7490 7497 7528 7531 7537 7539 7543 7552 7554 7555 7584 7659 7762 7768 8012 8081 8082 8083 8134 8170 8208 8295 8297 8298 8299 8301 8306 8307 8309 8314 8315 8321 8323 8325 8326 8327 8329 8333 8334 8338 8339 8344 8349 8350 8355 8356 8357 8358 8359 8360 8361 8362 8363 8364 8365 8366 8367 8368 8369 8370 8371 8372 0
542 888 709 1145 1004 941 1162 505 1399 963 753 1153 512 810 1064 1434 707 947 554 704 848 580 932 731 854 1003 577 1018 774 978 846 647 1221 829 1380 744 1263 1336 1085 950 1179 1591 1199 1272 1290 1048 930 674 1109 795 886 1050 985 1060 602 818 1081 1067 749 594 689 1413 757 1104 682 1045 939 574 560 1001 626 588 524 0
-8373 385 0
-8373 1485 0
-8374 428 0
-8374 1601 0
-8375 432 0
-8375 1599 0
-8376 488 0
-8376 1602 0
-8377 1486 0
-8377 1500 0
7102 7330 7337 7347 7573 7579 7709 8373 8374 8375 8376 8377 0
-8378 466 0
-8378 1568 0
-8379 484 0
-8379 1598 0
-8380 490 0
-8380 1563 0
-8381 1458 0
-8381 1502 0
-8382 1473 0
-8382 1502 0
-8383 1487 0
-8383 1502 0
-8384 1488 0
-8384 1502 0
7696 7770 8182 8375 8378 8379 8380 8381 8382 8383 8384 0
-8385 378 0
-8385 1502 0
7696 7770 8182 8375 8378 8379 8380 8385 0
1458 1599 1499 1473 1568 1598 1488 1487 1500 0
-8386 23 0
-8386 713 0
-8387 23 0
-8387 1314 0
-8388 41 0
-8388 961 0
-8389 109 0
-8389 793 0
-8390 109 0
-8390 1398 0
-8391 318 0
-8391 547 0
-8392 318 0
-8392 1284 0
-8393 318 0
-8393 1286 0
-8394 961 0
-8394 962 0
-8395 1332 0
-8395 1333 0
-8396 1395 0
-8396 1396 0
-8397 1457 0
-8397 1517 0
6994 6995 6996 7180 7331 7344 7446 7745 7822 7855 7859 8178 8373 8376 8379 8386 8387 8388 8389 8390 8391 8392 8393 8394 8395 8396 8397 0
-8398 318 0
-8398 624 0
-8399 383 0
-8399 1488 0
-8400 411 0
-8400 1468 0
-8401 414 0
-8401 1486 0
-8402 424 0
-8402 1597 0
-8403 442 0
-8403 1473 0
-8404 486 0
-8404 1511 0
-8405 1477 0
-8405 1500 0
-8406 1483 0
-8406 1500 0
7090 7260 7334 7562 7563 7565 7566 7567 7770 7861 7960 7961 7963 7964 8185 8398 8399 8400 8401 8402 8403 8404 8405 8406 0
7090 7260 7334 7562 7563 7565 7566 7567 7708 7770 7861 7960 7961 7963 7964 8185 8398 8399 8400 8401 8402 8403 8404 0
1486 1498 1598 1477 1483 1468 1518 1520 0
-8407 10 0
-8407 1123 0
-8408 30 0
-8408 1080 0
-8409 120 0
-8409 1429 0
-8410 131 0
-8410 598 0
-8411 131 0
-8411 995 0
-8412 131 0
-8412 1039 0
-8413 138 0
-8413 784 0
-8414 155 0
-8414 521 0
-8415 155 0
-8415 559 0
-8416 160 0
-8416 550 0
-8417 217 0
-8417 613 0
-8418 219 0
-8418 739 0
-8419 221 0
-8419 863 0
-8420 221 0
-8420 868 0
-8421 245 0
-8421 1207 0
-8422 347 0
-8422 727 0
-8423 356 0
-8423 955 0
-8424 382 0
-8424 1461 0
-8425 388 0
-8425 1461 0
-8426 499 0
-8426 663 0
-8427 531 0
-8427 541 0
-8428 536 0
-8428 895 0
-8429 623 0
-8429 1282 0
-8430 641 0
-8430 1046 0
-8431 673 0
-8431 1227 0
-8432 698 0
-8432 1333 0
-8433 705 0
-8433 1215 0
-8434 717 0
-8434 1331 0
-8435 889 0
-8435 1109 0
-8436 893 0
-8436 964 0
-8437 905 0
-8437 1015 0
-8438 1016 0
-8438 1027 0
-8439 1053 0
-8439 1219 0
-8440 1105 0
-8440 1209 0
-8441 1161 0
-8441 1203 0
-8442 1484 0
-8442 1578 0
7029 7053 7179 7180 7191 7198 7204 7206 7209 7212 7214 7222 7223 7224 7230 7231 7246 7247 7248 7249 7273 7282 7286 7294 7305 7318 7334 7364 7365 7395 7398 7405 7406 7408 7409 7474 7608 7609 7610 7768 7789 7800 7877 7880 7884 7888 7890 7898 7902 7924 7929 7940 7941 7953 7987 7988 7995 8271 8407 8408 8409 8410 8411 8412 8413 8414 8415 8416 8417 8418 8419 8420 8421 8422 8423 8424 8425 8426 8427 8428 8429 8430 8431 8432 8433 8434 8435 8436 8437 8438 8439 8440 8441 8442 0
-8443 384 0
-8443 1592 0
-8444 454 0
-8444 1557 0
-8445 461 0
-8445 1531 0
-8446 462 0
-8446 1459 0
-8447 477 0
-8447 1541 0
-8448 1472 0
-8448 1476 0
-8449 1474 0
-8449 1478 0
7094 7334 7342 7826 8443 8444 8445 8446 8447 8448 8449 0
1459 1512 1472 1478 1457 1592 1531 573 0
-8450 30 0
-8450 1402 0
-8451 108 0
-8451 1379 0
-8452 117 0
-8452 710 0
-8453 133 0
-8453 1105 0
-8454 133 0
-8454 1207 0
-8455 206 0
-8455 502 0
-8456 206 0
-8456 662 0
-8457 289 0
-8457 690 0
-8458 291 0
-8458 682 0
-8459 333 0
-8459 1114 0
-8460 351 0
-8460 1025 0
-8461 524 0
-8461 831 0
-8462 529 0
-8462 868 0
-8463 530 0
-8463 870 0
-8464 534 0
-8464 888 0
-8465 571 0
-8465 1109 0
-8466 654 0
-8466 1263 0
-8467 682 0
-8467 706 0
-8468 698 0
-8468 939 0
-8469 1094 0
-8469 1095 0
-8470 1162 0
-8470 1163 0
-8471 1374 0
-8471 1402 0
6990 6991 6997 6998 7003 7005 7010 7020 7021 7023 7029 7045 7062 7064 7065 7082 7116 7117 7124 7132 7145 7162 7163 7170 7215 7263 7393 7394 7430 7450 7451 7452 7454 7456 7459 7460 7462 7463 7464 7466 7467 7468 7483 7489 7499 7508 7512 7520 7528 7531 7543 7557 7593 7604 7645 7757 7882 8057 8064 8170 8208 8248 8295 8308 8313 8317 8318 8355 8364 8450 8451 8452 8453 8454 8455 8456 8457 8458 8459 8460 8461 8462 8463 8464 8465 8466 8467 8468 8469 8470 8471 0
-8472 117 0
-8472 690 0
-8473 133 0
-8473 584 0
-8474 157 0
-8474 502 0
-8475 220 0
-8475 907 0
-8476 366 0
-8476 1277 0
-8477 534 0
-8477 751 0
-8478 642 0
-8478 1256 0
-8479 701 0
-8479 926 0
-8480 818 0
-8480 1334 0
-8481 1158 0
-8481 1223 0
6990 6991 6997 6999 7003 7005 7020 7023 7045 7047 7062 7116 7117 7121 7124 7125 7158 7171 7215 7263 7393 7394 7430 7446 7451 7452 7454 7456 7459 7462 7463 7464 7465 7466 7467 7468 7483 7489 7518 7520 7521 7528 7530 7531 7543 7544 7545 7581 7584 7593 7644 7645 7750 7808 7882 8057 8064 8091 8154 8208 8248 8317 8318 8333 8340 8349 8355 8358 8451 8452 8453 8454 8456 8458 8459 8460 8461 8462 8463 8465 8466 8467 8468 8472 8473 8474 8475 8476 8477 8478 8479 8480 8481 0
-8482 84 0
-8482 1158 0
-8483 141 0
-8483 1158 0
-8484 221 0
-8484 870 0
-8485 512 0
-8485 522 0
-8486 643 0
-8486 1246 0
-8487 976 0
-8487 1158 0
6990 6991 6997 7003 7005 7020 7023 7029 7045 7047 7062 7104 7116 7117 7124 7132 7145 7158 7162 7170 7171 7215 7263 7393 7394 7430 7446 7452 7454 7458 7459 7462 7463 7464 7465 7466 7467 7468 7481 7483 7489 7512 7518 7520 7521 7530 7531 7543 7545 7584 7593 7645 7757 7808 7882 8057 8064 8248 8313 8317 8318 8333 8340 8349 8355 8358 8451 8452 8453 8454 8456 8458 8459 8460 8462 8465 8466 8467 8468 8472 8473 8474 8475 8478 8479 8480 8482 8483 8484 8485 8486 8487 0
799 1067 1402 955 1431 512 941 647 542 950 594 846 1099 1025 505 1336 1199 963 1003 502 524 1081 1256 1379 1424 731 795 829 707 978 892 1413 1109 1077 1162 757 682 1004 848 888 1145 616 554 810 1094 662 1399 1277 809 1179 749 1008 654 1221 710 1105 811 947 1158 0
-8488 11 0
-8488 830 0
-8489 140 0
-8489 955 0
-8490 143 0
-8490 1379 0
-8491 268 0
-8491 721 0
-8492 623 0
-8492 1194 0
-8493 682 0
-8493 705 0
6990 6991 6992 6997 6998 7003 7005 7006 7020 7021 7022 7024 7027 7061 7062 7105 7111 7125 7128 7138 7145 7163 7215 7372 7379 7393 7394 7430 7446 7450 7451 7452 7453 7454 7455 7456 7458 7459 7483 7499 7512 7516 7521 7527 7528 7537 7593 7757 7808 8248 8305 8340 8358 8364 8452 8456 8466 8472 8474 8480 8488 8489 8490 8491 8492 8493 0
-8494 383 0
-8494 1456 0
-8495 393 0
-8495 1489 0
-8496 396 0
-8496 1468 0
-8497 397 0
-8497 1483 0
-8498 399 0
-8498 1467 0
-8499 399 0
-8499 1524 0
-8500 483 0
-8500 1461 0
-8501 488 0
-8501 1490 0
-8502 1478 0
-8502 1504 0
-8503 1534 0
-8503 1555 0
7103 7129 7176 7334 7913 8373 8399 8494 8495 8496 8497 8498 8499 8500 8501 8502 8503 0
-8504 483 0
-8504 1555 0
-8505 1484 0
-8505 1485 0
7103 7129 7176 7334 7913 8399 8494 8498 8499 8500 8501 8504 8505 0
1461 1490 1471 1524 1456 1485 1454 1534 1488 1477 1467 573 1475 0
-8506 285 0
-8506 1449 0
-8507 384 0
-8507 1486 0
-8508 480 0
-8508 1592 0
-8509 597 0
-8509 1148 0
-8510 663 0
-8510 1148 0
-8511 743 0
-8511 1148 0
-8512 769 0
-8512 1148 0
-8513 1146 0
-8513 1148 0
-8514 1479 0
-8514 1494 0
7102 7260 7332 7337 7573 7575 8115 8281 8373 8449 8506 8507 8508 8509 8510 8511 8512 8513 8514 0
7102 7260 7332 7337 7573 7575 7855 8373 8449 8507 8508 0
-8515 404 0
-8515 1485 0
-8516 409 0
-8516 1592 0
-8517 1520 0
-8517 1597 0
-8518 1591 0
-8518 1602 0
7259 7330 7336 7858 7960 8182 8449 8515 8516 8517 8518 0
1498 1597 1494 1493 1592 1591 0
-8519 24 0
-8519 973 0
-8520 24 0
-8520 1321 0
-8521 24 0
-8521 1337 0
-8522 26 0
-8522 1426 0
-8523 33 0
-8523 682 0
-8524 67 0
-8524 1247 0
-8525 83 0
-8525 771 0
-8526 85 0
-8526 524 0
-8527 126 0
-8527 815 0
-8528 158 0
-8528 658 0
-8529 171 0
-8529 523 0
-8530 171 0
-8530 576 0
-8531 184 0
-8531 821 0
-8532 214 0
-8532 1099 0
-8533 227 0
-8533 1441 0
-8534 241 0
-8534 1447 0
-8535 244 0
-8535 684 0
-8536 275 0
-8536 609 0
-8537 286 0
-8537 1228 0
-8538 319 0
-8538 1181 0
-8539 328 0
-8539 510 0
-8540 328 0
-8540 679 0
-8541 328 0
-8541 705 0
-8542 341 0
-8542 1194 0
-8543 343 0
-8543 1073 0
-8544 344 0
-8544 930 0
-8545 344 0
-8545 1235 0
-8546 349 0
-8546 867 0
-8547 351 0
-8547 571 0
-8548 356 0
-8548 1085 0
-8549 404 0
-8549 1476 0
-8550 479 0
-8550 1534 0
-8551 499 0
-8551 597 0
-8552 541 0
-8552 542 0
-8553 542 0
-8553 865 0
-8554 542 0
-8554 924 0
-8555 577 0
-8555 578 0
-8556 578 0
-8556 586 0
-8557 590 0
-8557 1201 0
-8558 607 0
-8558 1144 0
-8559 626 0
-8559 1284 0
-8560 673 0
-8560 1304 0
-8561 706 0
-8561 707 0
-8562 761 0
-8562 1073 0
-8563 807 0
-8563 1401 0
-8564 811 0
-8564 949 0
-8565 834 0
-8565 887 0
-8566 861 0
-8566 867 0
-8567 1007 0
-8567 1009 0
-8568 1039 0
-8568 1211 0
-8569 1046 0
-8569 1239 0
-8570 1186 0
-8570 1196 0
-8571 1215 0
-8571 1296 0
-8572 1315 0
-8572 1378 0
-8573 1472 0
-8573 1498 0
7039 7043 7066 7107 7146 7172 7341 7385 7395 7422 7439 7491 7619 7620 7622 7623 7633 7646 7653 7654 7731 7733 7779 7802 7804 8000 8029 8142 8217 8218 8220 8221 8265 8283 8519 8520 8521 8522 8523 8524 8525 8526 8527 8528 8529 8530 8531 8532 8533 8534 8535 8536 8537 8538 8539 8540 8541 8542 8543 8544 8545 8546 8547 8548 8549 8550 8551 8552 8553 8554 8555 8556 8557 8558 8559 8560 8561 8562 8563 8564 8565 8566 8567 8568 8569 8570 8571 8572 8573 0
-8574 16 0
-8574 821 0
-8575 24 0
-8575 1378 0
-8576 44 0
-8576 1057 0
-8577 55 0
-8577 1009 0
-8578 99 0
-8578 1023 0
-8579 135 0
-8579 1247 0
-8580 149 0
-8580 523 0
-8581 168 0
-8581 582 0
-8582 201 0
-8582 523 0
-8583 207 0
-8583 747 0
-8584 209 0
-8584 666 0
-8585 295 0
-8585 1154 0
-8586 351 0
-8586 578 0
-8587 404 0
-8587 1498 0
-8588 499 0
-8588 646 0
-8589 606 0
-8589 607 0
-8590 943 0
-8590 944 0
-8591 1217 0
-8591 1218 0
7036 7039 7042 7043 7066 7068 7084 7146 7147 7148 7341 7384 7385 7439 7491 7595 7619 7620 7622 7623 7646 7653 7654 7731 7784 7805 8000 8029 8217 8218 8221 8264 8265 8283 8476 8519 8520 8521 8522 8523 8525 8526 8528 8530 8532 8534 8535 8536 8537 8538 8539 8540 8541 8542 8544 8545 8546 8547 8548 8549 8550 8551 8561 8565 8566 8568 8574 8575 8576 8577 8578 8579 8580 8581 8582 8583 8584 8585 8586 8587 8588 8589 8590 8591 0
-8592 156 0
-8592 607 0
-8593 286 0
-8593 1447 0
-8594 288 0
-8594 1239 0
-8595 341 0
-8595 1180 0
-8596 363 0
-8596 1094 0
-8597 666 0
-8597 1284 0
-8598 673 0
-8598 1053 0
-8599 789 0
-8599 1394 0
-8600 834 0
-8600 1321 0
-8601 1089 0
-8601 1228 0
-8602 1321 0
-8602 1341 0
7039 7043 7066 7067 7068 7084 7146 7148 7172 7191 7341 7385 7491 7619 7620 7622 7623 7633 7646 7653 7654 7687 7731 7733 7802 8038 8142 8217 8218 8221 8264 8265 8283 8519 8521 8522 8523 8524 8525 8526 8527 8528 8529 8530 8533 8535 8536 8538 8539 8540 8541 8542 8543 8544 8545 8546 8547 8548 8549 8550 8552 8553 8554 8555 8556 8561 8562 8564 8565 8566 8570 8574 8575 8577 8578 8581 8585 8587 8590 8592 8593 8594 8595 8596 8597 8598 8599 8600 8601 8602 0
-8603 78 0
-8603 658 0
-8604 135 0
-8604 1007 0
-8605 192 0
-8605 766 0
-8606 349 0
-8606 1174 0
-8607 582 0
-8607 589 0
-8608 587 0
-8608 1175 0
-8609 794 0
-8609 973 0
-8610 833 0
-8610 842 0
-8611 1200 0
-8611 1447 0
7023 7039 7042 7043 7066 7067 7107 7146 7147 7341 7384 7385 7395 7422 7491 7595 7619 7620 7622 7623 7646 7653 7654 7687 7731 7733 7779 7844 7848 7920 8082 8217 8218 8283 8476 8520 8521 8522 8523 8525 8526 8527 8529 8530 8531 8535 8536 8537 8538 8539 8540 8541 8542 8543 8545 8546 8547 8548 8549 8550 8551 8558 8560 8563 8565 8566 8568 8575 8579 8583 8584 8586 8587 8588 8591 8596 8603 8604 8605 8606 8607 8608 8609 8610 8611 0
834 576 1218 499 1180 682 867 523 1426 1194 1073 658 666 842 949 1247 1222 1441 1085 924 1498 821 1277 582 1476 577 524 1040 596 901 705 688 1093 1337 970 1007 1144 707 0
-8612 23 0
-8612 943 0
-8613 60 0
-8613 682 0
-8614 64 0
-8614 499 0
-8615 78 0
-8615 1073 0
-8616 130 0
-8616 706 0
-8617 149 0
-8617 524 0
-8618 184 0
-8618 523 0
-8619 499 0
-8619 576 0
-8620 760 0
-8620 1385 0
7439 7975 8021 8530 8531 8533 8542 8546 8558 8566 8567 8579 8584 8591 8603 8612 8613 8614 8615 8616 8617 8618 8619 8620 0
-8621 250 0
-8621 1208 0
-8622 275 0
-8622 1304 0
-8623 300 0
-8623 675 0
-8624 300 0
-8624 745 0
-8625 335 0
-8625 1438 0
-8626 339 0
-8626 1102 0
-8627 590 0
-8627 598 0
-8628 1009 0
-8628 1045 0
-8629 1022 0
-8629 1023 0
-8630 1186 0
-8630 1218 0
-8631 1385 0
-8631 1426 0
-8632 1396 0
-8632 1398 0
7039 7043 7066 7067 7146 7384 7595 7633 7653 7654 7725 7944 8082 8220 8221 8265 8523 8524 8526 8528 8530 8531 8532 8536 8542 8545 8546 8547 8555 8556 8559 8561 8566 8592 8595 8601 8611 8612 8615 8618 8621 8622 8623 8624 8625 8626 8627 8628 8629 8630 8631 8632 0
499 842 821 1396 1090 607 811 666 1394 640 524 867 995 1196 1208 658 1247 1194 576 523 745 1207 707 1180 1023 760 1441 682 1073 0
-8633 34 0
-8633 1011 0
-8634 34 0
-8634 1170 0
-8635 101 0
-8635 764 0
-8636 214 0
-8636 1280 0
-8637 277 0
-8637 1441 0
-8638 615 0
-8638 1254 0
-8639 723 0
-8639 1217 0
-8640 887 0
-8640 1398 0
-8641 1126 0
-8641 1137 0
7023 7384 8522 8523 8531 8542 8546 8558 8566 8579 8584 8604 8610 8614 8617 8618 8633 8634 8635 8636 8637 8638 8639 8640 8641 0
-8642 27 0
-8642 717 0
-8643 28 0
-8643 889 0
-8644 46 0
-8644 733 0
-8645 125 0
-8645 806 0
-8646 125 0
-8646 817 0
-8647 131 0
-8647 1023 0
-8648 149 0
-8648 521 0
-8649 165 0
-8649 541 0
-8650 200 0
-8650 663 0
-8651 210 0
-8651 550 0
-8652 225 0
-8652 1288 0
-8653 246 0
-8653 695 0
-8654 282 0
-8654 593 0
-8655 282 0
-8655 945 0
-8656 336 0
-8656 721 0
-8657 347 0
-8657 1001 0
-8658 564 0
-8658 1046 0
-8659 588 0
-8659 1205 0
-8660 613 0
-8660 614 0
-8661 735 0
-8661 1366 0
-8662 814 0
-8662 921 0
-8663 823 0
-8663 956 0
-8664 870 0
-8664 1420 0
-8665 933 0
-8665 1110 0
-8666 1003 0
-8666 1040 0
-8667 1045 0
-8667 1119 0
-8668 1100 0
-8668 1287 0
7014 7058 7076 7112 7182 7191 7196 7198 7204 7222 7224 7226 7273 7276 7289 7294 7364 7365 7396 7482 7608 7609 7610 7806 7871 7872 7880 7881 7884 7888 7891 7892 7895 7900 7903 7904 7905 7929 7932 7941 7944 7957 8254 8410 8411 8412 8413 8421 8431 8432 8439 8440 8642 8643 8644 8645 8646 8647 8648 8649 8650 8651 8652 8653 8654 8655 8656 8657 8658 8659 8660 8661 8662 8663 8664 8665 8666 8667 8668 0
715 641 1439 1267 1230 614 663 791 872 660 960 497 1359 956 1080 1109 1209 1184 1262 623 550 1227 946 1333 719 648 813 1108 1316 1287 1205 1356 809 1003 1119 1039 1033 945 1219 1345 0
-8669 40 0
-8669 1262 0
-8670 54 0
-8670 872 0
-8671 60 0
-8671 771 0
-8672 95 0
-8672 1028 0
-8673 129 0
-8673 1100 0
-8674 129 0
-8674 1119 0
-8675 138 0
-8675 749 0
-8676 141 0
-8676 593 0
-8677 208 0
-8677 1254 0
-8678 208 0
-8678 1295 0
-8679 237 0
-8679 1132 0
-8680 237 0
-8680 1282 0
-8681 237 0
-8681 1411 0
-8682 237 0
-8682 1439 0
-8683 246 0
-8683 814 0
-8684 287 0
-8684 1040 0
-8685 288 0
-8685 641 0
-8686 296 0
-8686 868 0
-8687 311 0
-8687 727 0
-8688 349 0
-8688 593 0
-8689 514 0
-8689 765 0
-8690 523 0
-8690 814 0
-8691 540 0
-8691 541 0
-8692 563 0
-8692 1053 0
-8693 568 0
-8693 1080 0
-8694 573 0
-8694 1120 0
-8695 587 0
-8695 667 0
-8696 606 0
-8696 835 0
-8697 657 0
-8697 660 0
-8698 660 0
-8698 1267 0
-8699 717 0
-8699 1344 0
-8700 834 0
-8700 1336 0
-8701 923 0
-8701 1110 0
-8702 976 0
-8702 978 0
-8703 1020 0
-8703 1024 0
-8704 1142 0
-8704 1177 0
-8705 1316 0
-8705 1347 0
-8706 1332 0
-8706 1336 0
-8707 1343 0
-8707 1344 0
7014 7029 7058 7107 7197 7198 7222 7223 7224 7294 7311 7321 7326 7364 7365 7398 7418 7419 7474 7475 7504 7564 7608 7609 7610 7620 7687 7746 7806 7822 7872 7877 7882 7888 7890 7892 7895 7899 7900 7901 7920 7922 7932 7939 7953 7956 7957 7987 7988 7995 8002 8022 8077 8078 8128 8284 8320 8391 8407 8410 8411 8412 8419 8431 8568 8598 8647 8648 8657 8669 8670 8671 8672 8673 8674 8675 8676 8677 8678 8679 8680 8681 8682 8683 8684 8685 8686 8687 8688 8689 8690 8691 8692 8693 8694 8695 8696 8697 8698 8699 8700 8701 8702 8703 8704 8705 8706 8707 0
-8708 162 0
-8708 624 0
-8709 225 0
-8709 1287 0
-8710 246 0
-8710 1110 0
-8711 357 0
-8711 1211 0
-8712 708 0
-8712 1185 0
-8713 716 0
-8713 978 0
-8714 831 0
-8714 1023 0
-8715 997 0
-8715 1276 0
6993 7029 7112 7197 7198 7204 7205 7212 7213 7214 7222 7294 7306 7311 7364 7365 7395 7396 7418 7419 7473 7474 7475 7608 7609 7610 7652 7683 7746 7789 7822 7872 7877 7880 7882 7888 7890 7894 7895 7899 7900 7901 7939 7940 7941 7944 7955 7956 7987 7988 7995 8078 8225 8284 8320 8391 8407 8410 8411 8412 8419 8420 8428 8431 8435 8439 8654 8658 8672 8675 8677 8678 8679 8680 8681 8682 8683 8689 8693 8703 8704 8705 8708 8709 8710 8711 8712 8713 8714 8715 0
-8716 10 0
-8716 568 0
-8717 45 0
-8717 1181 0
-8718 47 0
-8718 1267 0
-8719 149 0
-8719 526 0
-8720 509 0
-8720 510 0
-8721 614 0
-8721 663 0
-8722 624 0
-8722 780 0
-8723 667 0
-8723 1249 0
-8724 715 0
-8724 716 0
-8725 727 0
-8725 729 0
-8726 802 0
-8726 1276 0
-8727 1042 0
-8727 1049 0
7029 7107 7180 7191 7197 7205 7212 7214 7222 7223 7277 7294 7304 7321 7364 7365 7398 7419 7474 7475 7608 7609 7610 7620 7652 7779 7800 7822 7877 7880 7882 7888 7890 7894 7895 7900 7901 7903 7939 7940 7941 7944 7955 7956 7987 7988 7995 8078 8131 8220 8225 8320 8391 8407 8410 8411 8412 8419 8420 8428 8431 8435 8439 8578 8584 8607 8629 8648 8654 8658 8660 8672 8675 8677 8678 8679 8680 8681 8682 8683 8691 8694 8697 8701 8704 8709 8716 8717 8718 8719 8720 8721 8722 8723 8724 8725 8726 8727 0
-8728 208 0
-8728 1177 0
-8729 1104 0
-8729 1105 0
7029 7180 7191 7197 7198 7204 7205 7212 7213 7214 7222 7223 7277 7294 7304 7306 7364 7365 7396 7398 7419 7474 7608 7609 7610 7800 7822 7877 7880 7882 7888 7890 7894 7895 7899 7900 7901 7903 7920 7939 7940 7941 7955 7956 7957 7987 7988 7995 8077 8078 8225 8283 8284 8391 8407 8410 8411 8412 8419 8420 8430 8431 8435 8439 8578 8584 8629 8648 8654 8672 8675 8677 8678 8679 8680 8681 8682 8683 8691 8709 8710 8716 8719 8720 8722 8724 8725 8726 8727 8728 8729 0
1316 1287 593 1262 1282 1123 978 962 1205 1249 497 1267 1253 1439 623 1197 889 1105 526 614 791 1227 1028 538 1295 1106 666 657 1046 1219 872 1177 1023 1097 1411 989 1042 568 780 868 729 1039 1331 596 774 986 648 1076 1296 813 1025 749 1132 1185 0
-8730 40 0
-8730 570 0
-8731 40 0
-8731 1025 0
-8732 40 0
-8732 1315 0
-8733 84 0
-8733 1109 0
-8734 84 0
-8734 1337 0
-8735 97 0
-8735 813 0
-8736 152 0
-8736 564 0
-8737 172 0
-8737 650 0
-8738 188 0
-8738 744 0
-8739 192 0
-8739 772 0
-8740 203 0
-8740 564 0
-8741 207 0
-8741 955 0
-8742 207 0
-8742 1310 0
-8743 222 0
-8743 809 0
-8744 273 0
-8744 1099 0
-8745 279 0
-8745 636 0
-8746 325 0
-8746 1099 0
-8747 333 0
-8747 1117 0
-8748 351 0
-8748 799 0
-8749 359 0
-8749 1179 0
-8750 495 0
-8750 514 0
-8751 511 0
-8751 746 0
-8752 516 0
-8752 762 0
-8753 524 0
-8753 800 0
-8754 524 0
-8754 829 0
-8755 524 0
-8755 830 0
-8756 553 0
-8756 961 0
-8757 594 0
-8757 772 0
-8758 613 0
-8758 798 0
-8759 640 0
-8759 644 0
-8760 684 0
-8760 831 0
-8761 687 0
-8761 1326 0
-8762 811 0
-8762 1005 0
-8763 821 0
-8763 1130 0
-8764 942 0
-8764 1194 0
-8765 960 0
-8765 961 0
-8766 973 0
-8766 1205 0
-8767 979 0
-8767 1197 0
-8768 1001 0
-8768 1003 0
-8769 1002 0
-8769 1323 0
-8770 1222 0
-8770 1226 0
-8771 1226 0
-8771 1236 0
7022 7023 7024 7055 7107 7149 7169 7349 7353 7355 7361 7362 7366 7367 7368 7369 7370 7371 7372 7373 7378 7379 7382 7383 7384 7389 7390 7391 7392 7395 7401 7417 7418 7432 7436 7438 7443 7473 7483 7487 7488 7718 7723 7728 7729 7756 7757 7758 7760 7778 7779 7782 7786 7789 7799 7817 7832 7839 7844 7977 8043 8102 8151 8304 8351 8361 8363 8475 8481 8669 8730 8731 8732 8733 8734 8735 8736 8737 8738 8739 8740 8741 8742 8743 8744 8745 8746 8747 8748 8749 8750 8751 8752 8753 8754 8755 8756 8757 8758 8759 8760 8761 8762 8763 8764 8765 8766 8767 8768 8769 8770 8771 0
-8772 47 0
-8772 995 0
-8773 105 0
-8773 1385 0
-8774 165 0
-8774 542 0
-8775 207 0
-8775 772 0
-8776 228 0
-8776 802 0
-8777 232 0
-8777 687 0
-8778 248 0
-8778 1188 0
-8779 285 0
-8779 802 0
-8780 495 0
-8780 516 0
-8781 520 0
-8781 802 0
-8782 523 0
-8782 798 0
-8783 1021 0
-8783 1270 0
-8784 1094 0
-8784 1099 0
-8785 1117 0
-8785 1128 0
-8786 1140 0
-8786 1150 0
-8787 1380 0
-8787 1390 0
-8788 1382 0
-8788 1384 0
7022 7023 7024 7192 7334 7355 7361 7362 7366 7367 7368 7369 7370 7371 7372 7373 7377 7378 7381 7383 7384 7387 7389 7390 7391 7392 7401 7417 7418 7433 7438 7442 7475 7483 7488 7718 7720 7725 7728 7729 7750 7752 7755 7756 7757 7760 7789 7800 7839 7844 7851 7977 7983 7999 8102 8210 8330 8388 8647 8669 8730 8731 8732 8733 8734 8735 8736 8737 8738 8740 8741 8742 8743 8745 8749 8750 8751 8763 8764 8767 8768 8769 8772 8773 8774 8775 8776 8777 8778 8779 8780 8781 8782 8783 8784 8785 8786 8787 8788 0
-8789 5 0
-8789 960 0
-8790 40 0
-8790 1197 0
-8791 201 0
-8791 564 0
-8792 242 0
-8792 744 0
-8793 286 0
-8793 744 0
-8794 330 0
-8794 954 0
-8795 560 0
-8795 913 0
-8796 563 0
-8796 564 0
-8797 900 0
-8797 1390 0
-8798 1094 0
-8798 1156 0
-8799 1176 0
-8799 1181 0
7079 7107 7192 7211 7349 7355 7361 7363 7366 7367 7368 7369 7370 7371 7372 7373 7378 7387 7389 7390 7391 7392 7395 7417 7418 7423 7430 7432 7443 7473 7475 7483 7487 7488 7723 7724 7725 7728 7729 7750 7755 7756 7757 7760 7778 7779 7786 7789 7839 7844 7851 7877 7977 8107 8210 8266 8361 8545 8669 8730 8731 8732 8733 8734 8735 8737 8743 8745 8747 8749 8756 8761 8763 8764 8768 8769 8770 8772 8774 8782 8783 8786 8788 8789 8790 8791 8792 8793 8794 8795 8796 8797 8798 8799 0
-8800 24 0
-8800 900 0
-8801 40 0
-8801 1128 0
-8802 737 0
-8802 954 0
7079 7192 7211 7334 7349 7355 7361 7363 7366 7367 7368 7369 7370 7371 7372 7373 7378 7387 7389 7390 7391 7392 7395 7417 7418 7423 7430 7432 7443 7483 7487 7488 7723 7725 7728 7729 7750 7755 7756 7757 7760 7786 7789 7799 7800 7839 7844 7851 7877 7977 8210 8266 8330 8545 8669 8730 8731 8732 8733 8734 8735 8737 8743 8745 8749 8756 8763 8764 8768 8769 8770 8772 8774 8777 8778 8782 8783 8786 8788 8789 8790 8791 8792 8793 8795 8796 8798 8799 8800 8801 8802 0
539 1277 995 960 663 1218 650 809 866 1002 900 1282 511 977 1326 932 802 1112 813 700 636 553 574 1099 1197 920 1243 966 689 1270 1131 656 1337 1231 990 563 640 913 1017 1205 564 1226 733 566 542 1123 1109 509 704 0
-8803 555 0
-8803 564 0
-8804 604 0
-8804 605 0
-8805 623 0
-8805 866 0
-8806 1186 0
-8806 1187 0
7211 7355 7372 7373 7377 7378 7379 7386 7432 7717 7718 7728 7729 7760 7839 8081 8152 8650 8735 8743 8745 8756 8777 8787 8789 8803 8804 8805 8806 0
-8807 401 0
-8807 1485 0
-8808 404 0
-8808 1461 0
-8809 407 0
-8809 1463 0
-8810 407 0
-8810 1490 0
-8811 418 0
-8811 1587 0
-8812 434 0
-8812 1475 0
-8813 455 0
-8813 1549 0
-8814 480 0
-8814 1543 0
-8815 485 0
-8815 1457 0
-8816 485 0
-8816 1538 0
-8817 1459 0
-8817 1513 0
-8818 1481 0
-8818 1529 0
7087 7341 7568 7768 7771 8087 8115 8176 8177 8178 8179 8180 8181 8231 8501 8807 8808 8809 8810 8811 8812 8813 8814 8815 8816 8817 8818 0
1490 1463 1475 1471 1466 1494 1543 1520 1504 1457 1513 1587 560 1461 1549 1529 1485 1539 0
-8819 406 0
-8819 1493 0
-8820 439 0
-8820 1481 0
-8821 483 0
-8821 1529 0
-8822 487 0
-8822 1511 0
-8823 1464 0
-8823 1498 0
-8824 1471 0
-8824 1472 0
-8825 1485 0
-8825 1498 0
-8826 1546 0
-8826 1566 0
7260 7330 7341 7491 7572 7574 7709 7856 8376 8819 8820 8821 8822 8823 8824 8825 8826 0
7260 7330 7337 7341 7491 7572 7574 7709 7856 8376 8819 8821 8822 8826 0
-8827 426 0
-8827 1602 0
-8828 430 0
-8828 1562 0
-8829 430 0
-8829 1600 0
-8830 487 0
-8830 1493 0
-8831 1463 0
-8831 1466 0
-8832 1481 0
-8832 1498 0
7260 7330 7572 7578 7862 8404 8821 8823 8824 8825 8827 8828 8829 8830 8831 8832 0
7260 7330 7337 7572 7578 7862 8404 8821 8827 8828 8829 8830 8831 0
1494 1501 1599 1464 1485 1600 1472 1481 0
-8833 404 0
-8833 1481 0
-8834 426 0
-8834 1512 0
-8835 1464 0
-8835 1465 0
7569 7774 7860 7861 7963 8182 8186 8234 8373 8374 8507 8573 8833 8834 8835 0
-8836 419 0
-8836 1569 0
7569 7579 7859 7960 7963 8182 8187 8234 8507 8821 8833 8834 8836 0
-8837 23 0
-8837 734 0
-8838 23 0
-8838 934 0
-8839 109 0
-8839 884 0
-8840 170 0
-8840 611 0
-8841 309 0
-8841 514 0
-8842 309 0
-8842 608 0
-8843 309 0
-8843 742 0
-8844 309 0
-8844 1256 0
-8845 424 0
-8845 1505 0
-8846 424 0
-8846 1513 0
-8847 426 0
-8847 1575 0
-8848 454 0
-8848 1466 0
-8849 454 0
-8849 1548 0
-8850 471 0
-8850 1574 0
-8851 1392 0
-8851 1393 0
-8852 1405 0
-8852 1406 0
-8853 1478 0
-8853 1579 0
6995 6996 7009 7156 7446 7576 7657 7743 7768 8145 8325 8386 8387 8810 8837 8838 8839 8840 8841 8842 8843 8844 8845 8846 8847 8848 8849 8850 8851 8852 8853 0
1478 1575 1475 1574 0
-8854 167 0
-8854 621 0
-8855 324 0
-8855 532 0
-8856 324 0
-8856 799 0
-8857 324 0
-8857 1220 0
-8858 412 0
-8858 1488 0
-8859 414 0
-8859 1483 0
-8860 414 0
-8860 1518 0
-8861 431 0
-8861 1501 0
-8862 489 0
-8862 1495 0
-8863 493 0
-8863 1547 0
-8864 1468 0
-8864 1500 0
-8865 1475 0
-8865 1478 0
7333 7340 7570 7573 7576 7641 7642 7657 7776 7856 8377 8385 8405 8443 8518 8832 8840 8854 8855 8856 8857 8858 8859 8860 8861 8862 8863 8864 8865 0
7333 7340 7570 7573 7576 7641 7642 7657 7776 7856 8182 8385 8443 8518 8832 8840 8854 8855 8856 8857 8858 8859 8860 8861 8862 8863 8865 0
-8866 385 0
-8866 1519 0
-8867 427 0
-8867 1471 0
-8868 431 0
-8868 1557 0
-8869 434 0
-8869 1543 0
-8870 451 0
-8870 1580 0
-8871 452 0
-8871 1563 0
-8872 467 0
-8872 1534 0
-8873 473 0
-8873 1525 0
-8874 490 0
-8874 1576 0
-8875 1456 0
-8875 1474 0
-8876 1471 0
-8876 1474 0
-8877 1473 0
-8877 1584 0
7310 7906 7910 7911 8325 8834 8866 8867 8868 8869 8870 8871 8872 8873 8874 8875 8876 8877 0
1563 1473 1486 1583 1571 1475 1512 1471 1519 1525 1580 1484 1576 1543 0
-8878 77 0
-8878 919 0
-8879 107 0
-8879 719 0
-8880 248 0
-8880 660 0
-8881 248 0
-8881 1028 0
-8882 248 0
-8882 1119 0
-8883 288 0
-8883 638 0
-8884 298 0
-8884 1262 0
-8885 384 0
-8885 1488 0
-8886 462 0
-8886 1527 0
-8887 477 0
-8887 1524 0
-8888 540 0
-8888 549 0
-8889 587 0
-8889 1197 0
-8890 918 0
-8890 919 0
-8891 988 0
-8891 1219 0
-8892 995 0
-8892 1279 0
-8893 1002 0
-8893 1216 0
-8894 1165 0
-8894 1292 0
-8895 1359 0
-8895 1416 0
-8896 1451 0
-8896 1475 0
-8897 1477 0
-8897 1512 0
7096 7102 7178 7180 7181 7197 7202 7205 7212 7213 7214 7220 7226 7233 7245 7246 7247 7248 7267 7273 7277 7282 7289 7301 7317 7364 7365 7368 7369 7370 7608 7609 7652 7877 7879 7881 7888 7891 7896 7898 7899 7900 7903 7904 7929 7930 7939 7941 8162 8283 8410 8412 8414 8435 8453 8644 8647 8675 8677 8678 8702 8715 8717 8725 8728 8778 8790 8878 8879 8880 8881 8882 8883 8884 8885 8886 8887 8888 8889 8890 8891 8892 8893 8894 8895 8896 8897 0
7096 7102 7178 7180 7181 7197 7202 7205 7212 7214 7220 7226 7245 7246 7247 7248 7267 7273 7277 7282 7289 7301 7317 7321 7364 7365 7368 7369 7370 7608 7609 7610 7652 7877 7879 7881 7888 7891 7896 7898 7899 7900 7903 7904 7929 7930 7939 7940 7941 8283 8410 8412 8414 8435 8453 8647 8675 8677 8678 8702 8715 8717 8723 8725 8728 8778 8790 8879 8880 8881 8882 8883 8884 8885 8886 8887 8888 8889 8891 8892 8893 8894 8895 8896 8897 0
-8898 195 0
-8898 1165 0
-8899 233 0
-8899 988 0
-8900 265 0
-8900 1262 0
-8901 304 0
-8901 1309 0
-8902 484 0
-8902 1527 0
-8903 641 0
-8903 1262 0
-8904 808 0
-8904 813 0
-8905 813 0
-8905 851 0
-8906 813 0
-8906 923 0
7096 7102 7107 7180 7197 7205 7212 7214 7220 7226 7245 7247 7248 7273 7277 7289 7294 7302 7321 7364 7365 7368 7369 7370 7608 7610 7620 7652 7687 7779 7872 7877 7879 7881 7888 7889 7891 7896 7898 7899 7900 7903 7904 7929 7930 7940 7941 7985 7990 8057 8117 8128 8283 8284 8410 8411 8412 8418 8435 8453 8647 8648 8663 8675 8677 8678 8694 8702 8725 8728 8778 8790 8879 8880 8881 8882 8883 8885 8887 8889 8893 8895 8896 8897 8898 8899 8900 8901 8902 8903 8904 8905 8906 0
-8907 177 0
-8907 1197 0
-8908 248 0
-8908 1002 0
-8909 267 0
-8909 988 0
-8910 1027 0
-8910 1028 0
-8911 1122 0
-8911 1202 0
-8912 1488 0
-8912 1524 0
7096 7180 7197 7205 7212 7214 7220 7226 7233 7245 7246 7247 7248 7273 7277 7288 7289 7294 7302 7321 7364 7365 7368 7369 7370 7608 7609 7610 7652 7687 7858 7872 7877 7879 7881 7888 7891 7896 7898 7899 7900 7903 7904 7930 7940 7941 7942 7956 7985 7990 8283 8284 8410 8412 8418 8435 8453 8647 8648 8663 8675 8677 8678 8702 8725 8728 8778 8879 8880 8882 8883 8886 8887 8892 8895 8896 8897 8898 8900 8903 8907 8908 8909 8910 8911 8912 0
978 975 1356 1197 1253 1316 648 638 791 989 1165 988 1439 719 1205 946 1416 614 749 497 1475 919 1012 1249 784 872 1048 1120 999 774 997 521 1254 541 1527 889 985 956 509 1105 1002 623 930 1108 733 1262 0
-8913 1491 0
-8913 1504 0
7091 7340 7344 7348 7542 7579 7768 7772 7859 7962 8326 8404 8517 8865 8913 0
-8914 489 0
-8914 1579 0
-8915 492 0
-8915 1600 0
7091 7338 7340 7344 7348 7768 7772 7859 7962 8404 8517 8914 8915 0
7337 7577 7578 7768 8115 8183 8281 8397 8514 8826 8827 0
7330 7337 7577 7578 7768 8183 8397 8826 8827 0
1484 1479 1602 1493 1460 1597 1546 1498 0
-8916 17 0
-8916 570 0
-8917 17 0
-8917 580 0
-8918 19 0
-8918 987 0
-8919 24 0
-8919 760 0
-8920 44 0
-8920 997 0
-8921 78 0
-8921 1217 0
-8922 88 0
-8922 1011 0
-8923 113 0
-8923 1041 0
-8924 153 0
-8924 559 0
-8925 214 0
-8925 1137 0
-8926 226 0
-8926 740 0
-8927 226 0
-8927 812 0
-8928 226 0
-8928 1335 0
-8929 274 0
-8929 764 0
-8930 276 0
-8930 610 0
-8931 288 0
-8931 746 0
-8932 297 0
-8932 817 0
-8933 339 0
-8933 919 0
-8934 345 0
-8934 765 0
-8935 352 0
-8935 729 0
-8936 367 0
-8936 1030 0
-8937 479 0
-8937 1460 0
-8938 538 0
-8938 905 0
-8939 561 0
-8939 914 0
-8940 565 0
-8940 1064 0
-8941 594 0
-8941 988 0
-8942 608 0
-8942 1245 0
-8943 622 0
-8943 801 0
-8944 625 0
-8944 997 0
-8945 844 0
-8945 1064 0
-8946 940 0
-8946 1314 0
-8947 987 0
-8947 1069 0
-8948 998 0
-8948 1253 0
-8949 1048 0
-8949 1055 0
-8950 1078 0
-8950 1145 0
-8951 1125 0
-8951 1135 0
-8952 1314 0
-8952 1315 0
7023 7066 7146 7211 7384 7390 7391 7395 7410 7462 7466 7467 7468 7473 7620 7623 7655 7669 7694 7743 7744 7755 7844 8085 8113 8217 8218 8220 8264 8523 8531 8532 8535 8539 8540 8541 8544 8545 8566 8591 8597 8608 8610 8614 8617 8618 8632 8634 8636 8772 8916 8917 8918 8919 8920 8921 8922 8923 8924 8925 8926 8927 8928 8929 8930 8931 8932 8933 8934 8935 8936 8937 8938 8939 8940 8941 8942 8943 8944 8945 8946 8947 8948 8949 8950 8951 8952 0
-8953 22 0
-8953 1064 0
-8954 114 0
-8954 1276 0
-8955 312 0
-8955 608 0
-8956 320 0
-8956 1121 0
-8957 349 0
-8957 905 0
-8958 940 0
-8958 1337 0
-8959 1017 0
-8959 1041 0
-8960 1059 0
-8960 1064 0
7066 7067 7124 7211 7390 7391 7395 7410 7462 7466 7467 7468 7469 7473 7483 7619 7620 7623 7650 7655 7669 7687 7743 7744 7755 7844 8082 8085 8217 8218 8220 8264 8523 8531 8535 8539 8540 8541 8545 8561 8564 8566 8584 8591 8608 8610 8614 8617 8618 8620 8632 8634 8636 8772 8784 8916 8917 8918 8921 8922 8925 8926 8927 8928 8929 8930 8932 8933 8934 8935 8936 8937 8943 8947 8949 8952 8953 8954 8955 8956 8957 8958 8959 8960 0
-8961 25 0
-8961 723 0
-8962 25 0
-8962 731 0
-8963 25 0
-8963 835 0
-8964 25 0
-8964 1323 0
-8965 25 0
-8965 1324 0
-8966 25 0
-8966 1417 0
-8967 26 0
-8967 786 0
-8968 26 0
-8968 967 0
-8969 26 0
-8969 979 0
-8970 26 0
-8970 1368 0
-8971 26 0
-8971 1397 0
-8972 26 0
-8972 1411 0
-8973 101 0
-8973 878 0
-8974 101 0
-8974 1421 0
-8975 112 0
-8975 1167 0
-8976 112 0
-8976 1395 0
-8977 429 0
-8977 1548 0
-8978 642 0
-8978 1297 0
-8979 1467 0
-8979 1496 0
7158 7332 7340 7345 7346 7447 7448 7543 7573 7577 7578 7584 7855 8184 8187 8374 8828 8961 8962 8963 8964 8965 8966 8967 8968 8969 8970 8971 8972 8973 8974 8975 8976 8977 8978 8979 0
7158 7332 7340 7348 7447 7448 7543 7573 7577 7578 7584 7855 8184 8187 8374 8828 8961 8962 8963 8964 8965 8966 8967 8968 8969 8970 8971 8972 8973 8974 8975 8976 8977 8978 0
1469 1601 1602 1492 1480 1494 1467 1517 0
-8980 10 0
-8980 1132 0
-8981 95 0
-8981 1301 0
-8982 221 0
-8982 803 0
-8983 253 0
-8983 937 0
-8984 318 0
-8984 1285 0
-8985 336 0
-8985 933 0
-8986 403 0
-8986 1551 0
-8987 420 0
-8987 1470 0
-8988 439 0
-8988 1479 0
-8989 445 0
-8989 1529 0
-8990 455 0
-8990 1550 0
-8991 457 0
-8991 1531 0
-8992 521 0
-8992 805 0
-8993 521 0
-8993 806 0
-8994 534 0
-8994 889 0
-8995 592 0
-8995 1219 0
-8996 648 0
-8996 1262 0
-8997 685 0
-8997 1317 0
-8998 721 0
-8998 1215 0
-8999 992 0
-8999 1279 0
-9000 1013 0
-9000 1132 0
-9001 1279 0
-9001 1363 0
7029 7057 7090 7096 7097 7102 7181 7182 7195 7197 7205 7215 7216 7217 7218 7226 7228 7268 7273 7289 7294 7320 7364 7365 7421 7482 7608 7609 7610 7614 7615 7649 7773 7777 7822 7877 7879 7885 7886 7887 7888 7895 7900 7902 7920 7932 7938 7939 7941 7987 8217 8218 8225 8377 8391 8410 8412 8419 8420 8422 8432 8440 8453 8487 8541 8544 8584 8642 8644 8647 8649 8650 8653 8660 8662 8664 8675 8680 8682 8705 8708 8778 8790 8820 8828 8880 8882 8883 8884 8889 8893 8902 8910 8980 8981 8982 8983 8984 8985 8986 8987 8988 8989 8990 8991 8992 8993 8994 8995 8996 8997 8998 8999 9000 9001 0
7029 7057 7090 7096 7097 7102 7181 7182 7195 7197 7205 7215 7216 7217 7218 7226 7228 7268 7273 7289 7294 7320 7364 7365 7421 7482 7608 7609 7610 7614 7615 7649 7773 7777 7822 7877 7879 7885 7886 7887 7888 7895 7900 7902 7920 7932 7938 7939 7941 7987 8217 8218 8225 8377 8391 8410 8412 8419 8420 8422 8432 8440 8453 8487 8541 8544 8584 8642 8644 8647 8649 8650 8653 8660 8662 8664 8675 8679 8680 8682 8705 8708 8778 8790 8820 8828 8880 8882 8883 8884 8889 8893 8902 8910 8981 8982 8983 8984 8985 8986 8987 8988 8989 8990 8991 8992 8993 8994 8995 8996 8997 8998 8999 9001 0
-9002 253 0
-9002 541 0
-9003 396 0
-9003 1470 0
-9004 399 0
-9004 1551 0
-9005 420 0
-9005 1550 0
-9006 484 0
-9006 1531 0
-9007 737 0
-9007 930 0
7029 7057 7067 7068 7085 7096 7097 7102 7180 7197 7205 7215 7216 7217 7218 7273 7294 7311 7320 7331 7364 7365 7368 7421 7482 7574 7608 7609 7610 7614 7649 7730 7773 7774 7777 7877 7879 7882 7885 7886 7887 7888 7900 7902 7905 7928 7938 7940 7941 7955 7987 7988 7989 8017 8117 8217 8218 8225 8273 8377 8391 8410 8411 8412 8419 8420 8422 8432 8438 8440 8453 8487 8514 8544 8584 8647 8650 8660 8664 8675 8679 8680 8681 8682 8691 8708 8778 8833 8880 8882 8883 8886 8893 8900 8903 8907 8936 8981 8983 8984 8985 8992 8993 8994 8995 9002 9003 9004 9005 9006 9007 0
1292 733 978 735 1230 774 1253 541 939 1105 749 1077 638 983 1205 1197 614 889 1554 623 1301 1023 521 1486 993 688 1529 1262 603 1154 976 1002 648 538 705 1140 791 1219 1028 1551 784 715 663 872 1033 1411 998 1550 933 1188 1279 1481 1067 1400 1532 1285 1215 1507 1119 509 921 660 0
7057 7058 7197 7200 7267 7294 7482 7615 7863 7877 7879 7882 7900 7924 7938 7942 8434 8435 8440 8453 8650 8660 8675 8695 8883 8888 8900 8903 8907 8995 0
-9008 18 0
-9008 1257 0
-9009 244 0
-9009 960 0
-9010 648 0
-9010 852 0
-9011 719 0
-9011 1219 0
-9012 735 0
-9012 1347 0
-9013 784 0
-9013 1003 0
-9014 790 0
-9014 960 0
7200 7202 7212 7214 7267 7877 7899 7900 7924 7929 7938 7955 8416 8435 8440 8453 8702 8713 8790 8883 8884 8888 8889 8894 8909 9008 9009 9010 9011 9012 9013 9014 0
946 648 497 838 1230 975 735 553 549 784 889 638 960 1219 978 663 1184 1205 1262 1197 717 1105 550 1165 0
-9015 45 0
-9015 1006 0
-9016 70 0
-9016 1280 0
-9017 94 0
-9017 913 0
-9018 110 0
-9018 834 0
-9019 126 0
-9019 950 0
-9020 135 0
-9020 1115 0
-9021 137 0
-9021 563 0
-9022 137 0
-9022 1067 0
-9023 137 0
-9023 1262 0
-9024 137 0
-9024 1319 0
-9025 144 0
-9025 942 0
-9026 173 0
-9026 1004 0
-9027 173 0
-9027 1065 0
-9028 183 0
-9028 646 0
-9029 183 0
-9029 1112 0
-9030 194 0
-9030 946 0
-9031 222 0
-9031 1069 0
-9032 262 0
-9032 861 0
-9033 279 0
-9033 974 0
-9034 301 0
-9034 769 0
-9035 308 0
-9035 861 0
-9036 345 0
-9036 1161 0
-9037 570 0
-9037 812 0
-9038 615 0
-9038 942 0
-9039 626 0
-9039 864 0
-9040 645 0
-9040 650 0
-9041 648 0
-9041 1163 0
-9042 675 0
-9042 1207 0
-9043 711 0
-9043 723 0
-9044 779 0
-9044 1219 0
-9045 897 0
-9045 900 0
-9046 987 0
-9046 1062 0
-9047 1158 0
-9047 1289 0
-9048 1277 0
-9048 1279 0
7023 7146 7384 7410 7466 7467 7468 7583 7606 7616 7635 7653 7654 7725 7730 7787 7988 8036 8080 8254 8313 8522 8531 8532 8543 8557 8558 8562 8570 8579 8590 8602 8603 8617 8618 8621 8624 8625 8629 8645 8925 8929 9015 9016 9017 9018 9019 9020 9021 9022 9023 9024 9025 9026 9027 9028 9029 9030 9031 9032 9033 9034 9035 9036 9037 9038 9039 9040 9041 9042 9043 9044 9045 9046 9047 9048 0
-9049 4 0
-9049 675 0
-9050 85 0
-9050 841 0
-9051 85 0
-9051 942 0
-9052 105 0
-9052 1390 0
-9053 171 0
-9053 572 0
-9054 173 0
-9054 1228 0
-9055 173 0
-9055 1321 0
-9056 206 0
-9056 572 0
-9057 287 0
-9057 1062 0
-9058 600 0
-9058 974 0
-9059 617 0
-9059 1050 0
-9060 769 0
-9060 968 0
-9061 945 0
-9061 946 0
-9062 1021 0
-9062 1022 0
-9063 1201 0
-9063 1435 0
7011 7124 7384 7410 7462 7466 7467 7468 7583 7616 7633 7653 7654 7725 7730 7787 7840 8021 8036 8080 8083 8205 8254 8313 8524 8530 8531 8532 8551 8558 8559 8566 8570 8590 8603 8615 8616 8618 8620 8621 8624 8625 8639 8645 8929 8943 8961 9019 9021 9022 9023 9024 9026 9027 9031 9036 9037 9044 9047 9049 9050 9051 9052 9053 9054 9055 9056 9057 9058 9059 9060 9061 9062 9063 0
-9064 34 0
-9064 1062 0
-9065 137 0
-9065 1219 0
-9066 834 0
-9066 841 0
-9067 842 0
-9067 1007 0
-9068 994 0
-9068 1262 0
-9069 1078 0
-9069 1262 0
-9070 1100 0
-9070 1262 0
7023 7146 7384 7410 7467 7468 7583 7606 7616 7635 7653 7654 7725 7730 7787 8036 8080 8203 8254 8286 8313 8522 8528 8531 8532 8558 8566 8570 8590 8599 8615 8617 8618 8621 8624 8625 8636 8640 8645 8646 8925 8929 9015 9017 9019 9021 9022 9024 9025 9026 9027 9031 9036 9037 9038 9039 9040 9043 9047 9049 9055 9060 9064 9065 9066 9067 9068 9069 9070 0
7023 7146 7384 7410 7466 7467 7468 7583 7606 7616 7635 7653 7654 7725 7730 7787 8036 8080 8203 8254 8286 8313 8522 8528 8531 8532 8558 8566 8570 8590 8599 8615 8617 8618 8621 8624 8625 8636 8640 8645 8646 8925 8929 9015 9017 9019 9021 9022 9023 9024 9025 9026 9027 9031 9036 9037 9038 9039 9040 9043 9047 9049 9055 9060 9064 9065 9066 9067 0
1006 834 1435 640 821 813 1137 523 1196 1099 942 1007 867 1062 949 913 1426 864 538 1073 968 658 572 723 931 764 944 812 1280 707 806 607 946 650 0
-9071 382 0
-9071 1458 0
-9072 392 0
-9072 1478 0
-9073 440 0
-9073 1536 0
-9074 442 0
-9074 1468 0
-9075 1456 0
-9075 1478 0
-9076 1462 0
-9076 1463 0
7310 7331 7334 7336 7340 7569 7579 7708 7772 7855 7933 8183 8324 8375 8443 8573 8825 8832 8835 8836 8913 9071 9072 9073 9074 9075 9076 0
7310 7331 7334 7336 7340 7568 7569 7579 7708 7772 7855 7960 8183 8324 8375 8443 8836 9071 9073 9074 9076 0
-9077 437 0
-9077 1465 0
-9078 1468 0
-9078 1567 0
7176 7331 7332 7334 7492 7569 7573 7772 7773 7907 7933 8115 8186 8234 8281 8373 8375 8377 8379 8517 8573 8832 8836 8913 9071 9072 9075 9076 9077 9078 0
-9079 405 0
-9079 1536 0
7310 7334 7348 7568 7569 7575 7578 7708 7772 7855 7960 8185 8186 8372 8827 8830 8836 9071 9074 9076 9079 0
1517 1472 1458 1536 1482 1487 1602 1600 1465 1492 1481 1486 1599 1583 1520 1489 1491 1480 1502 1598 1591 1485 1466 1468 1495 1478 1460 1467 0
-9080 406 0
-9080 1517 0
7263 7333 7348 7578 7950 8115 8281 8373 8514 8827 8836 9080 0
7263 7330 7333 7348 7578 7950 8373 8827 8836 9080 0
-9081 418 0
-9081 1583 0
-9082 464 0
-9082 1591 0
-9083 1536 0
-9083 1598 0
7263 7338 7346 7569 7570 7579 7708 7772 7855 7856 8184 8507 8517 8573 8823 8825 8830 8832 8979 9071 9074 9081 9082 9083 0
7263 7338 7348 7569 7570 7579 7708 7772 7855 7856 7960 8184 8507 8517 8830 9071 9074 9081 9082 9083 0
1491 1467 1600 1494 1583 1569 1487 1597 1465 1591 1485 1599 1492 1468 1458 1486 1481 1517 1472 1536 1504 0
7330 7331 7573 8234 8375 8379 8517 8573 8823 8825 8826 8827 8832 0
7330 7331 7337 7573 8234 8375 8379 8517 8826 8827 0
-9084 414 0
-9084 1500 0
7331 7333 7338 7344 7422 7575 8826 8914 9084 0
1546 1504 1601 1495 1496 0
-9085 432 0
-9085 1548 0
-9086 479 0
-9086 1533 0
7087 7859 7963 8182 8184 8573 8823 8825 8829 8831 8832 9079 9085 9086 0
7087 7859 7960 7963 8182 8184 8829 8831 9079 9085 9086 0
-9087 381 0
-9087 1533 0
-9088 444 0
-9088 1483 0
7176 7335 7859 8373 8377 8517 8573 8823 8831 8832 8863 8864 8915 8977 9073 9087 9088 0
7335 7859 7960 8182 8517 8831 8863 8915 8977 9073 9087 0
1481 1486 1477 1485 1601 1464 1472 1600 1483 1569 1468 0
-9089 415 0
-9089 1533 0
-9090 481 0
-9090 1569 0
-9091 483 0
-9091 1499 0
-9092 1460 0
-9092 1461 0
7348 7422 7542 7579 7859 7933 8268 8402 8404 8502 8913 9083 9085 9089 9090 9091 9092 0
7348 7422 7568 7579 7859 8268 8402 8404 9083 9085 9089 9090 9091 9092 0
-9093 405 0
-9093 1533 0
-9094 1490 0
-9094 1492 0
7333 7344 7345 7422 7568 7710 8517 8822 8914 8915 8979 9073 9085 9092 9093 9094 0
7333 7344 7348 7422 7568 7710 8517 8822 8914 8915 9073 9085 9092 9093 0
1480 1504 1467 1597 1598 1499 1490 0
-9095 373 0
-9095 1471 0
-9096 413 0
-9096 1484 0
-9097 428 0
-9097 1484 0
-9098 487 0
-9098 1525 0
-9099 1452 0
-9099 1472 0
7100 9095 9096 9097 9098 9099 0
-9100 1542 0
-9100 1568 0
7332 7336 7342 7422 7568 7569 7961 7964 8268 8375 8834 9100 0
1542 1599 1502 1600 1504 0
7332 7339 7348 7422 7858 7862 8115 8185 8281 8374 8375 8397 8404 8514 8828 8862 9085 0
7330 7332 7339 7348 7422 7858 7862 8185 8374 8375 8397 8404 8828 8862 9085 0
-9101 402 0
-9101 1559 0
-9102 408 0
-9102 1469 0
-9103 408 0
-9103 1475 0
-9104 413 0
-9104 1464 0
-9105 429 0
-9105 1469 0
-9106 458 0
-9106 1596 0
-9107 1491 0
-9107 1530 0
-9108 1564 0
-9108 1565 0
7151 7422 7827 7912 7950 7960 8186 8444 8500 9095 9096 9097 9101 9102 9103 9104 9105 9106 9107 9108 0
1471 1566 1466 1596 1461 1559 1530 1469 1557 1565 1489 1498 1496 582 1464 1484 1475 1510 0
-9109 386 0
-9109 1553 0
-9110 1482 0
-9110 1484 0
7334 7347 7348 7492 7542 7571 7572 7710 7859 7860 7933 8829 8865 8913 9087 9092 9109 9110 0
7334 7338 7347 7348 7492 7571 7572 7710 7859 7860 8829 9087 9092 9109 9110 0
-9111 22 0
-9111 622 0
-9112 22 0
-9112 625 0
-9113 26 0
-9113 876 0
-9114 43 0
-9114 1197 0
-9115 43 0
-9115 1262 0
-9116 72 0
-9116 1320 0
-9117 95 0
-9117 652 0
-9118 108 0
-9118 877 0
-9119 108 0
-9119 1410 0
-9120 118 0
-9120 844 0
-9121 138 0
-9121 1379 0
-9122 174 0
-9122 784 0
-9123 205 0
-9123 600 0
-9124 205 0
-9124 1000 0
-9125 205 0
-9125 1213 0
-9126 234 0
-9126 907 0
-9127 241 0
-9127 1135 0
-9128 246 0
-9128 1049 0
-9129 246 0
-9129 1122 0
-9130 255 0
-9130 912 0
-9131 258 0
-9131 712 0
-9132 258 0
-9132 832 0
-9133 280 0
-9133 907 0
-9134 285 0
-9134 586 0
-9135 285 0
-9135 838 0
-9136 298 0
-9136 975 0
-9137 342 0
-9137 1271 0
-9138 342 0
-9138 1272 0
-9139 409 0
-9139 1502 0
-9140 423 0
-9140 1535 0
-9141 462 0
-9141 1509 0
-9142 463 0
-9142 1459 0
-9143 495 0
-9143 518 0
-9144 497 0
-9144 538 0
-9145 535 0
-9145 894 0
-9146 538 0
-9146 580 0
-9147 538 0
-9147 906 0
-9148 653 0
-9148 654 0
-9149 738 0
-9149 827 0
-9150 870 0
-9150 1377 0
-9151 908 0
-9151 1124 0
-9152 945 0
-9152 1404 0
-9153 1067 0
-9153 1163 0
-9154 1110 0
-9154 1290 0
-9155 1197 0
-9155 1205 0
-9156 1202 0
-9156 1263 0
-9157 1453 0
-9157 1477 0
-9158 1484 0
-9158 1575 0
7080 7099 7149 7163 7192 7194 7212 7214 7243 7244 7361 7368 7369 7370 7371 7472 7473 7474 7584 7713 7776 7809 7818 7886 7915 7942 7956 7978 8124 8131 8168 8190 8193 8197 8200 8205 8246 8250 8272 8285 8286 8290 8294 8357 8362 8391 8393 8404 8584 8653 8996 9085 9099 9111 9112 9113 9114 9115 9116 9117 9118 9119 9120 9121 9122 9123 9124 9125 9126 9127 9128 9129 9130 9131 9132 9133 9134 9135 9136 9137 9138 9139 9140 9141 9142 9143 9144 9145 9146 9147 9148 9149 9150 9151 9152 9153 9154 9155 9156 9157 9158 0
-9159 90 0
-9159 695 0
-9160 205 0
-9160 1377 0
-9161 255 0
-9161 838 0
-9162 270 0
-9162 1182 0
-9163 374 0
-9163 1469 0
-9164 625 0
-9164 626 0
-9165 695 0
-9165 937 0
-9166 697 0
-9166 1320 0
-9167 738 0
-9167 830 0
-9168 867 0
-9168 1283 0
-9169 1361 0
-9169 1379 0
-9170 1456 0
-9170 1469 0
7002 7080 7135 7138 7192 7195 7212 7214 7216 7243 7244 7275 7315 7361 7369 7370 7371 7473 7474 7508 7569 7776 7809 7818 7822 7880 7886 7917 7942 7978 8131 8168 8190 8193 8198 8200 8246 8250 8253 8260 8285 8286 8288 8289 8290 8294 8333 8391 8393 8404 8584 8648 8710 9085 9099 9111 9117 9118 9119 9120 9122 9123 9124 9125 9128 9129 9130 9131 9132 9134 9136 9137 9138 9140 9141 9142 9143 9145 9152 9157 9158 9159 9160 9161 9162 9163 9164 9165 9166 9167 9168 9169 9170 0
782 894 981 1227 1197 495 641 886 1344 595 1138 848 1183 1237 1003 975 1263 581 946 613 856 1000 810 1410 870 832 666 1283 1581 778 1253 1182 1575 1379 1262 871 1286 1511 844 652 827 653 626 1512 1125 945 1270 830 1393 586 1134 0
-9171 3 0
-9171 710 0
-9172 4 0
-9172 1216 0
-9173 64 0
-9173 1170 0
-9174 71 0
-9174 1448 0
-9175 115 0
-9175 968 0
-9176 122 0
-9176 1335 0
-9177 122 0
-9177 1337 0
-9178 148 0
-9178 1008 0
-9179 163 0
-9179 590 0
-9180 183 0
-9180 1062 0
-9181 201 0
-9181 812 0
-9182 331 0
-9182 1161 0
-9183 333 0
-9183 1209 0
-9184 354 0
-9184 1276 0
-9185 605 0
-9185 1217 0
-9186 645 0
-9186 646 0
-9187 727 0
-9187 807 0
-9188 867 0
-9188 1123 0
-9189 906 0
-9189 1070 0
7023 7066 7067 7076 7077 7080 7384 7385 7390 7391 7439 7462 7466 7467 7468 7469 7583 7650 7694 7731 7733 7734 7742 7743 7744 7776 7787 7817 7840 8002 8006 8033 8036 8056 8217 8218 8220 8221 8265 8283 8284 8519 8520 8522 8525 8531 8532 8539 8540 8541 8545 8551 8565 8568 8571 8597 8610 8618 8621 8623 8624 8625 8626 8630 8636 8778 8881 8922 8925 8926 8931 8932 8942 9025 9031 9038 9047 9050 9053 9056 9058 9146 9171 9172 9173 9174 9175 9176 9177 9178 9179 9180 9181 9182 9183 9184 9185 9186 9187 9188 9189 0
-9190 11 0
-9190 839 0
-9191 20 0
-9191 1018 0
-9192 20 0
-9192 1243 0
-9193 95 0
-9193 897 0
-9194 113 0
-9194 1290 0
-9195 172 0
-9195 654 0
-9196 204 0
-9196 871 0
-9197 225 0
-9197 626 0
-9198 225 0
-9198 1014 0
-9199 255 0
-9199 879 0
-9200 331 0
-9200 590 0
-9201 331 0
-9201 1171 0
-9202 346 0
-9202 1255 0
-9203 543 0
-9203 552 0
-9204 582 0
-9204 1164 0
-9205 695 0
-9205 757 0
-9206 695 0
-9206 933 0
-9207 773 0
-9207 981 0
-9208 778 0
-9208 786 0
-9209 784 0
-9209 1053 0
-9210 960 0
-9210 1071 0
-9211 1164 0
-9211 1166 0
-9212 1174 0
-9212 1222 0
-9213 1366 0
-9213 1410 0
7067 7068 7078 7079 7084 7109 7138 7148 7192 7193 7212 7214 7241 7249 7263 7309 7366 7369 7370 7371 7414 7473 7474 7476 7508 7519 7525 7750 7751 7942 7987 7988 8004 8005 8124 8131 8168 8188 8190 8193 8197 8201 8204 8205 8209 8212 8215 8216 8220 8221 8240 8249 8256 8257 8269 8270 8272 8277 8288 8294 8309 8325 8326 8430 8704 8977 9011 9118 9123 9124 9125 9129 9130 9160 9169 9182 9190 9191 9192 9193 9194 9195 9196 9197 9198 9199 9200 9201 9202 9203 9204 9205 9206 9207 9208 9209 9210 9211 9212 9213 0
-9214 93 0
-9214 1164 0
-9215 146 0
-9215 879 0
-9216 211 0
-9216 1142 0
-9217 320 0
-9217 1175 0
-9218 798 0
-9218 799 0
-9219 838 0
-9219 839 0
-9220 1014 0
-9220 1018 0
-9221 1121 0
-9221 1125 0
7067 7068 7078 7079 7084 7109 7138 7148 7192 7193 7212 7214 7249 7263 7366 7369 7370 7371 7414 7473 7474 7508 7525 7716 7751 7886 7942 7986 7987 7988 8004 8005 8032 8124 8131 8168 8188 8190 8193 8197 8201 8204 8205 8209 8212 8215 8216 8220 8240 8249 8256 8257 8265 8269 8270 8272 8280 8288 8289 8294 8309 8325 8326 8430 9011 9085 9118 9123 9124 9125 9129 9130 9160 9169 9182 9191 9192 9194 9196 9197 9200 9201 9202 9203 9205 9206 9207 9208 9209 9210 9213 9214 9215 9216 9217 9218 9219 9220 9221 0
960 871 894 877 543 1250 538 1308 784 495 888 1345 1344 719 1249 1263 886 782 981 1548 1377 1295 799 946 1222 1299 989 1161 1150 1279 654 733 1213 1399 1290 1169 626 1227 1215 1138 708 751 1579 988 864 1410 641 589 1475 879 839 0
7331 7337 7347 7542 7572 7574 7776 7859 7860 7861 7933 8185 8821 8865 8913 9085 0
7331 7337 7338 7347 7572 7574 7776 7859 7860 7861 8185 8821 9085 0
-9222 42 0
-9222 714 0
-9223 102 0
-9223 714 0
-9224 102 0
-9224 1360 0
-9225 105 0
-9225 758 0
-9226 105 0
-9226 899 0
-9227 134 0
-9227 906 0
-9228 142 0
-9228 1396 0
-9229 173 0
-9229 1442 0
-9230 253 0
-9230 969 0
-9231 256 0
-9231 1107 0
-9232 256 0
-9232 1202 0
-9233 333 0
-9233 1025 0
-9234 343 0
-9234 1072 0
-9235 408 0
-9235 1559 0
-9236 431 0
-9236 1541 0
-9237 432 0
-9237 1532 0
-9238 442 0
-9238 1563 0
-9239 458 0
-9239 1594 0
-9240 460 0
-9240 1557 0
-9241 493 0
-9241 1465 0
-9242 564 0
-9242 1058 0
-9243 638 0
-9243 1297 0
-9244 659 0
-9244 1253 0
-9245 720 0
-9245 1085 0
-9246 748 0
-9246 986 0
-9247 815 0
-9247 1355 0
-9248 911 0
-9248 912 0
-9249 1069 0
-9249 1230 0
-9250 1079 0
-9250 1145 0
-9251 1117 0
-9251 1434 0
-9252 1170 0
-9252 1226 0
-9253 1316 0
-9253 1344 0
7022 7024 7029 7059 7173 7183 7191 7194 7210 7216 7260 7342 7428 7448 7459 7543 7580 7581 7582 7583 7584 7586 7587 7592 7603 7604 7605 7612 7613 7616 7629 7630 7632 7635 7644 7658 7662 7664 7666 7678 7693 7698 7767 7857 7973 7974 7980 7985 7986 7987 7988 7993 8001 8012 8013 8014 8022 8034 8037 8039 8125 8148 8232 8356 8459 8533 8538 8593 8686 8741 8742 8755 9003 9102 9103 9222 9223 9224 9225 9226 9227 9228 9229 9230 9231 9232 9233 9234 9235 9236 9237 9238 9239 9240 9241 9242 9243 9244 9245 9246 9247 9248 9249 9250 9251 9252 9253 0
-9254 35 0
-9254 969 0
-9255 104 0
-9255 899 0
-9256 176 0
-9256 932 0
-9257 296 0
-9257 1231 0
-9258 692 0
-9258 899 0
-9259 714 0
-9259 719 0
-9260 714 0
-9260 1341 0
-9261 815 0
-9261 1072 0
-9262 1351 0
-9262 1360 0
7022 7024 7029 7059 7173 7183 7191 7194 7210 7216 7260 7342 7428 7448 7459 7543 7580 7581 7582 7583 7584 7586 7587 7592 7603 7604 7605 7612 7613 7616 7629 7630 7632 7644 7658 7662 7664 7666 7674 7684 7693 7698 7701 7705 7762 7767 7857 7973 7980 7985 7986 7987 7988 7993 8014 8022 8034 8037 8125 8232 8284 8300 8356 8459 8593 8686 8741 8742 8755 9003 9102 9103 9225 9227 9228 9231 9232 9233 9234 9235 9236 9237 9238 9239 9240 9241 9242 9243 9244 9245 9246 9248 9249 9250 9251 9252 9253 9254 9255 9256 9257 9258 9259 9260 9261 9262 0
719 1007 1263 1250 673 1072 665 1420 1360 1011 816 1157 682 1067 846 805 931 1162 646 1253 868 1015 1396 987 654 1061 1025 955 876 1114 836 1105 1032 1226 720 548 1328 969 1231 1008 660 865 1441 1093 1578 1559 870 967 912 986 1341 1447 1087 899 1413 1563 1202 906 848 571 758 1117 1184 1076 1145 1289 932 1187 564 810 0
-9263 98 0
-9263 816 0
-9264 164 0
-9264 665 0
-9265 179 0
-9265 1165 0
-9266 195 0
-9266 1149 0
-9267 327 0
-9267 575 0
-9268 327 0
-9268 1072 0
-9269 719 0
-9269 724 0
-9270 746 0
-9270 1072 0
-9271 789 0
-9271 870 0
-9272 911 0
-9272 961 0
-9273 1032 0
-9273 1187 0
-9274 1179 0
-9274 1184 0
-9275 1235 0
-9275 1448 0
-9276 1396 0
-9276 1445 0
7217 7218 7220 7448 7483 7580 7581 7582 7583 7587 7589 7593 7601 7602 7604 7605 7614 7616 7632 7644 7658 7662 7665 7666 7668 7671 7674 7678 7682 7762 7971 7973 7974 7985 8003 8014 8020 8037 8125 8155 8533 9225 9242 9243 9245 9255 9256 9260 9262 9263 9264 9265 9266 9267 9268 9269 9270 9271 9272 9273 9274 9275 9276 0
-9277 453 0
-9277 1562 0
7259 7337 7776 7964 8115 8375 8376 8378 8397 8402 8514 8915 9110 9277 0
7259 7330 7336 7337 7776 7964 8183 8375 8378 8827 8828 8915 0
1482 1461 1498 1600 1501 1479 1599 0
-9278 1583 0
-9278 1601 0
7335 7340 7343 7345 7346 7568 7908 7962 8268 8404 8448 8517 8915 9085 9089 9092 9278 0
7335 7340 7348 7568 7908 7962 8268 8404 8448 8517 8915 9085 9089 9092 9278 0
-9279 55 0
-9279 1270 0
-9280 109 0
-9280 1395 0
-9281 116 0
-9281 1078 0
-9282 180 0
-9282 841 0
-9283 219 0
-9283 828 0
-9284 220 0
-9284 681 0
-9285 244 0
-9285 1021 0
-9286 361 0
-9286 1134 0
-9287 522 0
-9287 807 0
-9288 563 0
-9288 915 0
-9289 583 0
-9289 822 0
-9290 643 0
-9290 644 0
-9291 713 0
-9291 720 0
-9292 785 0
-9292 962 0
-9293 935 0
-9293 942 0
7047 7080 7192 7211 7246 7355 7361 7362 7366 7367 7368 7369 7370 7371 7373 7378 7382 7386 7387 7401 7427 7432 7433 7438 7442 7443 7470 7476 7483 7549 7619 7622 7691 7718 7721 7722 7723 7728 7729 7740 7756 7757 7800 7814 7844 7903 7977 8107 8152 8304 8310 8388 8727 8735 8737 8744 8749 8758 8763 8769 8791 8800 9009 9279 9280 9281 9282 9283 9284 9285 9286 9287 9288 9289 9290 9291 9292 9293 0
1380 1256 853 813 511 539 564 1443 943 644 1277 1204 828 961 1123 704 1112 841 915 656 1218 748 1002 913 990 1158 887 733 866 720 810 1145 942 708 674 1448 1021 802 0
-9294 41 0
-9294 992 0
-9295 77 0
-9295 833 0
-9296 111 0
-9296 852 0
-9297 120 0
-9297 1068 0
-9298 160 0
-9298 597 0
-9299 164 0
-9299 655 0
-9300 201 0
-9300 873 0
-9301 229 0
-9301 1069 0
-9302 233 0
-9302 987 0
-9303 253 0
-9303 1368 0
-9304 266 0
-9304 993 0
-9305 283 0
-9305 866 0
-9306 283 0
-9306 1171 0
-9307 313 0
-9307 995 0
-9308 358 0
-9308 1182 0
-9309 528 0
-9309 840 0
-9310 581 0
-9310 588 0
-9311 676 0
-9311 1071 0
-9312 711 0
-9312 722 0
-9313 790 0
-9313 1022 0
-9314 826 0
-9314 862 0
-9315 857 0
-9315 1344 0
-9316 936 0
-9316 941 0
-9317 986 0
-9317 1064 0
-9318 1032 0
-9318 1190 0
-9319 1079 0
-9319 1327 0
-9320 1155 0
-9320 1157 0
6991 7015 7027 7075 7076 7077 7136 7141 7214 7269 7394 7405 7406 7408 7409 7417 7418 7448 7458 7459 7472 7473 7478 7480 7483 7484 7488 7503 7585 7586 7593 7607 7608 7609 7610 7620 7625 7634 7683 7757 7764 7811 7837 7897 8001 8030 8038 8056 8058 8063 8064 8066 8067 8084 8091 8092 8095 8105 8123 8125 8127 8129 8130 8131 8134 8144 8145 8155 8157 8158 8163 8168 8175 8311 8322 8480 8748 8791 8793 8935 9187 9283 9294 9295 9296 9297 9298 9299 9300 9301 9302 9303 9304 9305 9306 9307 9308 9309 9310 9311 9312 9313 9314 9315 9316 9317 9318 9319 9320 0
-9321 38 0
-9321 1393 0
-9322 185 0
-9322 852 0
-9323 201 0
-9323 1375 0
-9324 293 0
-9324 909 0
-9325 520 0
-9325 799 0
-9326 572 0
-9326 1114 0
-9327 591 0
-9327 828 0
-9328 602 0
-9328 833 0
-9329 729 0
-9329 1373 0
-9330 807 0
-9330 1040 0
-9331 833 0
-9331 846 0
-9332 1344 0
-9332 1427 0
6991 7012 7015 7065 7075 7076 7077 7136 7214 7394 7405 7406 7408 7409 7417 7418 7448 7459 7473 7480 7483 7487 7488 7550 7586 7593 7604 7607 7608 7609 7610 7622 7634 7667 7674 7724 7762 7764 7809 7811 7837 8056 8058 8063 8064 8066 8067 8091 8092 8094 8096 8109 8116 8125 8127 8129 8130 8131 8134 8139 8144 8145 8150 8154 8155 8157 8158 8163 8165 8168 8170 8172 8175 8320 8322 8461 8480 8791 8793 9294 9297 9299 9300 9303 9304 9305 9306 9307 9308 9310 9312 9318 9319 9320 9321 9322 9323 9324 9325 9326 9327 9328 9329 9330 9331 9332 0
-9333 52 0
-9333 1077 0
-9334 104 0
-9334 1080 0
-9335 240 0
-9335 1153 0
-9336 364 0
-9336 1348 0
-9337 596 0
-9337 675 0
-9338 620 0
-9338 638 0
-9339 638 0
-9339 1118 0
-9340 771 0
-9340 978 0
-9341 898 0
-9341 969 0
-9342 1389 0
-9342 1423 0
7026 7029 7062 7085 7197 7212 7214 7215 7216 7217 7218 7223 7224 7228 7255 7294 7364 7365 7398 7649 7655 7671 7762 7822 7872 7877 7879 7885 7886 7887 7888 7890 7895 7899 7900 7902 7939 7941 7944 7953 7955 7985 7987 7988 8059 8217 8218 8225 8254 8264 8320 8391 8410 8411 8412 8419 8435 8440 8454 8539 8541 8584 8646 8647 8650 8672 8675 8679 8680 8681 8682 8705 8715 8717 8719 8722 8884 8907 8909 8981 8982 8984 8996 9011 9061 9333 9334 9335 9336 9337 9338 9339 9340 9341 9342 0
7026 7029 7062 7085 7197 7212 7214 7215 7216 7217 7218 7222 7223 7224 7228 7255 7294 7364 7365 7398 7649 7655 7671 7762 7822 7872 7877 7879 7885 7886 7887 7888 7890 7899 7900 7902 7939 7941 7944 7953 7955 7985 7987 7988 8203 8217 8218 8225 8254 8264 8320 8391 8410 8411 8412 8419 8435 8440 8454 8539 8541 8584 8646 8647 8650 8672 8675 8679 8680 8681 8682 8705 8717 8719 8722 8883 8884 8907 8909 8936 8954 8981 8982 8984 8996 9011 9333 9334 9335 9336 9340 9341 9342 0
889 620 1165 526 791 978 1209 1371 1205 988 872 1257 989 623 719 1262 967 688 868 1411 708 911 863 1198 803 1004 720 1253 1023 1347 987 614 1153 497 538 1265 1300 1080 1118 1250 603 1181 1076 1263 648 1197 1039 749 774 1207 0
-9343 38 0
-9343 1217 0
-9344 82 0
-9344 1234 0
-9345 174 0
-9345 757 0
-9346 185 0
-9346 859 0
-9347 213 0
-9347 1342 0
-9348 239 0
-9348 614 0
-9349 239 0
-9349 856 0
-9350 239 0
-9350 1171 0
-9351 239 0
-9351 1176 0
-9352 239 0
-9352 1409 0
-9353 255 0
-9353 542 0
-9354 268 0
-9354 720 0
-9355 313 0
-9355 993 0
-9356 343 0
-9356 1064 0
-9357 350 0
-9357 627 0
-9358 548 0
-9358 904 0
-9359 594 0
-9359 1170 0
-9360 614 0
-9360 1106 0
-9361 627 0
-9361 628 0
-9362 654 0
-9362 954 0
-9363 757 0
-9363 888 0
-9364 764 0
-9364 818 0
-9365 921 0
-9365 1370 0
-9366 1024 0
-9366 1042 0
-9367 1108 0
-9367 1110 0
-9368 1277 0
-9368 1280 0
6991 7012 7064 7065 7075 7077 7214 7392 7394 7417 7448 7459 7475 7476 7480 7488 7505 7528 7550 7593 7622 7674 7754 7761 7762 7796 7831 7893 7897 7941 7965 8043 8049 8052 8056 8058 8061 8063 8064 8068 8069 8070 8073 8091 8094 8107 8111 8114 8116 8118 8130 8132 8133 8144 8145 8158 8170 8173 8338 8748 8935 9286 9294 9299 9305 9306 9326 9327 9332 9343 9344 9345 9346 9347 9348 9349 9350 9351 9352 9353 9354 9355 9356 9357 9358 9359 9360 9361 9362 9363 9364 9365 9366 9367 9368 0
-9369 166 0
-9369 614 0
-9370 614 0
-9370 615 0
-9371 1270 0
-9371 1384 0
6991 7012 7064 7065 7077 7117 7214 7392 7394 7417 7418 7448 7459 7475 7476 7480 7487 7488 7528 7550 7622 7754 7761 7796 7831 7893 7965 8001 8049 8056 8058 8061 8062 8063 8064 8068 8069 8070 8091 8098 8111 8114 8116 8118 8127 8129 8130 8132 8133 8135 8144 8151 8158 8170 8171 8173 8175 8257 8289 8322 8466 8920 8935 9286 9294 9299 9302 9305 9306 9317 9325 9326 9327 9332 9344 9345 9347 9349 9350 9351 9352 9353 9354 9355 9357 9358 9361 9364 9365 9367 9368 9369 9370 9371 0
-9372 113 0
-9372 1075 0
-9373 143 0
-9373 1032 0
-9374 179 0
-9374 1187 0
-9375 185 0
-9375 815 0
-9376 185 0
-9376 860 0
-9377 199 0
-9377 1079 0
-9378 274 0
-9378 1092 0
-9379 367 0
-9379 748 0
-9380 495 0
-9380 511 0
-9381 500 0
-9381 591 0
-9382 559 0
-9382 746 0
-9383 567 0
-9383 1075 0
-9384 583 0
-9384 1054 0
-9385 629 0
-9385 841 0
-9386 713 0
-9386 1187 0
-9387 918 0
-9387 1419 0
-9388 1176 0
-9388 1448 0
7022 7023 7024 7047 7192 7222 7224 7304 7355 7358 7366 7367 7369 7370 7376 7380 7383 7384 7388 7389 7390 7392 7395 7396 7398 7431 7436 7438 7442 7485 7487 7488 7490 7622 7716 7718 7720 7723 7725 7727 7728 7729 7731 7732 7756 7758 7766 7784 7788 7800 7802 7839 7847 7848 7937 7976 8119 8266 8304 8341 8351 8362 8475 8545 8653 8742 8758 8763 8764 8769 8770 8772 8775 8778 8787 8788 8791 8794 8798 9182 9206 9285 9287 9288 9301 9346 9372 9373 9374 9375 9376 9377 9378 9379 9380 9381 9382 9383 9384 9385 9386 9387 9388 0
-9389 299 0
-9389 807 0
-9390 523 0
-9390 815 0
-9391 560 0
-9391 596 0
-9392 606 0
-9392 1187 0
-9393 688 0
-9393 859 0
-9394 748 0
-9394 972 0
-9395 918 0
-9395 1075 0
-9396 1091 0
-9396 1145 0
7022 7023 7024 7047 7192 7224 7355 7358 7366 7367 7369 7370 7380 7383 7384 7387 7389 7390 7392 7395 7396 7397 7398 7438 7488 7622 7716 7718 7720 7723 7725 7727 7728 7729 7731 7732 7733 7747 7755 7756 7757 7766 7784 7785 7786 7796 7798 7800 7802 7807 7839 7847 7851 7958 7999 8107 8119 8266 8330 8475 8545 8737 8741 8742 8763 8764 8769 8770 8772 8775 8782 8784 8786 8787 8788 8791 8802 9159 9182 9205 9273 9282 9285 9288 9301 9373 9376 9377 9380 9381 9382 9384 9387 9388 9389 9390 9391 9392 9393 9394 9395 9396 0
663 539 977 920 990 644 1277 500 1002 942 841 1390 987 1092 772 771 943 1161 563 704 1235 859 1079 985 972 667 707 1226 913 1187 988 1009 1023 638 1112 995 650 961 1448 752 1180 802 1243 1032 596 589 1231 0
7331 7333 7574 7709 7856 8115 8184 8185 8187 8234 8281 8376 8397 0
7331 7333 7574 7709 7855 7856 8184 8185 8187 8376 8397 0
-9397 442 0
-9397 1568 0
7332 7569 7572 7575 7772 7856 7859 7933 8186 8502 8819 8913 9076 9088 9397 0
7332 7568 7569 7572 7575 7772 7856 7859 8186 8819 9088 9397 0
1462 1501 1491 1600 1502 1599 1478 1489 0
-9398 387 0
-9398 1481 0
-9399 394 0
-9399 1472 0
-9400 1452 0
-9400 1481 0
7087 7333 7335 7708 7711 7770 8185 8187 8373 8514 8835 8915 9099 9398 9399 9400 0
7708 7711 7859 7860 7960 8186 8234 8379 8402 8820 8834 9091 0
-9401 14 0
-9401 870 0
-9402 20 0
-9402 635 0
-9403 39 0
-9403 883 0
-9404 211 0
-9404 1301 0
-9405 222 0
-9405 1047 0
-9406 223 0
-9406 603 0
-9407 241 0
-9407 1105 0
-9408 276 0
-9408 1105 0
-9409 355 0
-9409 984 0
-9410 405 0
-9410 1467 0
-9411 410 0
-9411 1474 0
-9412 410 0
-9412 1491 0
-9413 455 0
-9413 1548 0
-9414 466 0
-9414 1571 0
-9415 553 0
-9415 971 0
-9416 567 0
-9416 992 0
-9417 603 0
-9417 635 0
-9418 1029 0
-9418 1196 0
-9419 1458 0
-9419 1462 0
-9420 1531 0
-9420 1532 0
7029 7147 7188 7196 7197 7198 7199 7203 7204 7205 7211 7212 7213 7215 7216 7217 7218 7221 7222 7224 7227 7231 7232 7234 7235 7238 7239 7252 7271 7279 7294 7296 7298 7311 7319 7328 7347 7419 7422 7482 7488 7681 7770 7863 7872 7882 7886 7887 7890 7895 7905 7911 7928 7929 7941 7944 7954 7987 7988 8003 8117 8225 8254 8352 8419 8434 8568 8646 8650 8712 8713 8872 9094 9161 9372 9401 9402 9403 9404 9405 9406 9407 9408 9409 9410 9411 9412 9413 9414 9415 9416 9417 9418 9419 9420 0
660 1253 1257 978 511 873 947 875 1205 939 774 596 567 1212 1198 1197 989 1474 1285 791 635 1301 1267 838 497 1571 749 1135 925 924 986 894 648 988 1105 1263 735 0
-9421 94 0
-9421 547 0
-9422 94 0
-9422 914 0
-9423 95 0
-9423 908 0
-9424 137 0
-9424 1084 0
-9425 190 0
-9425 689 0
-9426 299 0
-9426 694 0
-9427 299 0
-9427 966 0
-9428 649 0
-9428 650 0
-9429 695 0
-9429 696 0
-9430 1144 0
-9430 1314 0
7047 7048 7146 7208 7300 7341 7422 7466 7467 7468 7620 7622 7623 7687 7701 7722 7725 7755 7787 7800 7897 7977 8286 8344 8522 8529 8531 8532 8535 8557 8564 8565 8566 8570 8603 8610 8615 8616 8621 8624 8625 8635 8636 8639 8647 8735 8916 8917 8924 8925 8929 8934 8936 8938 8949 8954 9021 9022 9023 9024 9026 9027 9049 9051 9055 9060 9064 9065 9355 9385 9389 9390 9421 9422 9423 9424 9425 9426 9427 9428 9429 9430 0
-9431 914 0
-9431 1328 0
-9432 926 0
-9432 1161 0
-9433 984 0
-9433 985 0
7047 7048 7124 7300 7318 7341 7395 7422 7466 7467 7468 7620 7622 7623 7669 7701 7725 7755 7787 7800 7977 8029 8225 8286 8344 8522 8529 8531 8532 8535 8557 8564 8565 8566 8570 8603 8610 8615 8616 8621 8624 8625 8635 8636 8639 8735 8916 8917 8924 8925 8929 8934 8936 8949 8957 9021 9022 9023 9024 9026 9027 9042 9051 9055 9064 9065 9175 9385 9389 9390 9421 9423 9424 9425 9426 9427 9428 9430 9431 9432 9433 0
-9434 103 0
-9434 1298 0
-9435 239 0
-9435 1150 0
-9436 262 0
-9436 911 0
-9437 270 0
-9437 774 0
-9438 314 0
-9438 1298 0
-9439 359 0
-9439 1164 0
-9440 390 0
-9440 1457 0
-9441 458 0
-9441 1514 0
-9442 502 0
-9442 676 0
-9443 644 0
-9443 648 0
-9444 648 0
-9444 1282 0
-9445 648 0
-9445 1284 0
-9446 683 0
-9446 947 0
-9447 774 0
-9447 1185 0
-9448 938 0
-9448 1158 0
-9449 939 0
-9449 947 0
-9450 982 0
-9450 1322 0
-9451 1132 0
-9451 1444 0
-9452 1333 0
-9452 1395 0
-9453 1457 0
-9453 1507 0
6990 6992 6999 7002 7012 7015 7018 7020 7023 7027 7037 7040 7045 7054 7060 7061 7062 7069 7070 7071 7072 7075 7077 7079 7080 7082 7085 7111 7112 7121 7124 7128 7132 7158 7163 7389 7390 7391 7393 7416 7422 7430 7446 7447 7448 7449 7452 7454 7459 7469 7470 7471 7472 7473 7474 7479 7481 7486 7487 7488 7489 7500 7509 7513 7518 7523 7525 7526 7527 7535 7645 7690 7748 7767 7847 7882 7902 7983 8057 8064 8163 8221 8265 8306 8310 8311 8312 8314 8320 8321 8323 8344 8381 8452 8453 8454 8458 8459 8460 8461 8465 8467 8469 8472 8475 8476 8484 8488 8489 9133 9280 9355 9434 9435 9436 9437 9438 9439 9440 9441 9442 9443 9444 9445 9446 9447 9448 9449 9450 9451 9452 9453 0
-9454 91 0
-9454 1298 0
-9455 93 0
-9455 1185 0
-9456 263 0
-9456 846 0
-9457 449 0
-9457 1514 0
-9458 846 0
-9458 1411 0
-9459 1153 0
-9459 1283 0
-9460 1206 0
-9460 1207 0
6991 6992 7002 7012 7015 7018 7020 7023 7027 7037 7040 7045 7054 7060 7061 7069 7071 7072 7076 7077 7079 7080 7082 7085 7111 7112 7124 7128 7132 7145 7158 7162 7163 7389 7393 7422 7430 7446 7447 7448 7449 7452 7454 7459 7469 7471 7472 7473 7474 7479 7481 7486 7487 7488 7489 7500 7504 7507 7509 7513 7516 7518 7523 7525 7526 7527 7535 7645 7670 7687 7690 7748 7767 7847 7882 7902 7983 8057 8064 8134 8221 8306 8311 8314 8320 8321 8323 8337 8339 8344 8381 8452 8453 8457 8458 8459 8460 8461 8465 8467 8475 8476 8484 8488 8489 8798 9133 9212 9435 9437 9439 9440 9442 9448 9451 9453 9454 9455 9456 9457 9458 9459 9460 0
1059 963 848 1064 1114 1150 1402 1098 1124 554 1199 1298 755 1008 1075 1025 795 955 594 683 941 1444 978 1109 1058 542 1399 939 802 1395 985 1202 803 707 1093 846 1242 1420 774 574 1336 731 986 1003 709 1247 1284 588 972 819 1040 1036 782 569 682 1060 710 512 644 1458 601 857 674 1425 886 938 1282 582 524 829 1067 950 647 799 870 1135 1457 529 914 992 1222 689 1322 783 694 1256 0
-9461 309 0
-9461 743 0
-9462 309 0
-9462 1102 0
-9463 315 0
-9463 1243 0
-9464 395 0
-9464 1487 0
-9465 965 0
-9465 1244 0
-9466 1454 0
-9466 1487 0
-9467 1473 0
-9467 1474 0
7336 7342 7568 7578 7743 7744 7946 8176 8178 8179 8186 8376 8381 8384 8402 8406 8474 8840 8841 8914 9397 9461 9462 9463 9464 9465 9466 9467 0
7336 7342 7568 7578 7743 7744 7772 7946 8176 8178 8179 8186 8376 8385 8402 8406 8474 8840 8841 8914 9397 9461 9462 9463 9465 0
-9468 443 0
-9468 1483 0
-9469 611 0
-9469 762 0
-9470 1102 0
-9470 1118 0
-9471 1458 0
-9471 1519 0
7231 7338 7342 7579 7709 7743 7744 7859 8138 8176 8178 8179 8268 8375 8399 8402 8827 8830 8841 9419 9461 9463 9464 9466 9467 9468 9469 9470 9471 0
7231 7338 7342 7579 7709 7743 7744 7772 7859 8138 8176 8178 8179 8375 8385 8402 8827 8830 8841 8914 9461 9463 9468 9469 9470 0
1462 1488 1519 1597 1493 1602 1487 1474 1504 0
-9472 39 0
-9472 892 0
-9473 79 0
-9473 963 0
-9474 116 0
-9474 654 0
-9475 158 0
-9475 659 0
-9476 204 0
-9476 748 0
-9477 204 0
-9477 751 0
-9478 204 0
-9478 982 0
-9479 207 0
-9479 1311 0
-9480 212 0
-9480 529 0
-9481 212 0
-9481 665 0
-9482 220 0
-9482 1291 0
-9483 241 0
-9483 1145 0
-9484 256 0
-9484 1447 0
-9485 290 0
-9485 1069 0
-9486 327 0
-9486 1087 0
-9487 346 0
-9487 1261 0
-9488 351 0
-9488 1107 0
-9489 531 0
-9489 876 0
-9490 547 0
-9490 961 0
-9491 699 0
-9491 836 0
-9492 836 0
-9492 1334 0
-9493 859 0
-9493 1074 0
-9494 886 0
-9494 966 0
-9495 956 0
-9495 1316 0
7039 7042 7043 7048 7057 7059 7216 7247 7320 7448 7543 7581 7582 7583 7584 7585 7588 7589 7590 7603 7604 7612 7616 7617 7624 7625 7631 7632 7644 7645 7646 7647 7653 7654 7660 7671 7674 7676 7678 7682 7689 7693 7701 7897 7971 7993 8011 8014 8020 8021 8034 8036 8040 8155 8460 8533 8536 8547 8586 9196 9243 9254 9263 9267 9404 9472 9473 9474 9475 9476 9477 9478 9479 9480 9481 9482 9483 9484 9485 9486 9487 9488 9489 9490 9491 9492 9493 9494 9495 0
-9496 876 0
-9496 966 0
7039 7042 7043 7048 7057 7059 7216 7247 7320 7448 7543 7581 7582 7583 7584 7585 7588 7589 7590 7603 7604 7605 7612 7616 7617 7624 7625 7631 7632 7644 7645 7646 7647 7653 7654 7660 7671 7674 7676 7682 7684 7689 7693 7701 7897 7971 7993 8011 8014 8020 8021 8034 8036 8040 8155 8460 8533 8536 8547 8586 9196 9243 9254 9263 9267 9404 9472 9473 9474 9475 9476 9477 9478 9479 9480 9481 9482 9483 9484 9485 9486 9487 9488 9489 9490 9493 9495 9496 0
-9497 402 0
-9497 1472 0
-9498 441 0
-9498 1563 0
-9499 480 0
-9499 1478 0
7263 7946 8987 9163 9237 9497 9498 9499 0
567 1470 1582 1478 1469 1472 1563 1532 0
-9500 112 0
-9500 1331 0
-9501 154 0
-9501 599 0
-9502 399 0
-9502 1528 0
-9503 402 0
-9503 1582 0
-9504 415 0
-9504 1541 0
-9505 438 0
-9505 1534 0
-9506 454 0
-9506 1547 0
-9507 462 0
-9507 1539 0
-9508 465 0
-9508 1470 0
-9509 479 0
-9509 1552 0
-9510 755 0
-9510 1102 0
-9511 1371 0
-9511 1393 0
-9512 1372 0
-9512 1394 0
7231 7263 7447 7448 7707 7781 7918 8176 8179 8181 8201 8448 8449 8522 8821 8868 8912 8967 8970 8972 9113 9163 9463 9498 9500 9501 9502 9503 9504 9505 9506 9507 9508 9509 9510 9511 9512 0
-9513 112 0
-9513 755 0
-9514 420 0
-9514 1557 0
-9515 446 0
-9515 1539 0
-9516 599 0
-9516 756 0
-9517 1555 0
-9517 1556 0
7231 7263 7447 7448 7810 7964 8176 8179 8181 8201 8522 8967 8970 8972 8987 9113 9163 9463 9497 9498 9499 9500 9502 9503 9505 9506 9509 9511 9512 9513 9514 9515 9516 9517 0
-9518 452 0
-9518 1474 0
-9519 467 0
-9519 1555 0
-9520 1552 0
-9520 1553 0
7231 7263 7707 7810 7918 7964 8176 8179 8181 8444 8448 8550 8871 8912 8987 9163 9237 9463 9503 9506 9507 9516 9518 9519 9520 0
-9521 444 0
-9521 1552 0
7231 7263 7781 7964 8176 8177 8179 8181 8448 8550 8871 8987 9163 9237 9463 9503 9506 9507 9514 9518 9519 9521 0
1532 1470 1582 1563 1478 1469 567 1476 0
-9522 4 0
-9522 597 0
-9523 8 0
-9523 1100 0
-9524 31 0
-9524 1383 0
-9525 52 0
-9525 1078 0
-9526 144 0
-9526 813 0
-9527 145 0
-9527 645 0
-9528 181 0
-9528 1287 0
-9529 188 0
-9529 518 0
-9530 188 0
-9530 765 0
-9531 332 0
-9531 806 0
-9532 332 0
-9532 851 0
-9533 352 0
-9533 992 0
-9534 629 0
-9534 1254 0
7023 7384 7385 7390 7391 7395 7463 7467 7619 7620 7623 7725 7731 7733 7734 7746 7776 7822 8029 8030 8084 8322 8522 8525 8528 8531 8532 8535 8592 8602 8615 8618 8636 8916 8917 8923 8925 8930 9015 9018 9025 9038 9064 9068 9117 9175 9421 9522 9523 9524 9525 9526 9527 9528 9529 9530 9531 9532 9533 9534 0
-9535 44 0
-9535 1010 0
-9536 764 0
-9536 765 0
7023 7384 7385 7390 7391 7395 7466 7467 7468 7619 7620 7622 7623 7685 7725 7731 7732 7746 7776 7787 7805 7822 8084 8322 8522 8528 8531 8532 8535 8551 8583 8592 8602 8615 8618 8636 8916 8917 8925 8930 9018 9025 9038 9040 9060 9064 9117 9421 9524 9526 9529 9531 9532 9533 9534 9535 9536 0
-9537 44 0
-9537 595 0
-9538 148 0
-9538 1448 0
-9539 151 0
-9539 608 0
-9540 213 0
-9540 579 0
-9541 222 0
-9541 572 0
-9542 266 0
-9542 560 0
-9543 560 0
-9543 1035 0
-9544 595 0
-9544 988 0
-9545 688 0
-9545 963 0
-9546 854 0
-9546 1327 0
-9547 1007 0
-9547 1008 0
7011 7023 7076 7077 7191 7211 7229 7384 7385 7386 7387 7390 7391 7395 7462 7463 7466 7467 7468 7583 7613 7616 7618 7620 7623 7722 7731 7734 7743 7744 7791 7805 7811 8002 8014 8036 8065 8066 8067 8203 8218 8254 8283 8284 8525 8531 8532 8535 8539 8540 8541 8579 8590 8597 8614 8618 8631 8634 8636 8638 8640 8645 8916 8917 8922 8925 8926 8927 8928 8939 8952 8958 8959 9025 9031 9033 9038 9050 9060 9178 9187 9188 9462 9537 9538 9539 9540 9541 9542 9543 9544 9545 9546 9547 0
-9548 71 0
-9548 1008 0
-9549 88 0
-9549 1008 0
-9550 226 0
-9550 1314 0
-9551 240 0
-9551 906 0
-9552 297 0
-9552 816 0
-9553 301 0
-9553 734 0
-9554 576 0
-9554 1126 0
7011 7076 7191 7211 7384 7385 7386 7387 7390 7391 7395 7462 7465 7466 7467 7468 7469 7619 7620 7622 7623 7685 7722 7731 7733 7743 7744 7776 7787 7791 7811 7992 8036 8065 8066 8067 8132 8217 8218 8254 8264 8283 8284 8522 8525 8531 8535 8539 8540 8541 8561 8579 8583 8584 8612 8614 8618 8626 8634 8636 8638 8640 8645 8916 8917 8922 8926 8927 8928 8942 9025 9031 9038 9050 9058 9061 9175 9188 9304 9430 9535 9538 9540 9541 9548 9549 9550 9551 9552 9553 9554 0
1216 1426 867 1170 572 1247 1254 1008 949 576 523 842 1011 942 1284 821 646 580 806 906 707 595 688 970 898 1314 524 1194 597 792 705 812 566 1211 1398 995 1003 841 1102 1023 968 1335 579 1272 0
7023 7358 7384 7633 7722 8021 8524 8530 8531 8597 8604 8610 8618 8631 8633 8634 8638 8916 8917 9015 9025 9038 9066 9117 9175 9178 9430 9522 9538 0
7023 7358 7384 7633 7722 8522 8524 8530 8531 8551 8597 8604 8610 8618 8634 8638 8640 8916 8917 8922 9025 9038 9050 9060 9117 9178 9430 9538 0
-9555 49 0
-9555 1098 0
-9556 86 0
-9556 1112 0
-9557 115 0
-9557 1133 0
-9558 281 0
-9558 1204 0
-9559 299 0
-9559 822 0
-9560 322 0
-9560 1141 0
-9561 368 0
-9561 970 0
-9562 506 0
-9562 707 0
-9563 592 0
-9563 1198 0
-9564 603 0
-9564 775 0
-9565 613 0
-9565 1256 0
-9566 707 0
-9566 925 0
-9567 1232 0
-9567 1429 0
7022 7024 7047 7211 7355 7361 7366 7367 7369 7370 7371 7378 7380 7382 7383 7384 7387 7388 7389 7390 7391 7392 7394 7395 7396 7399 7405 7406 7407 7408 7409 7414 7416 7417 7418 7422 7426 7432 7438 7443 7483 7487 7488 7718 7720 7723 7728 7729 7747 7748 7749 7750 7751 7755 7756 7757 7760 7764 7765 7766 7776 7800 7807 7825 7839 7847 7852 7977 8119 8152 8361 8741 8742 8775 8786 8800 8803 9036 9159 9182 9205 9279 9282 9290 9301 9379 9381 9386 9389 9391 9555 9556 9557 9558 9559 9560 9561 9562 9563 9564 9565 9566 9567 0
7022 7023 7024 7047 7211 7355 7361 7366 7367 7369 7370 7371 7378 7380 7382 7383 7384 7387 7388 7389 7390 7391 7392 7394 7395 7396 7399 7405 7406 7407 7408 7409 7414 7416 7417 7418 7422 7426 7432 7438 7443 7483 7487 7488 7718 7720 7723 7728 7729 7747 7748 7749 7750 7751 7755 7756 7757 7760 7764 7765 7766 7776 7800 7807 7825 7839 7847 7852 7977 8119 8152 8361 8741 8742 8775 8786 8800 8803 9036 9159 9182 9205 9279 9282 9290 9301 9379 9381 9386 9389 9391 9555 9556 9557 9558 9559 9560 9561 9563 9564 9565 9567 0
1002 704 853 942 1443 1390 511 841 644 977 1123 568 1218 1062 949 695 913 987 708 713 539 582 1112 748 846 925 656 711 802 1429 961 955 1174 1270 915 1141 500 529 596 1208 1198 943 1256 985 1023 506 595 1145 1125 0
-9568 1143 0
-9568 1295 0
-9569 1187 0
-9569 1212 0
7211 7355 7356 7374 7378 7380 7387 7432 7443 7718 7720 7723 7726 7839 7937 8152 8361 8778 8800 8908 9290 9381 9385 9394 9556 9565 9568 9569 0
-9570 347 0
-9570 1002 0
7355 7372 7377 7378 7379 7717 7718 7720 7728 7729 7784 7785 7839 7848 7977 8043 8081 8151 8330 8769 8787 8806 9046 9556 9565 9570 0
1277 1180 920 542 900 1123 704 539 500 1002 977 656 1187 841 700 1256 913 1112 987 943 990 1073 0
-6989 0
