p cnf 6798 24885
1 0
2 0
3 0
4 0
5 0
6 0
7 0
8 0
9 0
10 0
11 0
12 0
13 0
14 0
15 0
16 0
17 0
18 0
19 0
20 0
21 0
22 0
23 0
24 0
25 0
26 0
27 0
28 0
29 0
30 0
31 0
32 0
33 0
34 0
35 0
36 0
37 0
38 0
39 0
40 0
41 0
42 0
43 0
44 0
45 0
46 0
47 0
48 0
49 0
50 0
51 0
52 0
53 0
54 0
55 0
56 0
57 0
58 0
59 0
60 0
61 0
62 0
63 0
64 0
65 0
66 0
67 0
68 0
69 0
70 0
71 0
72 0
73 0
74 0
75 0
76 0
77 0
78 0
79 0
80 0
81 0
82 0
83 0
84 0
85 0
86 0
87 0
88 0
89 0
90 0
91 0
92 0
93 0
94 0
95 0
96 0
97 0
98 0
99 0
100 0
101 0
102 0
103 0
104 0
105 0
106 0
107 0
108 0
109 0
110 0
111 0
112 0
113 0
114 0
115 0
116 0
117 0
118 0
119 0
120 0
121 0
122 0
123 0
124 0
125 0
126 0
127 0
128 0
129 0
130 0
131 0
132 0
133 0
134 0
135 0
136 0
137 0
138 0
139 0
140 0
141 0
142 0
143 0
144 0
145 0
146 0
147 0
148 0
149 0
150 0
151 0
152 0
153 0
154 0
155 0
156 0
157 0
158 0
159 0
160 0
161 0
162 0
163 0
164 0
165 0
166 0
167 0
168 0
169 0
170 0
171 0
172 0
173 0
174 0
175 0
176 0
177 0
178 0
179 0
180 0
181 0
182 0
183 0
184 0
185 0
186 0
187 0
188 0
189 0
190 0
191 0
192 0
193 0
194 0
195 0
196 0
197 0
198 0
199 0
200 0
201 0
202 0
203 0
204 0
205 0
206 0
207 0
208 0
209 0
210 0
211 0
212 0
213 0
214 0
215 0
216 0
217 0
218 0
219 0
220 0
221 0
222 0
223 0
224 0
225 0
226 0
227 0
228 0
229 0
230 0
231 0
232 0
233 0
234 0
235 0
236 0
237 0
238 0
239 0
240 0
241 0
242 0
243 0
244 0
245 0
246 0
247 0
248 0
249 0
250 0
251 0
252 0
253 0
254 0
255 0
256 0
257 0
258 0
259 0
260 0
261 0
262 0
263 0
264 0
265 0
266 0
267 0
268 0
269 0
270 0
271 0
272 0
273 0
274 0
275 0
276 0
277 0
278 0
279 0
280 0
281 0
282 0
283 0
284 0
285 0
286 0
287 0
288 0
289 0
290 0
291 0
292 0
293 0
294 0
295 0
296 0
297 0
298 0
299 0
300 0
301 0
302 0
303 0
304 0
305 0
306 0
307 0
308 0
309 0
310 0
311 0
312 0
313 0
314 0
315 0
316 0
317 0
318 0
319 0
320 0
321 0
322 0
323 0
324 0
325 0
326 0
327 0
328 0
329 0
330 0
331 0
332 0
333 0
334 0
335 0
336 0
337 0
338 0
339 0
340 0
341 0
342 0
343 0
344 0
345 0
346 0
347 0
348 0
349 0
350 0
351 0
352 0
353 0
354 0
355 0
356 0
357 0
358 0
359 0
360 0
361 0
362 0
363 0
364 0
365 0
366 0
367 0
368 0
369 0
370 0
371 0
372 0
373 0
374 0
375 0
376 0
377 0
378 0
379 0
380 0
381 0
382 0
383 0
384 0
385 0
386 0
387 0
388 0
389 0
390 0
391 0
392 0
393 0
394 0
395 0
396 0
397 0
398 0
399 0
400 0
401 0
402 0
403 0
404 0
405 0
406 0
407 0
408 0
409 0
410 0
411 0
412 0
413 0
414 0
415 0
416 0
417 0
418 0
419 0
420 0
421 0
422 0
423 0
424 0
425 0
426 0
427 0
428 0
429 0
430 0
431 0
432 0
433 0
434 0
435 0
436 0
437 0
438 0
439 0
440 0
441 0
442 0
443 0
444 0
445 0
446 0
447 0
448 0
449 0
450 0
451 0
452 0
453 0
454 0
455 0
456 0
457 0
458 0
459 0
460 0
461 0
462 0
463 0
464 0
465 0
466 0
467 0
468 0
469 0
470 0
471 0
472 0
473 0
474 0
475 0
476 0
477 0
478 0
479 0
480 0
481 0
482 0
483 0
484 0
-1161 1094 1104 1136 1142 0
-1162 1099 1163 0
-1162 -1163 1164 0
-1162 1102 -1163 1165 0
-1162 -1165 1166 0
-1162 1107 -1165 1167 0
-1162 -1167 1168 0
-1162 1112 -1167 0
-1162 1102 1164 0
-1162 1107 -1164 1166 0
-1162 1112 -1166 1168 0
-1162 1120 -1168 0
-486 1169 0
-485 1169 0
-485 -486 1170 0
-488 1171 0
-487 1171 0
-487 -488 1172 0
-490 1173 0
-489 1173 0
-489 -490 1174 0
-492 1175 0
-491 1175 0
-491 -492 1176 0
-494 1177 0
-493 1177 0
-493 -494 1178 0
-496 1179 0
-495 1179 0
-495 -496 1180 0
-498 1181 0
-497 1181 0
-497 -498 1182 0
-500 1183 0
-499 1183 0
-499 -500 1184 0
-502 1185 0
-501 1185 0
-501 -502 1186 0
-504 1187 0
-503 1187 0
-503 -504 1188 0
-506 1189 0
-505 1189 0
-505 -506 1190 0
-508 1191 0
-507 1191 0
-507 -508 1192 0
-510 1193 0
-509 1193 0
-509 -510 1194 0
-512 1195 0
-511 1195 0
-511 -512 1196 0
-514 1197 0
-513 1197 0
-513 -514 1198 0
-516 1199 0
-515 1199 0
-515 -516 1200 0
-518 1201 0
-517 1201 0
-517 -518 1202 0
-520 1203 0
-519 1203 0
-519 -520 1204 0
-522 1205 0
-521 1205 0
-521 -522 1206 0
-524 1207 0
-523 1207 0
-523 -524 1208 0
-526 1209 0
-525 1209 0
-525 -526 1210 0
-528 1211 0
-527 1211 0
-527 -528 1212 0
-530 1213 0
-529 1213 0
-529 -530 1214 0
-532 1215 0
-531 1215 0
-531 -532 1216 0
-534 1217 0
-533 1217 0
-533 -534 1218 0
-536 1219 0
-535 1219 0
-535 -536 1220 0
-538 1221 0
-537 1221 0
-537 -538 1222 0
-540 1223 0
-539 1223 0
-539 -540 1224 0
-542 1225 0
-541 1225 0
-541 -542 1226 0
-544 1227 0
-543 1227 0
-543 -544 1228 0
-546 1229 0
-545 1229 0
-545 -546 1230 0
-548 1231 0
-547 1231 0
-547 -548 1232 0
-550 1233 0
-549 1233 0
-549 -550 1234 0
-552 1235 0
-551 1235 0
-551 -552 1236 0
-554 1237 0
-553 1237 0
-553 -554 1238 0
-556 1239 0
-555 1239 0
-555 -556 1240 0
-558 1241 0
-557 1241 0
-557 -558 1242 0
-560 1243 0
-559 1243 0
-559 -560 1244 0
-562 1245 0
-561 1245 0
-561 -562 1246 0
-564 1247 0
-563 1247 0
-563 -564 1248 0
-566 1249 0
-565 1249 0
-565 -566 1250 0
-568 1251 0
-567 1251 0
-567 -568 1252 0
-570 1253 0
-569 1253 0
-569 -570 1254 0
-572 1255 0
-571 1255 0
-571 -572 1256 0
-574 1257 0
-573 1257 0
-573 -574 1258 0
-576 1259 0
-575 1259 0
-575 -576 1260 0
-578 1261 0
-577 1261 0
-577 -578 1262 0
-580 1263 0
-579 1263 0
-579 -580 1264 0
-582 1265 0
-581 1265 0
-581 -582 1266 0
-584 1267 0
-583 1267 0
-583 -584 1268 0
-586 1269 0
-585 1269 0
-585 -586 1270 0
-588 1271 0
-587 1271 0
-587 -588 1272 0
-590 1273 0
-589 1273 0
-589 -590 1274 0
-592 1275 0
-591 1275 0
-591 -592 1276 0
-594 1277 0
-593 1277 0
-593 -594 1278 0
-596 1279 0
-595 1279 0
-595 -596 1280 0
-598 1281 0
-597 1281 0
-597 -598 1282 0
-600 1283 0
-599 1283 0
-599 -600 1284 0
-602 1285 0
-601 1285 0
-601 -602 1286 0
-604 1287 0
-603 1287 0
-603 -604 1288 0
-606 1289 0
-605 1289 0
-605 -606 1290 0
-608 1291 0
-607 1291 0
-607 -608 1292 0
-610 1293 0
-609 1293 0
-609 -610 1294 0
-612 1295 0
-611 1295 0
-611 -612 1296 0
-614 1297 0
-613 1297 0
-613 -614 1298 0
-616 1299 0
-615 1299 0
-615 -616 1300 0
-618 1301 0
-617 1301 0
-617 -618 1302 0
-620 1303 0
-619 1303 0
-619 -620 1304 0
-622 1305 0
-621 1305 0
-621 -622 1306 0
-624 1307 0
-623 1307 0
-623 -624 1308 0
-626 1309 0
-625 1309 0
-625 -626 1310 0
-628 1311 0
-627 1311 0
-627 -628 1312 0
-630 1313 0
-629 1313 0
-629 -630 1314 0
-632 1315 0
-631 1315 0
-631 -632 1316 0
-634 1317 0
-633 1317 0
-633 -634 1318 0
-636 1319 0
-635 1319 0
-635 -636 1320 0
-638 1321 0
-637 1321 0
-637 -638 1322 0
-640 1323 0
-639 1323 0
-639 -640 1324 0
-642 1325 0
-641 1325 0
-641 -642 1326 0
-644 1327 0
-643 1327 0
-643 -644 1328 0
-646 1329 0
-645 1329 0
-645 -646 1330 0
-648 1331 0
-647 1331 0
-647 -648 1332 0
-650 1333 0
-649 1333 0
-649 -650 1334 0
-652 1335 0
-651 1335 0
-651 -652 1336 0
-654 1337 0
-653 1337 0
-653 -654 1338 0
-656 1339 0
-655 1339 0
-655 -656 1340 0
-658 1341 0
-657 1341 0
-657 -658 1342 0
-660 1343 0
-659 1343 0
-659 -660 1344 0
-662 1345 0
-661 1345 0
-661 -662 1346 0
-664 1347 0
-663 1347 0
-663 -664 1348 0
-666 1349 0
-665 1349 0
-665 -666 1350 0
-668 1351 0
-667 1351 0
-667 -668 1352 0
-670 1353 0
-669 1353 0
-669 -670 1354 0
-672 1355 0
-671 1355 0
-671 -672 1356 0
-674 1357 0
-673 1357 0
-673 -674 1358 0
-676 1359 0
-675 1359 0
-675 -676 1360 0
-678 1361 0
-677 1361 0
-677 -678 1362 0
-680 1363 0
-679 1363 0
-679 -680 1364 0
-682 1365 0
-681 1365 0
-681 -682 1366 0
-684 1367 0
-683 1367 0
-683 -684 1368 0
-686 1369 0
-685 1369 0
-685 -686 1370 0
-688 1371 0
-687 1371 0
-687 -688 1372 0
-690 1373 0
-689 1373 0
-689 -690 1374 0
-692 1375 0
-691 1375 0
-691 -692 1376 0
-694 1377 0
-693 1377 0
-693 -694 1378 0
-696 1379 0
-695 1379 0
-695 -696 1380 0
-698 1381 0
-697 1381 0
-697 -698 1382 0
-700 1383 0
-699 1383 0
-699 -700 1384 0
-702 1385 0
-701 1385 0
-701 -702 1386 0
-704 1387 0
-703 1387 0
-703 -704 1388 0
-706 1389 0
-705 1389 0
-705 -706 1390 0
-708 1391 0
-707 1391 0
-707 -708 1392 0
-710 1393 0
-709 1393 0
-709 -710 1394 0
-712 1395 0
-711 1395 0
-711 -712 1396 0
-714 1397 0
-713 1397 0
-713 -714 1398 0
-716 1399 0
-715 1399 0
-715 -716 1400 0
-718 1401 0
-717 1401 0
-717 -718 1402 0
-720 1403 0
-719 1403 0
-719 -720 1404 0
-722 1405 0
-721 1405 0
-721 -722 1406 0
-724 1407 0
-723 1407 0
-723 -724 1408 0
-726 1409 0
-725 1409 0
-725 -726 1410 0
-728 1411 0
-727 1411 0
-727 -728 1412 0
-730 1413 0
-729 1413 0
-729 -730 1414 0
-732 1415 0
-731 1415 0
-731 -732 1416 0
-734 1417 0
-733 1417 0
-733 -734 1418 0
-736 1419 0
-735 1419 0
-735 -736 1420 0
-738 1421 0
-737 1421 0
-737 -738 1422 0
-740 1423 0
-739 1423 0
-739 -740 1424 0
-742 1425 0
-741 1425 0
-741 -742 1426 0
-744 1427 0
-743 1427 0
-743 -744 1428 0
-746 1429 0
-745 1429 0
-745 -746 1430 0
-748 1431 0
-747 1431 0
-747 -748 1432 0
-750 1433 0
-749 1433 0
-749 -750 1434 0
-752 1435 0
-751 1435 0
-751 -752 1436 0
-754 1437 0
-753 1437 0
-753 -754 1438 0
-756 1439 0
-755 1439 0
-755 -756 1440 0
-758 1441 0
-757 1441 0
-757 -758 1442 0
-760 1443 0
-759 1443 0
-759 -760 1444 0
-762 1445 0
-761 1445 0
-761 -762 1446 0
-764 1447 0
-763 1447 0
-763 -764 1448 0
-766 1449 0
-765 1449 0
-765 -766 1450 0
-768 1451 0
-767 1451 0
-767 -768 1452 0
-770 1453 0
-769 1453 0
-769 -770 1454 0
-772 1455 0
-771 1455 0
-771 -772 1456 0
-774 1457 0
-773 1457 0
-773 -774 1458 0
-776 1459 0
-775 1459 0
-775 -776 1460 0
-778 1461 0
-777 1461 0
-777 -778 1462 0
-780 1463 0
-779 1463 0
-779 -780 1464 0
-782 1465 0
-781 1465 0
-781 -782 1466 0
-784 1467 0
-783 1467 0
-783 -784 1468 0
-786 1469 0
-785 1469 0
-785 -786 1470 0
-788 1471 0
-787 1471 0
-787 -788 1472 0
-790 1473 0
-789 1473 0
-789 -790 1474 0
-792 1475 0
-791 1475 0
-791 -792 1476 0
-794 1477 0
-793 1477 0
-793 -794 1478 0
-796 1479 0
-795 1479 0
-795 -796 1480 0
-798 1481 0
-797 1481 0
-797 -798 1482 0
-800 1483 0
-799 1483 0
-799 -800 1484 0
-802 1485 0
-801 1485 0
-801 -802 1486 0
-804 1487 0
-803 1487 0
-803 -804 1488 0
-806 1489 0
-805 1489 0
-805 -806 1490 0
-808 1491 0
-807 1491 0
-807 -808 1492 0
-810 1493 0
-809 1493 0
-809 -810 1494 0
-812 1495 0
-811 1495 0
-811 -812 1496 0
-814 1497 0
-813 1497 0
-813 -814 1498 0
-816 1499 0
-815 1499 0
-815 -816 1500 0
-818 1501 0
-817 1501 0
-817 -818 1502 0
-820 1503 0
-819 1503 0
-819 -820 1504 0
-822 1505 0
-821 1505 0
-821 -822 1506 0
-824 1507 0
-823 1507 0
-823 -824 1508 0
-826 1509 0
-825 1509 0
-825 -826 1510 0
-828 1511 0
-827 1511 0
-827 -828 1512 0
-830 1513 0
-829 1513 0
-829 -830 1514 0
-832 1515 0
-831 1515 0
-831 -832 1516 0
-834 1517 0
-833 1517 0
-833 -834 1518 0
-836 1519 0
-835 1519 0
-835 -836 1520 0
-838 1521 0
-837 1521 0
-837 -838 1522 0
-840 1523 0
-839 1523 0
-839 -840 1524 0
-842 1525 0
-841 1525 0
-841 -842 1526 0
-844 1527 0
-843 1527 0
-843 -844 1528 0
-846 1529 0
-845 1529 0
-845 -846 1530 0
-848 1531 0
-847 1531 0
-847 -848 1532 0
-850 1533 0
-849 1533 0
-849 -850 1534 0
-852 1535 0
-851 1535 0
-851 -852 1536 0
-854 1537 0
-853 1537 0
-853 -854 1538 0
-856 1539 0
-855 1539 0
-855 -856 1540 0
-858 1541 0
-857 1541 0
-857 -858 1542 0
-860 1543 0
-859 1543 0
-859 -860 1544 0
-862 1545 0
-861 1545 0
-861 -862 1546 0
-864 1547 0
-863 1547 0
-863 -864 1548 0
-866 1549 0
-865 1549 0
-865 -866 1550 0
-868 1551 0
-867 1551 0
-867 -868 1552 0
-870 1553 0
-869 1553 0
-869 -870 1554 0
-872 1555 0
-871 1555 0
-871 -872 1556 0
-874 1557 0
-873 1557 0
-873 -874 1558 0
-876 1559 0
-875 1559 0
-875 -876 1560 0
-878 1561 0
-877 1561 0
-877 -878 1562 0
-880 1563 0
-879 1563 0
-879 -880 1564 0
-882 1565 0
-881 1565 0
-881 -882 1566 0
-884 1567 0
-883 1567 0
-883 -884 1568 0
-886 1569 0
-885 1569 0
-885 -886 1570 0
-888 1571 0
-887 1571 0
-887 -888 1572 0
-890 1573 0
-889 1573 0
-889 -890 1574 0
-892 1575 0
-891 1575 0
-891 -892 1576 0
-894 1577 0
-893 1577 0
-893 -894 1578 0
-896 1579 0
-895 1579 0
-895 -896 1580 0
-898 1581 0
-897 1581 0
-897 -898 1582 0
-900 1583 0
-899 1583 0
-899 -900 1584 0
-902 1585 0
-901 1585 0
-901 -902 1586 0
-904 1587 0
-903 1587 0
-903 -904 1588 0
-906 1589 0
-905 1589 0
-905 -906 1590 0
-908 1591 0
-907 1591 0
-907 -908 1592 0
-910 1593 0
-909 1593 0
-909 -910 1594 0
-912 1595 0
-911 1595 0
-911 -912 1596 0
-914 1597 0
-913 1597 0
-913 -914 1598 0
-916 1599 0
-915 1599 0
-915 -916 1600 0
-918 1601 0
-917 1601 0
-917 -918 1602 0
-920 1603 0
-919 1603 0
-919 -920 1604 0
-922 1605 0
-921 1605 0
-921 -922 1606 0
-924 1607 0
-923 1607 0
-923 -924 1608 0
-926 1609 0
-925 1609 0
-925 -926 1610 0
-928 1611 0
-927 1611 0
-927 -928 1612 0
-930 1613 0
-929 1613 0
-929 -930 1614 0
-932 1615 0
-931 1615 0
-931 -932 1616 0
-934 1617 0
-933 1617 0
-933 -934 1618 0
-936 1619 0
-935 1619 0
-935 -936 1620 0
-938 1621 0
-937 1621 0
-937 -938 1622 0
-940 1623 0
-939 1623 0
-939 -940 1624 0
-942 1625 0
-941 1625 0
-941 -942 1626 0
-944 1627 0
-943 1627 0
-943 -944 1628 0
-946 1629 0
-945 1629 0
-945 -946 1630 0
-948 1631 0
-947 1631 0
-947 -948 1632 0
-950 1633 0
-949 1633 0
-949 -950 1634 0
-952 1635 0
-951 1635 0
-951 -952 1636 0
-954 1637 0
-953 1637 0
-953 -954 1638 0
-956 1639 0
-955 1639 0
-955 -956 1640 0
-958 1641 0
-957 1641 0
-957 -958 1642 0
-960 1643 0
-959 1643 0
-959 -960 1644 0
-962 1645 0
-961 1645 0
-961 -962 1646 0
-964 1647 0
-963 1647 0
-963 -964 1648 0
-966 1649 0
-965 1649 0
-965 -966 1650 0
-968 1651 0
-967 1651 0
-967 -968 1652 0
-970 1653 0
-969 1653 0
-969 -970 1654 0
-972 1655 0
-971 1655 0
-971 -972 1656 0
-974 1657 0
-973 1657 0
-973 -974 1658 0
-976 1659 0
-975 1659 0
-975 -976 1660 0
-978 1661 0
-977 1661 0
-977 -978 1662 0
-980 1663 0
-979 1663 0
-979 -980 1664 0
-982 1665 0
-981 1665 0
-981 -982 1666 0
-984 1667 0
-983 1667 0
-983 -984 1668 0
-986 1669 0
-985 1669 0
-985 -986 1670 0
-988 1671 0
-987 1671 0
-987 -988 1672 0
-990 1673 0
-989 1673 0
-989 -990 1674 0
-992 1675 0
-991 1675 0
-991 -992 1676 0
-994 1677 0
-993 1677 0
-993 -994 1678 0
-996 1679 0
-995 1679 0
-995 -996 1680 0
-998 1681 0
-997 1681 0
-997 -998 1682 0
-1000 1683 0
-999 1683 0
-999 -1000 1684 0
-1002 1685 0
-1001 1685 0
-1001 -1002 1686 0
-1004 1687 0
-1003 1687 0
-1003 -1004 1688 0
-1006 1689 0
-1005 1689 0
-1005 -1006 1690 0
-1008 1691 0
-1007 1691 0
-1007 -1008 1692 0
-1010 1693 0
-1009 1693 0
-1009 -1010 1694 0
-1012 1695 0
-1011 1695 0
-1011 -1012 1696 0
-1014 1697 0
-1013 1697 0
-1013 -1014 1698 0
-1016 1699 0
-1015 1699 0
-1015 -1016 1700 0
-1018 1701 0
-1017 1701 0
-1017 -1018 1702 0
-1020 1703 0
-1019 1703 0
-1019 -1020 1704 0
-1022 1705 0
-1021 1705 0
-1021 -1022 1706 0
-1024 1707 0
-1023 1707 0
-1023 -1024 1708 0
-1026 1709 0
-1025 1709 0
-1025 -1026 1710 0
-1028 1711 0
-1027 1711 0
-1027 -1028 1712 0
-1030 1713 0
-1029 1713 0
-1029 -1030 1714 0
-1032 1715 0
-1031 1715 0
-1031 -1032 1716 0
-1034 1717 0
-1033 1717 0
-1033 -1034 1718 0
-1036 1719 0
-1035 1719 0
-1035 -1036 1720 0
-1038 1721 0
-1037 1721 0
-1037 -1038 1722 0
-1040 1723 0
-1039 1723 0
-1039 -1040 1724 0
-1042 1725 0
-1041 1725 0
-1041 -1042 1726 0
-1044 1727 0
-1043 1727 0
-1043 -1044 1728 0
-1046 1729 0
-1045 1729 0
-1045 -1046 1730 0
-1048 1731 0
-1047 1731 0
-1047 -1048 1732 0
-1050 1733 0
-1049 1733 0
-1049 -1050 1734 0
-1052 1735 0
-1051 1735 0
-1051 -1052 1736 0
-1054 1737 0
-1053 1737 0
-1053 -1054 1738 0
-1056 1739 0
-1055 1739 0
-1055 -1056 1740 0
-1058 1741 0
-1057 1741 0
-1057 -1058 1742 0
-1060 1743 0
-1059 1743 0
-1059 -1060 1744 0
-1062 1745 0
-1061 1745 0
-1061 -1062 1746 0
-1064 1747 0
-1063 1747 0
-1063 -1064 1748 0
-1066 1749 0
-1065 1749 0
-1065 -1066 1750 0
-1068 1751 0
-1067 1751 0
-1067 -1068 1752 0
-1070 1753 0
-1069 1753 0
-1069 -1070 1754 0
-1072 1755 0
-1071 1755 0
-1071 -1072 1756 0
-1074 1757 0
-1073 1757 0
-1073 -1074 1758 0
-1076 1759 0
-1075 1759 0
-1075 -1076 1760 0
-1078 1761 0
-1077 1761 0
-1077 -1078 1762 0
-1080 1763 0
-1079 1763 0
-1079 -1080 1764 0
-1082 1765 0
-1081 1765 0
-1081 -1082 1766 0
-1084 1767 0
-1083 1767 0
-1083 -1084 1768 0
-1086 1769 0
-1085 1769 0
-1085 -1086 1770 0
-1088 1771 0
-1087 1771 0
-1087 -1088 1772 0
-1090 1773 0
-1089 1773 0
-1089 -1090 1774 0
-1092 1775 0
-1091 1775 0
-1091 -1092 1776 0
-1094 1777 0
-1093 1777 0
-1093 -1094 1778 0
-1096 1779 0
-1095 1779 0
-1095 -1096 1780 0
-1098 1781 0
-1097 1781 0
-1097 -1098 1782 0
-1100 1783 0
-1099 1783 0
-1099 -1100 1784 0
-1102 1785 0
-1101 1785 0
-1101 -1102 1786 0
-1104 1787 0
-1103 1787 0
-1103 -1104 1788 0
-1106 1789 0
-1105 1789 0
-1105 -1106 1790 0
-1108 1791 0
-1107 1791 0
-1107 -1108 1792 0
-1110 1793 0
-1109 1793 0
-1109 -1110 1794 0
-1112 1795 0
-1111 1795 0
-1111 -1112 1796 0
-1114 1797 0
-1113 1797 0
-1113 -1114 1798 0
-1116 1799 0
-1115 1799 0
-1115 -1116 1800 0
-1118 1801 0
-1117 1801 0
-1117 -1118 1802 0
-1120 1803 0
-1119 1803 0
-1119 -1120 1804 0
-1122 1805 0
-1121 1805 0
-1121 -1122 1806 0
-1124 1807 0
-1123 1807 0
-1123 -1124 1808 0
-1126 1809 0
-1125 1809 0
-1125 -1126 1810 0
-1128 1811 0
-1127 1811 0
-1127 -1128 1812 0
-1130 1813 0
-1129 1813 0
-1129 -1130 1814 0
-1132 1815 0
-1131 1815 0
-1131 -1132 1816 0
-1134 1817 0
-1133 1817 0
-1133 -1134 1818 0
-1136 1819 0
-1135 1819 0
-1135 -1136 1820 0
-1138 1821 0
-1137 1821 0
-1137 -1138 1822 0
-1140 1823 0
-1139 1823 0
-1139 -1140 1824 0
-1142 1825 0
-1141 1825 0
-1141 -1142 1826 0
-1144 1827 0
-1143 1827 0
-1143 -1144 1828 0
-1146 1829 0
-1145 1829 0
-1145 -1146 1830 0
-1148 1831 0
-1147 1831 0
-1147 -1148 1832 0
-1150 1833 0
-1149 1833 0
-1149 -1150 1834 0
-1152 1835 0
-1151 1835 0
-1151 -1152 1836 0
-1154 1837 0
-1153 1837 0
-1153 -1154 1838 0
-1156 1839 0
-1155 1839 0
-1155 -1156 1840 0
-1158 1841 0
-1157 1841 0
-1157 -1158 1842 0
-1160 1843 0
-1159 1843 0
-1159 -1160 1844 0
-1162 1845 0
-1161 1845 0
-1161 -1162 1846 0
-1171 1847 0
-1172 1848 0
-1169 1847 0
-1170 1848 0
-1169 -1171 1848 0
-1169 -1172 1849 0
-1170 -1171 1849 0
-1170 -1172 1850 0
-1175 1851 0
-1176 1852 0
-1173 1851 0
-1174 1852 0
-1173 -1175 1852 0
-1173 -1176 1853 0
-1174 -1175 1853 0
-1174 -1176 1854 0
-1179 1855 0
-1180 1856 0
-1177 1855 0
-1178 1856 0
-1177 -1179 1856 0
-1177 -1180 1857 0
-1178 -1179 1857 0
-1178 -1180 1858 0
-1183 1859 0
-1184 1860 0
-1181 1859 0
-1182 1860 0
-1181 -1183 1860 0
-1181 -1184 1861 0
-1182 -1183 1861 0
-1182 -1184 1862 0
-1187 1863 0
-1188 1864 0
-1185 1863 0
-1186 1864 0
-1185 -1187 1864 0
-1185 -1188 1865 0
-1186 -1187 1865 0
-1186 -1188 1866 0
-1191 1867 0
-1192 1868 0
-1189 1867 0
-1190 1868 0
-1189 -1191 1868 0
-1189 -1192 1869 0
-1190 -1191 1869 0
-1190 -1192 1870 0
-1195 1871 0
-1196 1872 0
-1193 1871 0
-1194 1872 0
-1193 -1195 1872 0
-1193 -1196 1873 0
-1194 -1195 1873 0
-1194 -1196 1874 0
-1199 1875 0
-1200 1876 0
-1197 1875 0
-1198 1876 0
-1197 -1199 1876 0
-1197 -1200 1877 0
-1198 -1199 1877 0
-1198 -1200 1878 0
-1203 1879 0
-1204 1880 0
-1201 1879 0
-1202 1880 0
-1201 -1203 1880 0
-1201 -1204 1881 0
-1202 -1203 1881 0
-1202 -1204 1882 0
-1207 1883 0
-1208 1884 0
-1205 1883 0
-1206 1884 0
-1205 -1207 1884 0
-1205 -1208 1885 0
-1206 -1207 1885 0
-1206 -1208 1886 0
-1211 1887 0
-1212 1888 0
-1209 1887 0
-1210 1888 0
-1209 -1211 1888 0
-1209 -1212 1889 0
-1210 -1211 1889 0
-1210 -1212 1890 0
-1215 1891 0
-1216 1892 0
-1213 1891 0
-1214 1892 0
-1213 -1215 1892 0
-1213 -1216 1893 0
-1214 -1215 1893 0
-1214 -1216 1894 0
-1219 1895 0
-1220 1896 0
-1217 1895 0
-1218 1896 0
-1217 -1219 1896 0
-1217 -1220 1897 0
-1218 -1219 1897 0
-1218 -1220 1898 0
-1223 1899 0
-1224 1900 0
-1221 1899 0
-1222 1900 0
-1221 -1223 1900 0
-1221 -1224 1901 0
-1222 -1223 1901 0
-1222 -1224 1902 0
-1227 1903 0
-1228 1904 0
-1225 1903 0
-1226 1904 0
-1225 -1227 1904 0
-1225 -1228 1905 0
-1226 -1227 1905 0
-1226 -1228 1906 0
-1231 1907 0
-1232 1908 0
-1229 1907 0
-1230 1908 0
-1229 -1231 1908 0
-1229 -1232 1909 0
-1230 -1231 1909 0
-1230 -1232 1910 0
-1235 1911 0
-1236 1912 0
-1233 1911 0
-1234 1912 0
-1233 -1235 1912 0
-1233 -1236 1913 0
-1234 -1235 1913 0
-1234 -1236 1914 0
-1239 1915 0
-1240 1916 0
-1237 1915 0
-1238 1916 0
-1237 -1239 1916 0
-1237 -1240 1917 0
-1238 -1239 1917 0
-1238 -1240 1918 0
-1243 1919 0
-1244 1920 0
-1241 1919 0
-1242 1920 0
-1241 -1243 1920 0
-1241 -1244 1921 0
-1242 -1243 1921 0
-1242 -1244 1922 0
-1247 1923 0
-1248 1924 0
-1245 1923 0
-1246 1924 0
-1245 -1247 1924 0
-1245 -1248 1925 0
-1246 -1247 1925 0
-1246 -1248 1926 0
-1251 1927 0
-1252 1928 0
-1249 1927 0
-1250 1928 0
-1249 -1251 1928 0
-1249 -1252 1929 0
-1250 -1251 1929 0
-1250 -1252 1930 0
-1255 1931 0
-1256 1932 0
-1253 1931 0
-1254 1932 0
-1253 -1255 1932 0
-1253 -1256 1933 0
-1254 -1255 1933 0
-1254 -1256 1934 0
-1259 1935 0
-1260 1936 0
-1257 1935 0
-1258 1936 0
-1257 -1259 1936 0
-1257 -1260 1937 0
-1258 -1259 1937 0
-1258 -1260 1938 0
-1263 1939 0
-1264 1940 0
-1261 1939 0
-1262 1940 0
-1261 -1263 1940 0
-1261 -1264 1941 0
-1262 -1263 1941 0
-1262 -1264 1942 0
-1267 1943 0
-1268 1944 0
-1265 1943 0
-1266 1944 0
-1265 -1267 1944 0
-1265 -1268 1945 0
-1266 -1267 1945 0
-1266 -1268 1946 0
-1271 1947 0
-1272 1948 0
-1269 1947 0
-1270 1948 0
-1269 -1271 1948 0
-1269 -1272 1949 0
-1270 -1271 1949 0
-1270 -1272 1950 0
-1275 1951 0
-1276 1952 0
-1273 1951 0
-1274 1952 0
-1273 -1275 1952 0
-1273 -1276 1953 0
-1274 -1275 1953 0
-1274 -1276 1954 0
-1279 1955 0
-1280 1956 0
-1277 1955 0
-1278 1956 0
-1277 -1279 1956 0
-1277 -1280 1957 0
-1278 -1279 1957 0
-1278 -1280 1958 0
-1283 1959 0
-1284 1960 0
-1281 1959 0
-1282 1960 0
-1281 -1283 1960 0
-1281 -1284 1961 0
-1282 -1283 1961 0
-1282 -1284 1962 0
-1287 1963 0
-1288 1964 0
-1285 1963 0
-1286 1964 0
-1285 -1287 1964 0
-1285 -1288 1965 0
-1286 -1287 1965 0
-1286 -1288 1966 0
-1291 1967 0
-1292 1968 0
-1289 1967 0
-1290 1968 0
-1289 -1291 1968 0
-1289 -1292 1969 0
-1290 -1291 1969 0
-1290 -1292 1970 0
-1295 1971 0
-1296 1972 0
-1293 1971 0
-1294 1972 0
-1293 -1295 1972 0
-1293 -1296 1973 0
-1294 -1295 1973 0
-1294 -1296 1974 0
-1299 1975 0
-1300 1976 0
-1297 1975 0
-1298 1976 0
-1297 -1299 1976 0
-1297 -1300 1977 0
-1298 -1299 1977 0
-1298 -1300 1978 0
-1303 1979 0
-1304 1980 0
-1301 1979 0
-1302 1980 0
-1301 -1303 1980 0
-1301 -1304 1981 0
-1302 -1303 1981 0
-1302 -1304 1982 0
-1307 1983 0
-1308 1984 0
-1305 1983 0
-1306 1984 0
-1305 -1307 1984 0
-1305 -1308 1985 0
-1306 -1307 1985 0
-1306 -1308 1986 0
-1311 1987 0
-1312 1988 0
-1309 1987 0
-1310 1988 0
-1309 -1311 1988 0
-1309 -1312 1989 0
-1310 -1311 1989 0
-1310 -1312 1990 0
-1315 1991 0
-1316 1992 0
-1313 1991 0
-1314 1992 0
-1313 -1315 1992 0
-1313 -1316 1993 0
-1314 -1315 1993 0
-1314 -1316 1994 0
-1319 1995 0
-1320 1996 0
-1317 1995 0
-1318 1996 0
-1317 -1319 1996 0
-1317 -1320 1997 0
-1318 -1319 1997 0
-1318 -1320 1998 0
-1323 1999 0
-1324 2000 0
-1321 1999 0
-1322 2000 0
-1321 -1323 2000 0
-1321 -1324 2001 0
-1322 -1323 2001 0
-1322 -1324 2002 0
-1327 2003 0
-1328 2004 0
-1325 2003 0
-1326 2004 0
-1325 -1327 2004 0
-1325 -1328 2005 0
-1326 -1327 2005 0
-1326 -1328 2006 0
-1331 2007 0
-1332 2008 0
-1329 2007 0
-1330 2008 0
-1329 -1331 2008 0
-1329 -1332 2009 0
-1330 -1331 2009 0
-1330 -1332 2010 0
-1335 2011 0
-1336 2012 0
-1333 2011 0
-1334 2012 0
-1333 -1335 2012 0
-1333 -1336 2013 0
-1334 -1335 2013 0
-1334 -1336 2014 0
-1339 2015 0
-1340 2016 0
-1337 2015 0
-1338 2016 0
-1337 -1339 2016 0
-1337 -1340 2017 0
-1338 -1339 2017 0
-1338 -1340 2018 0
-1343 2019 0
-1344 2020 0
-1341 2019 0
-1342 2020 0
-1341 -1343 2020 0
-1341 -1344 2021 0
-1342 -1343 2021 0
-1342 -1344 2022 0
-1347 2023 0
-1348 2024 0
-1345 2023 0
-1346 2024 0
-1345 -1347 2024 0
-1345 -1348 2025 0
-1346 -1347 2025 0
-1346 -1348 2026 0
-1351 2027 0
-1352 2028 0
-1349 2027 0
-1350 2028 0
-1349 -1351 2028 0
-1349 -1352 2029 0
-1350 -1351 2029 0
-1350 -1352 2030 0
-1355 2031 0
-1356 2032 0
-1353 2031 0
-1354 2032 0
-1353 -1355 2032 0
-1353 -1356 2033 0
-1354 -1355 2033 0
-1354 -1356 2034 0
-1359 2035 0
-1360 2036 0
-1357 2035 0
-1358 2036 0
-1357 -1359 2036 0
-1357 -1360 2037 0
-1358 -1359 2037 0
-1358 -1360 2038 0
-1363 2039 0
-1364 2040 0
-1361 2039 0
-1362 2040 0
-1361 -1363 2040 0
-1361 -1364 2041 0
-1362 -1363 2041 0
-1362 -1364 2042 0
-1367 2043 0
-1368 2044 0
-1365 2043 0
-1366 2044 0
-1365 -1367 2044 0
-1365 -1368 2045 0
-1366 -1367 2045 0
-1366 -1368 2046 0
-1371 2047 0
-1372 2048 0
-1369 2047 0
-1370 2048 0
-1369 -1371 2048 0
-1369 -1372 2049 0
-1370 -1371 2049 0
-1370 -1372 2050 0
-1375 2051 0
-1376 2052 0
-1373 2051 0
-1374 2052 0
-1373 -1375 2052 0
-1373 -1376 2053 0
-1374 -1375 2053 0
-1374 -1376 2054 0
-1379 2055 0
-1380 2056 0
-1377 2055 0
-1378 2056 0
-1377 -1379 2056 0
-1377 -1380 2057 0
-1378 -1379 2057 0
-1378 -1380 2058 0
-1383 2059 0
-1384 2060 0
-1381 2059 0
-1382 2060 0
-1381 -1383 2060 0
-1381 -1384 2061 0
-1382 -1383 2061 0
-1382 -1384 2062 0
-1387 2063 0
-1388 2064 0
-1385 2063 0
-1386 2064 0
-1385 -1387 2064 0
-1385 -1388 2065 0
-1386 -1387 2065 0
-1386 -1388 2066 0
-1391 2067 0
-1392 2068 0
-1389 2067 0
-1390 2068 0
-1389 -1391 2068 0
-1389 -1392 2069 0
-1390 -1391 2069 0
-1390 -1392 2070 0
-1395 2071 0
-1396 2072 0
-1393 2071 0
-1394 2072 0
-1393 -1395 2072 0
-1393 -1396 2073 0
-1394 -1395 2073 0
-1394 -1396 2074 0
-1399 2075 0
-1400 2076 0
-1397 2075 0
-1398 2076 0
-1397 -1399 2076 0
-1397 -1400 2077 0
-1398 -1399 2077 0
-1398 -1400 2078 0
-1403 2079 0
-1404 2080 0
-1401 2079 0
-1402 2080 0
-1401 -1403 2080 0
-1401 -1404 2081 0
-1402 -1403 2081 0
-1402 -1404 2082 0
-1407 2083 0
-1408 2084 0
-1405 2083 0
-1406 2084 0
-1405 -1407 2084 0
-1405 -1408 2085 0
-1406 -1407 2085 0
-1406 -1408 2086 0
-1411 2087 0
-1412 2088 0
-1409 2087 0
-1410 2088 0
-1409 -1411 2088 0
-1409 -1412 2089 0
-1410 -1411 2089 0
-1410 -1412 2090 0
-1415 2091 0
-1416 2092 0
-1413 2091 0
-1414 2092 0
-1413 -1415 2092 0
-1413 -1416 2093 0
-1414 -1415 2093 0
-1414 -1416 2094 0
-1419 2095 0
-1420 2096 0
-1417 2095 0
-1418 2096 0
-1417 -1419 2096 0
-1417 -1420 2097 0
-1418 -1419 2097 0
-1418 -1420 2098 0
-1423 2099 0
-1424 2100 0
-1421 2099 0
-1422 2100 0
-1421 -1423 2100 0
-1421 -1424 2101 0
-1422 -1423 2101 0
-1422 -1424 2102 0
-1427 2103 0
-1428 2104 0
-1425 2103 0
-1426 2104 0
-1425 -1427 2104 0
-1425 -1428 2105 0
-1426 -1427 2105 0
-1426 -1428 2106 0
-1431 2107 0
-1432 2108 0
-1429 2107 0
-1430 2108 0
-1429 -1431 2108 0
-1429 -1432 2109 0
-1430 -1431 2109 0
-1430 -1432 2110 0
-1435 2111 0
-1436 2112 0
-1433 2111 0
-1434 2112 0
-1433 -1435 2112 0
-1433 -1436 2113 0
-1434 -1435 2113 0
-1434 -1436 2114 0
-1439 2115 0
-1440 2116 0
-1437 2115 0
-1438 2116 0
-1437 -1439 2116 0
-1437 -1440 2117 0
-1438 -1439 2117 0
-1438 -1440 2118 0
-1443 2119 0
-1444 2120 0
-1441 2119 0
-1442 2120 0
-1441 -1443 2120 0
-1441 -1444 2121 0
-1442 -1443 2121 0
-1442 -1444 2122 0
-1447 2123 0
-1448 2124 0
-1445 2123 0
-1446 2124 0
-1445 -1447 2124 0
-1445 -1448 2125 0
-1446 -1447 2125 0
-1446 -1448 2126 0
-1451 2127 0
-1452 2128 0
-1449 2127 0
-1450 2128 0
-1449 -1451 2128 0
-1449 -1452 2129 0
-1450 -1451 2129 0
-1450 -1452 2130 0
-1455 2131 0
-1456 2132 0
-1453 2131 0
-1454 2132 0
-1453 -1455 2132 0
-1453 -1456 2133 0
-1454 -1455 2133 0
-1454 -1456 2134 0
-1459 2135 0
-1460 2136 0
-1457 2135 0
-1458 2136 0
-1457 -1459 2136 0
-1457 -1460 2137 0
-1458 -1459 2137 0
-1458 -1460 2138 0
-1463 2139 0
-1464 2140 0
-1461 2139 0
-1462 2140 0
-1461 -1463 2140 0
-1461 -1464 2141 0
-1462 -1463 2141 0
-1462 -1464 2142 0
-1467 2143 0
-1468 2144 0
-1465 2143 0
-1466 2144 0
-1465 -1467 2144 0
-1465 -1468 2145 0
-1466 -1467 2145 0
-1466 -1468 2146 0
-1471 2147 0
-1472 2148 0
-1469 2147 0
-1470 2148 0
-1469 -1471 2148 0
-1469 -1472 2149 0
-1470 -1471 2149 0
-1470 -1472 2150 0
-1475 2151 0
-1476 2152 0
-1473 2151 0
-1474 2152 0
-1473 -1475 2152 0
-1473 -1476 2153 0
-1474 -1475 2153 0
-1474 -1476 2154 0
-1479 2155 0
-1480 2156 0
-1477 2155 0
-1478 2156 0
-1477 -1479 2156 0
-1477 -1480 2157 0
-1478 -1479 2157 0
-1478 -1480 2158 0
-1483 2159 0
-1484 2160 0
-1481 2159 0
-1482 2160 0
-1481 -1483 2160 0
-1481 -1484 2161 0
-1482 -1483 2161 0
-1482 -1484 2162 0
-1487 2163 0
-1488 2164 0
-1485 2163 0
-1486 2164 0
-1485 -1487 2164 0
-1485 -1488 2165 0
-1486 -1487 2165 0
-1486 -1488 2166 0
-1491 2167 0
-1492 2168 0
-1489 2167 0
-1490 2168 0
-1489 -1491 2168 0
-1489 -1492 2169 0
-1490 -1491 2169 0
-1490 -1492 2170 0
-1495 2171 0
-1496 2172 0
-1493 2171 0
-1494 2172 0
-1493 -1495 2172 0
-1493 -1496 2173 0
-1494 -1495 2173 0
-1494 -1496 2174 0
-1499 2175 0
-1500 2176 0
-1497 2175 0
-1498 2176 0
-1497 -1499 2176 0
-1497 -1500 2177 0
-1498 -1499 2177 0
-1498 -1500 2178 0
-1503 2179 0
-1504 2180 0
-1501 2179 0
-1502 2180 0
-1501 -1503 2180 0
-1501 -1504 2181 0
-1502 -1503 2181 0
-1502 -1504 2182 0
-1507 2183 0
-1508 2184 0
-1505 2183 0
-1506 2184 0
-1505 -1507 2184 0
-1505 -1508 2185 0
-1506 -1507 2185 0
-1506 -1508 2186 0
-1511 2187 0
-1512 2188 0
-1509 2187 0
-1510 2188 0
-1509 -1511 2188 0
-1509 -1512 2189 0
-1510 -1511 2189 0
-1510 -1512 2190 0
-1515 2191 0
-1516 2192 0
-1513 2191 0
-1514 2192 0
-1513 -1515 2192 0
-1513 -1516 2193 0
-1514 -1515 2193 0
-1514 -1516 2194 0
-1519 2195 0
-1520 2196 0
-1517 2195 0
-1518 2196 0
-1517 -1519 2196 0
-1517 -1520 2197 0
-1518 -1519 2197 0
-1518 -1520 2198 0
-1523 2199 0
-1524 2200 0
-1521 2199 0
-1522 2200 0
-1521 -1523 2200 0
-1521 -1524 2201 0
-1522 -1523 2201 0
-1522 -1524 2202 0
-1527 2203 0
-1528 2204 0
-1525 2203 0
-1526 2204 0
-1525 -1527 2204 0
-1525 -1528 2205 0
-1526 -1527 2205 0
-1526 -1528 2206 0
-1531 2207 0
-1532 2208 0
-1529 2207 0
-1530 2208 0
-1529 -1531 2208 0
-1529 -1532 2209 0
-1530 -1531 2209 0
-1530 -1532 2210 0
-1535 2211 0
-1536 2212 0
-1533 2211 0
-1534 2212 0
-1533 -1535 2212 0
-1533 -1536 2213 0
-1534 -1535 2213 0
-1534 -1536 2214 0
-1539 2215 0
-1540 2216 0
-1537 2215 0
-1538 2216 0
-1537 -1539 2216 0
-1537 -1540 2217 0
-1538 -1539 2217 0
-1538 -1540 2218 0
-1543 2219 0
-1544 2220 0
-1541 2219 0
-1542 2220 0
-1541 -1543 2220 0
-1541 -1544 2221 0
-1542 -1543 2221 0
-1542 -1544 2222 0
-1547 2223 0
-1548 2224 0
-1545 2223 0
-1546 2224 0
-1545 -1547 2224 0
-1545 -1548 2225 0
-1546 -1547 2225 0
-1546 -1548 2226 0
-1551 2227 0
-1552 2228 0
-1549 2227 0
-1550 2228 0
-1549 -1551 2228 0
-1549 -1552 2229 0
-1550 -1551 2229 0
-1550 -1552 2230 0
-1555 2231 0
-1556 2232 0
-1553 2231 0
-1554 2232 0
-1553 -1555 2232 0
-1553 -1556 2233 0
-1554 -1555 2233 0
-1554 -1556 2234 0
-1559 2235 0
-1560 2236 0
-1557 2235 0
-1558 2236 0
-1557 -1559 2236 0
-1557 -1560 2237 0
-1558 -1559 2237 0
-1558 -1560 2238 0
-1563 2239 0
-1564 2240 0
-1561 2239 0
-1562 2240 0
-1561 -1563 2240 0
-1561 -1564 2241 0
-1562 -1563 2241 0
-1562 -1564 2242 0
-1567 2243 0
-1568 2244 0
-1565 2243 0
-1566 2244 0
-1565 -1567 2244 0
-1565 -1568 2245 0
-1566 -1567 2245 0
-1566 -1568 2246 0
-1571 2247 0
-1572 2248 0
-1569 2247 0
-1570 2248 0
-1569 -1571 2248 0
-1569 -1572 2249 0
-1570 -1571 2249 0
-1570 -1572 2250 0
-1575 2251 0
-1576 2252 0
-1573 2251 0
-1574 2252 0
-1573 -1575 2252 0
-1573 -1576 2253 0
-1574 -1575 2253 0
-1574 -1576 2254 0
-1579 2255 0
-1580 2256 0
-1577 2255 0
-1578 2256 0
-1577 -1579 2256 0
-1577 -1580 2257 0
-1578 -1579 2257 0
-1578 -1580 2258 0
-1583 2259 0
-1584 2260 0
-1581 2259 0
-1582 2260 0
-1581 -1583 2260 0
-1581 -1584 2261 0
-1582 -1583 2261 0
-1582 -1584 2262 0
-1587 2263 0
-1588 2264 0
-1585 2263 0
-1586 2264 0
-1585 -1587 2264 0
-1585 -1588 2265 0
-1586 -1587 2265 0
-1586 -1588 2266 0
-1591 2267 0
-1592 2268 0
-1589 2267 0
-1590 2268 0
-1589 -1591 2268 0
-1589 -1592 2269 0
-1590 -1591 2269 0
-1590 -1592 2270 0
-1595 2271 0
-1596 2272 0
-1593 2271 0
-1594 2272 0
-1593 -1595 2272 0
-1593 -1596 2273 0
-1594 -1595 2273 0
-1594 -1596 2274 0
-1599 2275 0
-1600 2276 0
-1597 2275 0
-1598 2276 0
-1597 -1599 2276 0
-1597 -1600 2277 0
-1598 -1599 2277 0
-1598 -1600 2278 0
-1603 2279 0
-1604 2280 0
-1601 2279 0
-1602 2280 0
-1601 -1603 2280 0
-1601 -1604 2281 0
-1602 -1603 2281 0
-1602 -1604 2282 0
-1607 2283 0
-1608 2284 0
-1605 2283 0
-1606 2284 0
-1605 -1607 2284 0
-1605 -1608 2285 0
-1606 -1607 2285 0
-1606 -1608 2286 0
-1611 2287 0
-1612 2288 0
-1609 2287 0
-1610 2288 0
-1609 -1611 2288 0
-1609 -1612 2289 0
-1610 -1611 2289 0
-1610 -1612 2290 0
-1615 2291 0
-1616 2292 0
-1613 2291 0
-1614 2292 0
-1613 -1615 2292 0
-1613 -1616 2293 0
-1614 -1615 2293 0
-1614 -1616 2294 0
-1619 2295 0
-1620 2296 0
-1617 2295 0
-1618 2296 0
-1617 -1619 2296 0
-1617 -1620 2297 0
-1618 -1619 2297 0
-1618 -1620 2298 0
-1623 2299 0
-1624 2300 0
-1621 2299 0
-1622 2300 0
-1621 -1623 2300 0
-1621 -1624 2301 0
-1622 -1623 2301 0
-1622 -1624 2302 0
-1627 2303 0
-1628 2304 0
-1625 2303 0
-1626 2304 0
-1625 -1627 2304 0
-1625 -1628 2305 0
-1626 -1627 2305 0
-1626 -1628 2306 0
-1631 2307 0
-1632 2308 0
-1629 2307 0
-1630 2308 0
-1629 -1631 2308 0
-1629 -1632 2309 0
-1630 -1631 2309 0
-1630 -1632 2310 0
-1635 2311 0
-1636 2312 0
-1633 2311 0
-1634 2312 0
-1633 -1635 2312 0
-1633 -1636 2313 0
-1634 -1635 2313 0
-1634 -1636 2314 0
-1639 2315 0
-1640 2316 0
-1637 2315 0
-1638 2316 0
-1637 -1639 2316 0
-1637 -1640 2317 0
-1638 -1639 2317 0
-1638 -1640 2318 0
-1643 2319 0
-1644 2320 0
-1641 2319 0
-1642 2320 0
-1641 -1643 2320 0
-1641 -1644 2321 0
-1642 -1643 2321 0
-1642 -1644 2322 0
-1647 2323 0
-1648 2324 0
-1645 2323 0
-1646 2324 0
-1645 -1647 2324 0
-1645 -1648 2325 0
-1646 -1647 2325 0
-1646 -1648 2326 0
-1651 2327 0
-1652 2328 0
-1649 2327 0
-1650 2328 0
-1649 -1651 2328 0
-1649 -1652 2329 0
-1650 -1651 2329 0
-1650 -1652 2330 0
-1655 2331 0
-1656 2332 0
-1653 2331 0
-1654 2332 0
-1653 -1655 2332 0
-1653 -1656 2333 0
-1654 -1655 2333 0
-1654 -1656 2334 0
-1659 2335 0
-1660 2336 0
-1657 2335 0
-1658 2336 0
-1657 -1659 2336 0
-1657 -1660 2337 0
-1658 -1659 2337 0
-1658 -1660 2338 0
-1663 2339 0
-1664 2340 0
-1661 2339 0
-1662 2340 0
-1661 -1663 2340 0
-1661 -1664 2341 0
-1662 -1663 2341 0
-1662 -1664 2342 0
-1667 2343 0
-1668 2344 0
-1665 2343 0
-1666 2344 0
-1665 -1667 2344 0
-1665 -1668 2345 0
-1666 -1667 2345 0
-1666 -1668 2346 0
-1671 2347 0
-1672 2348 0
-1669 2347 0
-1670 2348 0
-1669 -1671 2348 0
-1669 -1672 2349 0
-1670 -1671 2349 0
-1670 -1672 2350 0
-1675 2351 0
-1676 2352 0
-1673 2351 0
-1674 2352 0
-1673 -1675 2352 0
-1673 -1676 2353 0
-1674 -1675 2353 0
-1674 -1676 2354 0
-1679 2355 0
-1680 2356 0
-1677 2355 0
-1678 2356 0
-1677 -1679 2356 0
-1677 -1680 2357 0
-1678 -1679 2357 0
-1678 -1680 2358 0
-1683 2359 0
-1684 2360 0
-1681 2359 0
-1682 2360 0
-1681 -1683 2360 0
-1681 -1684 2361 0
-1682 -1683 2361 0
-1682 -1684 2362 0
-1687 2363 0
-1688 2364 0
-1685 2363 0
-1686 2364 0
-1685 -1687 2364 0
-1685 -1688 2365 0
-1686 -1687 2365 0
-1686 -1688 2366 0
-1691 2367 0
-1692 2368 0
-1689 2367 0
-1690 2368 0
-1689 -1691 2368 0
-1689 -1692 2369 0
-1690 -1691 2369 0
-1690 -1692 2370 0
-1695 2371 0
-1696 2372 0
-1693 2371 0
-1694 2372 0
-1693 -1695 2372 0
-1693 -1696 2373 0
-1694 -1695 2373 0
-1694 -1696 2374 0
-1699 2375 0
-1700 2376 0
-1697 2375 0
-1698 2376 0
-1697 -1699 2376 0
-1697 -1700 2377 0
-1698 -1699 2377 0
-1698 -1700 2378 0
-1703 2379 0
-1704 2380 0
-1701 2379 0
-1702 2380 0
-1701 -1703 2380 0
-1701 -1704 2381 0
-1702 -1703 2381 0
-1702 -1704 2382 0
-1707 2383 0
-1708 2384 0
-1705 2383 0
-1706 2384 0
-1705 -1707 2384 0
-1705 -1708 2385 0
-1706 -1707 2385 0
-1706 -1708 2386 0
-1711 2387 0
-1712 2388 0
-1709 2387 0
-1710 2388 0
-1709 -1711 2388 0
-1709 -1712 2389 0
-1710 -1711 2389 0
-1710 -1712 2390 0
-1715 2391 0
-1716 2392 0
-1713 2391 0
-1714 2392 0
-1713 -1715 2392 0
-1713 -1716 2393 0
-1714 -1715 2393 0
-1714 -1716 2394 0
-1719 2395 0
-1720 2396 0
-1717 2395 0
-1718 2396 0
-1717 -1719 2396 0
-1717 -1720 2397 0
-1718 -1719 2397 0
-1718 -1720 2398 0
-1723 2399 0
-1724 2400 0
-1721 2399 0
-1722 2400 0
-1721 -1723 2400 0
-1721 -1724 2401 0
-1722 -1723 2401 0
-1722 -1724 2402 0
-1727 2403 0
-1728 2404 0
-1725 2403 0
-1726 2404 0
-1725 -1727 2404 0
-1725 -1728 2405 0
-1726 -1727 2405 0
-1726 -1728 2406 0
-1731 2407 0
-1732 2408 0
-1729 2407 0
-1730 2408 0
-1729 -1731 2408 0
-1729 -1732 2409 0
-1730 -1731 2409 0
-1730 -1732 2410 0
-1735 2411 0
-1736 2412 0
-1733 2411 0
-1734 2412 0
-1733 -1735 2412 0
-1733 -1736 2413 0
-1734 -1735 2413 0
-1734 -1736 2414 0
-1739 2415 0
-1740 2416 0
-1737 2415 0
-1738 2416 0
-1737 -1739 2416 0
-1737 -1740 2417 0
-1738 -1739 2417 0
-1738 -1740 2418 0
-1743 2419 0
-1744 2420 0
-1741 2419 0
-1742 2420 0
-1741 -1743 2420 0
-1741 -1744 2421 0
-1742 -1743 2421 0
-1742 -1744 2422 0
-1747 2423 0
-1748 2424 0
-1745 2423 0
-1746 2424 0
-1745 -1747 2424 0
-1745 -1748 2425 0
-1746 -1747 2425 0
-1746 -1748 2426 0
-1751 2427 0
-1752 2428 0
-1749 2427 0
-1750 2428 0
-1749 -1751 2428 0
-1749 -1752 2429 0
-1750 -1751 2429 0
-1750 -1752 2430 0
-1755 2431 0
-1756 2432 0
-1753 2431 0
-1754 2432 0
-1753 -1755 2432 0
-1753 -1756 2433 0
-1754 -1755 2433 0
-1754 -1756 2434 0
-1759 2435 0
-1760 2436 0
-1757 2435 0
-1758 2436 0
-1757 -1759 2436 0
-1757 -1760 2437 0
-1758 -1759 2437 0
-1758 -1760 2438 0
-1763 2439 0
-1764 2440 0
-1761 2439 0
-1762 2440 0
-1761 -1763 2440 0
-1761 -1764 2441 0
-1762 -1763 2441 0
-1762 -1764 2442 0
-1767 2443 0
-1768 2444 0
-1765 2443 0
-1766 2444 0
-1765 -1767 2444 0
-1765 -1768 2445 0
-1766 -1767 2445 0
-1766 -1768 2446 0
-1771 2447 0
-1772 2448 0
-1769 2447 0
-1770 2448 0
-1769 -1771 2448 0
-1769 -1772 2449 0
-1770 -1771 2449 0
-1770 -1772 2450 0
-1775 2451 0
-1776 2452 0
-1773 2451 0
-1774 2452 0
-1773 -1775 2452 0
-1773 -1776 2453 0
-1774 -1775 2453 0
-1774 -1776 2454 0
-1779 2455 0
-1780 2456 0
-1777 2455 0
-1778 2456 0
-1777 -1779 2456 0
-1777 -1780 2457 0
-1778 -1779 2457 0
-1778 -1780 2458 0
-1783 2459 0
-1784 2460 0
-1781 2459 0
-1782 2460 0
-1781 -1783 2460 0
-1781 -1784 2461 0
-1782 -1783 2461 0
-1782 -1784 2462 0
-1787 2463 0
-1788 2464 0
-1785 2463 0
-1786 2464 0
-1785 -1787 2464 0
-1785 -1788 2465 0
-1786 -1787 2465 0
-1786 -1788 2466 0
-1791 2467 0
-1792 2468 0
-1789 2467 0
-1790 2468 0
-1789 -1791 2468 0
-1789 -1792 2469 0
-1790 -1791 2469 0
-1790 -1792 2470 0
-1795 2471 0
-1796 2472 0
-1793 2471 0
-1794 2472 0
-1793 -1795 2472 0
-1793 -1796 2473 0
-1794 -1795 2473 0
-1794 -1796 2474 0
-1799 2475 0
-1800 2476 0
-1797 2475 0
-1798 2476 0
-1797 -1799 2476 0
-1797 -1800 2477 0
-1798 -1799 2477 0
-1798 -1800 2478 0
-1803 2479 0
-1804 2480 0
-1801 2479 0
-1802 2480 0
-1801 -1803 2480 0
-1801 -1804 2481 0
-1802 -1803 2481 0
-1802 -1804 2482 0
-1807 2483 0
-1808 2484 0
-1805 2483 0
-1806 2484 0
-1805 -1807 2484 0
-1805 -1808 2485 0
-1806 -1807 2485 0
-1806 -1808 2486 0
-1811 2487 0
-1812 2488 0
-1809 2487 0
-1810 2488 0
-1809 -1811 2488 0
-1809 -1812 2489 0
-1810 -1811 2489 0
-1810 -1812 2490 0
-1815 2491 0
-1816 2492 0
-1813 2491 0
-1814 2492 0
-1813 -1815 2492 0
-1813 -1816 2493 0
-1814 -1815 2493 0
-1814 -1816 2494 0
-1819 2495 0
-1820 2496 0
-1817 2495 0
-1818 2496 0
-1817 -1819 2496 0
-1817 -1820 2497 0
-1818 -1819 2497 0
-1818 -1820 2498 0
-1823 2499 0
-1824 2500 0
-1821 2499 0
-1822 2500 0
-1821 -1823 2500 0
-1821 -1824 2501 0
-1822 -1823 2501 0
-1822 -1824 2502 0
-1827 2503 0
-1828 2504 0
-1825 2503 0
-1826 2504 0
-1825 -1827 2504 0
-1825 -1828 2505 0
-1826 -1827 2505 0
-1826 -1828 2506 0
-1831 2507 0
-1832 2508 0
-1829 2507 0
-1830 2508 0
-1829 -1831 2508 0
-1829 -1832 2509 0
-1830 -1831 2509 0
-1830 -1832 2510 0
-1835 2511 0
-1836 2512 0
-1833 2511 0
-1834 2512 0
-1833 -1835 2512 0
-1833 -1836 2513 0
-1834 -1835 2513 0
-1834 -1836 2514 0
-1839 2515 0
-1840 2516 0
-1837 2515 0
-1838 2516 0
-1837 -1839 2516 0
-1837 -1840 2517 0
-1838 -1839 2517 0
-1838 -1840 2518 0
-1843 2519 0
-1844 2520 0
-1841 2519 0
-1842 2520 0
-1841 -1843 2520 0
-1841 -1844 2521 0
-1842 -1843 2521 0
-1842 -1844 2522 0
-1847 2523 0
-1848 2524 0
-1849 2525 0
-1850 2526 0
-1845 2523 0
-1846 2524 0
-1845 -1847 2524 0
-1845 -1848 2525 0
-1845 -1849 2526 0
-1845 -1850 2527 0
-1846 -1847 2525 0
-1846 -1848 2526 0
-1846 -1849 2527 0
-1846 -1850 2528 0
-1855 2529 0
-1856 2530 0
-1857 2531 0
-1858 2532 0
-1851 2529 0
-1852 2530 0
-1853 2531 0
-1854 2532 0
-1851 -1855 2530 0
-1851 -1856 2531 0
-1851 -1857 2532 0
-1851 -1858 2533 0
-1852 -1855 2531 0
-1852 -1856 2532 0
-1852 -1857 2533 0
-1852 -1858 2534 0
-1853 -1855 2532 0
-1853 -1856 2533 0
-1853 -1857 2534 0
-1853 -1858 2535 0
-1854 -1855 2533 0
-1854 -1856 2534 0
-1854 -1857 2535 0
-1854 -1858 2536 0
-1863 2537 0
-1864 2538 0
-1865 2539 0
-1866 2540 0
-1859 2537 0
-1860 2538 0
-1861 2539 0
-1862 2540 0
-1859 -1863 2538 0
-1859 -1864 2539 0
-1859 -1865 2540 0
-1859 -1866 2541 0
-1860 -1863 2539 0
-1860 -1864 2540 0
-1860 -1865 2541 0
-1860 -1866 2542 0
-1861 -1863 2540 0
-1861 -1864 2541 0
-1861 -1865 2542 0
-1861 -1866 2543 0
-1862 -1863 2541 0
-1862 -1864 2542 0
-1862 -1865 2543 0
-1862 -1866 2544 0
-1871 2545 0
-1872 2546 0
-1873 2547 0
-1874 2548 0
-1867 2545 0
-1868 2546 0
-1869 2547 0
-1870 2548 0
-1867 -1871 2546 0
-1867 -1872 2547 0
-1867 -1873 2548 0
-1867 -1874 2549 0
-1868 -1871 2547 0
-1868 -1872 2548 0
-1868 -1873 2549 0
-1868 -1874 2550 0
-1869 -1871 2548 0
-1869 -1872 2549 0
-1869 -1873 2550 0
-1869 -1874 2551 0
-1870 -1871 2549 0
-1870 -1872 2550 0
-1870 -1873 2551 0
-1870 -1874 2552 0
-1879 2553 0
-1880 2554 0
-1881 2555 0
-1882 2556 0
-1875 2553 0
-1876 2554 0
-1877 2555 0
-1878 2556 0
-1875 -1879 2554 0
-1875 -1880 2555 0
-1875 -1881 2556 0
-1875 -1882 2557 0
-1876 -1879 2555 0
-1876 -1880 2556 0
-1876 -1881 2557 0
-1876 -1882 2558 0
-1877 -1879 2556 0
-1877 -1880 2557 0
-1877 -1881 2558 0
-1877 -1882 2559 0
-1878 -1879 2557 0
-1878 -1880 2558 0
-1878 -1881 2559 0
-1878 -1882 2560 0
-1887 2561 0
-1888 2562 0
-1889 2563 0
-1890 2564 0
-1883 2561 0
-1884 2562 0
-1885 2563 0
-1886 2564 0
-1883 -1887 2562 0
-1883 -1888 2563 0
-1883 -1889 2564 0
-1883 -1890 2565 0
-1884 -1887 2563 0
-1884 -1888 2564 0
-1884 -1889 2565 0
-1884 -1890 2566 0
-1885 -1887 2564 0
-1885 -1888 2565 0
-1885 -1889 2566 0
-1885 -1890 2567 0
-1886 -1887 2565 0
-1886 -1888 2566 0
-1886 -1889 2567 0
-1886 -1890 2568 0
-1895 2569 0
-1896 2570 0
-1897 2571 0
-1898 2572 0
-1891 2569 0
-1892 2570 0
-1893 2571 0
-1894 2572 0
-1891 -1895 2570 0
-1891 -1896 2571 0
-1891 -1897 2572 0
-1891 -1898 2573 0
-1892 -1895 2571 0
-1892 -1896 2572 0
-1892 -1897 2573 0
-1892 -1898 2574 0
-1893 -1895 2572 0
-1893 -1896 2573 0
-1893 -1897 2574 0
-1893 -1898 2575 0
-1894 -1895 2573 0
-1894 -1896 2574 0
-1894 -1897 2575 0
-1894 -1898 2576 0
-1903 2577 0
-1904 2578 0
-1905 2579 0
-1906 2580 0
-1899 2577 0
-1900 2578 0
-1901 2579 0
-1902 2580 0
-1899 -1903 2578 0
-1899 -1904 2579 0
-1899 -1905 2580 0
-1899 -1906 2581 0
-1900 -1903 2579 0
-1900 -1904 2580 0
-1900 -1905 2581 0
-1900 -1906 2582 0
-1901 -1903 2580 0
-1901 -1904 2581 0
-1901 -1905 2582 0
-1901 -1906 2583 0
-1902 -1903 2581 0
-1902 -1904 2582 0
-1902 -1905 2583 0
-1902 -1906 2584 0
-1911 2585 0
-1912 2586 0
-1913 2587 0
-1914 2588 0
-1907 2585 0
-1908 2586 0
-1909 2587 0
-1910 2588 0
-1907 -1911 2586 0
-1907 -1912 2587 0
-1907 -1913 2588 0
-1907 -1914 2589 0
-1908 -1911 2587 0
-1908 -1912 2588 0
-1908 -1913 2589 0
-1908 -1914 2590 0
-1909 -1911 2588 0
-1909 -1912 2589 0
-1909 -1913 2590 0
-1909 -1914 2591 0
-1910 -1911 2589 0
-1910 -1912 2590 0
-1910 -1913 2591 0
-1910 -1914 2592 0
-1919 2593 0
-1920 2594 0
-1921 2595 0
-1922 2596 0
-1915 2593 0
-1916 2594 0
-1917 2595 0
-1918 2596 0
-1915 -1919 2594 0
-1915 -1920 2595 0
-1915 -1921 2596 0
-1915 -1922 2597 0
-1916 -1919 2595 0
-1916 -1920 2596 0
-1916 -1921 2597 0
-1916 -1922 2598 0
-1917 -1919 2596 0
-1917 -1920 2597 0
-1917 -1921 2598 0
-1917 -1922 2599 0
-1918 -1919 2597 0
-1918 -1920 2598 0
-1918 -1921 2599 0
-1918 -1922 2600 0
-1927 2601 0
-1928 2602 0
-1929 2603 0
-1930 2604 0
-1923 2601 0
-1924 2602 0
-1925 2603 0
-1926 2604 0
-1923 -1927 2602 0
-1923 -1928 2603 0
-1923 -1929 2604 0
-1923 -1930 2605 0
-1924 -1927 2603 0
-1924 -1928 2604 0
-1924 -1929 2605 0
-1924 -1930 2606 0
-1925 -1927 2604 0
-1925 -1928 2605 0
-1925 -1929 2606 0
-1925 -1930 2607 0
-1926 -1927 2605 0
-1926 -1928 2606 0
-1926 -1929 2607 0
-1926 -1930 2608 0
-1935 2609 0
-1936 2610 0
-1937 2611 0
-1938 2612 0
-1931 2609 0
-1932 2610 0
-1933 2611 0
-1934 2612 0
-1931 -1935 2610 0
-1931 -1936 2611 0
-1931 -1937 2612 0
-1931 -1938 2613 0
-1932 -1935 2611 0
-1932 -1936 2612 0
-1932 -1937 2613 0
-1932 -1938 2614 0
-1933 -1935 2612 0
-1933 -1936 2613 0
-1933 -1937 2614 0
-1933 -1938 2615 0
-1934 -1935 2613 0
-1934 -1936 2614 0
-1934 -1937 2615 0
-1934 -1938 2616 0
-1943 2617 0
-1944 2618 0
-1945 2619 0
-1946 2620 0
-1939 2617 0
-1940 2618 0
-1941 2619 0
-1942 2620 0
-1939 -1943 2618 0
-1939 -1944 2619 0
-1939 -1945 2620 0
-1939 -1946 2621 0
-1940 -1943 2619 0
-1940 -1944 2620 0
-1940 -1945 2621 0
-1940 -1946 2622 0
-1941 -1943 2620 0
-1941 -1944 2621 0
-1941 -1945 2622 0
-1941 -1946 2623 0
-1942 -1943 2621 0
-1942 -1944 2622 0
-1942 -1945 2623 0
-1942 -1946 2624 0
-1951 2625 0
-1952 2626 0
-1953 2627 0
-1954 2628 0
-1947 2625 0
-1948 2626 0
-1949 2627 0
-1950 2628 0
-1947 -1951 2626 0
-1947 -1952 2627 0
-1947 -1953 2628 0
-1947 -1954 2629 0
-1948 -1951 2627 0
-1948 -1952 2628 0
-1948 -1953 2629 0
-1948 -1954 2630 0
-1949 -1951 2628 0
-1949 -1952 2629 0
-1949 -1953 2630 0
-1949 -1954 2631 0
-1950 -1951 2629 0
-1950 -1952 2630 0
-1950 -1953 2631 0
-1950 -1954 2632 0
-1959 2633 0
-1960 2634 0
-1961 2635 0
-1962 2636 0
-1955 2633 0
-1956 2634 0
-1957 2635 0
-1958 2636 0
-1955 -1959 2634 0
-1955 -1960 2635 0
-1955 -1961 2636 0
-1955 -1962 2637 0
-1956 -1959 2635 0
-1956 -1960 2636 0
-1956 -1961 2637 0
-1956 -1962 2638 0
-1957 -1959 2636 0
-1957 -1960 2637 0
-1957 -1961 2638 0
-1957 -1962 2639 0
-1958 -1959 2637 0
-1958 -1960 2638 0
-1958 -1961 2639 0
-1958 -1962 2640 0
-1967 2641 0
-1968 2642 0
-1969 2643 0
-1970 2644 0
-1963 2641 0
-1964 2642 0
-1965 2643 0
-1966 2644 0
-1963 -1967 2642 0
-1963 -1968 2643 0
-1963 -1969 2644 0
-1963 -1970 2645 0
-1964 -1967 2643 0
-1964 -1968 2644 0
-1964 -1969 2645 0
-1964 -1970 2646 0
-1965 -1967 2644 0
-1965 -1968 2645 0
-1965 -1969 2646 0
-1965 -1970 2647 0
-1966 -1967 2645 0
-1966 -1968 2646 0
-1966 -1969 2647 0
-1966 -1970 2648 0
-1975 2649 0
-1976 2650 0
-1977 2651 0
-1978 2652 0
-1971 2649 0
-1972 2650 0
-1973 2651 0
-1974 2652 0
-1971 -1975 2650 0
-1971 -1976 2651 0
-1971 -1977 2652 0
-1971 -1978 2653 0
-1972 -1975 2651 0
-1972 -1976 2652 0
-1972 -1977 2653 0
-1972 -1978 2654 0
-1973 -1975 2652 0
-1973 -1976 2653 0
-1973 -1977 2654 0
-1973 -1978 2655 0
-1974 -1975 2653 0
-1974 -1976 2654 0
-1974 -1977 2655 0
-1974 -1978 2656 0
-1983 2657 0
-1984 2658 0
-1985 2659 0
-1986 2660 0
-1979 2657 0
-1980 2658 0
-1981 2659 0
-1982 2660 0
-1979 -1983 2658 0
-1979 -1984 2659 0
-1979 -1985 2660 0
-1979 -1986 2661 0
-1980 -1983 2659 0
-1980 -1984 2660 0
-1980 -1985 2661 0
-1980 -1986 2662 0
-1981 -1983 2660 0
-1981 -1984 2661 0
-1981 -1985 2662 0
-1981 -1986 2663 0
-1982 -1983 2661 0
-1982 -1984 2662 0
-1982 -1985 2663 0
-1982 -1986 2664 0
-1991 2665 0
-1992 2666 0
-1993 2667 0
-1994 2668 0
-1987 2665 0
-1988 2666 0
-1989 2667 0
-1990 2668 0
-1987 -1991 2666 0
-1987 -1992 2667 0
-1987 -1993 2668 0
-1987 -1994 2669 0
-1988 -1991 2667 0
-1988 -1992 2668 0
-1988 -1993 2669 0
-1988 -1994 2670 0
-1989 -1991 2668 0
-1989 -1992 2669 0
-1989 -1993 2670 0
-1989 -1994 2671 0
-1990 -1991 2669 0
-1990 -1992 2670 0
-1990 -1993 2671 0
-1990 -1994 2672 0
-1999 2673 0
-2000 2674 0
-2001 2675 0
-2002 2676 0
-1995 2673 0
-1996 2674 0
-1997 2675 0
-1998 2676 0
-1995 -1999 2674 0
-1995 -2000 2675 0
-1995 -2001 2676 0
-1995 -2002 2677 0
-1996 -1999 2675 0
-1996 -2000 2676 0
-1996 -2001 2677 0
-1996 -2002 2678 0
-1997 -1999 2676 0
-1997 -2000 2677 0
-1997 -2001 2678 0
-1997 -2002 2679 0
-1998 -1999 2677 0
-1998 -2000 2678 0
-1998 -2001 2679 0
-1998 -2002 2680 0
-2007 2681 0
-2008 2682 0
-2009 2683 0
-2010 2684 0
-2003 2681 0
-2004 2682 0
-2005 2683 0
-2006 2684 0
-2003 -2007 2682 0
-2003 -2008 2683 0
-2003 -2009 2684 0
-2003 -2010 2685 0
-2004 -2007 2683 0
-2004 -2008 2684 0
-2004 -2009 2685 0
-2004 -2010 2686 0
-2005 -2007 2684 0
-2005 -2008 2685 0
-2005 -2009 2686 0
-2005 -2010 2687 0
-2006 -2007 2685 0
-2006 -2008 2686 0
-2006 -2009 2687 0
-2006 -2010 2688 0
-2015 2689 0
-2016 2690 0
-2017 2691 0
-2018 2692 0
-2011 2689 0
-2012 2690 0
-2013 2691 0
-2014 2692 0
-2011 -2015 2690 0
-2011 -2016 2691 0
-2011 -2017 2692 0
-2011 -2018 2693 0
-2012 -2015 2691 0
-2012 -2016 2692 0
-2012 -2017 2693 0
-2012 -2018 2694 0
-2013 -2015 2692 0
-2013 -2016 2693 0
-2013 -2017 2694 0
-2013 -2018 2695 0
-2014 -2015 2693 0
-2014 -2016 2694 0
-2014 -2017 2695 0
-2014 -2018 2696 0
-2023 2697 0
-2024 2698 0
-2025 2699 0
-2026 2700 0
-2019 2697 0
-2020 2698 0
-2021 2699 0
-2022 2700 0
-2019 -2023 2698 0
-2019 -2024 2699 0
-2019 -2025 2700 0
-2019 -2026 2701 0
-2020 -2023 2699 0
-2020 -2024 2700 0
-2020 -2025 2701 0
-2020 -2026 2702 0
-2021 -2023 2700 0
-2021 -2024 2701 0
-2021 -2025 2702 0
-2021 -2026 2703 0
-2022 -2023 2701 0
-2022 -2024 2702 0
-2022 -2025 2703 0
-2022 -2026 2704 0
-2031 2705 0
-2032 2706 0
-2033 2707 0
-2034 2708 0
-2027 2705 0
-2028 2706 0
-2029 2707 0
-2030 2708 0
-2027 -2031 2706 0
-2027 -2032 2707 0
-2027 -2033 2708 0
-2027 -2034 2709 0
-2028 -2031 2707 0
-2028 -2032 2708 0
-2028 -2033 2709 0
-2028 -2034 2710 0
-2029 -2031 2708 0
-2029 -2032 2709 0
-2029 -2033 2710 0
-2029 -2034 2711 0
-2030 -2031 2709 0
-2030 -2032 2710 0
-2030 -2033 2711 0
-2030 -2034 2712 0
-2039 2713 0
-2040 2714 0
-2041 2715 0
-2042 2716 0
-2035 2713 0
-2036 2714 0
-2037 2715 0
-2038 2716 0
-2035 -2039 2714 0
-2035 -2040 2715 0
-2035 -2041 2716 0
-2035 -2042 2717 0
-2036 -2039 2715 0
-2036 -2040 2716 0
-2036 -2041 2717 0
-2036 -2042 2718 0
-2037 -2039 2716 0
-2037 -2040 2717 0
-2037 -2041 2718 0
-2037 -2042 2719 0
-2038 -2039 2717 0
-2038 -2040 2718 0
-2038 -2041 2719 0
-2038 -2042 2720 0
-2047 2721 0
-2048 2722 0
-2049 2723 0
-2050 2724 0
-2043 2721 0
-2044 2722 0
-2045 2723 0
-2046 2724 0
-2043 -2047 2722 0
-2043 -2048 2723 0
-2043 -2049 2724 0
-2043 -2050 2725 0
-2044 -2047 2723 0
-2044 -2048 2724 0
-2044 -2049 2725 0
-2044 -2050 2726 0
-2045 -2047 2724 0
-2045 -2048 2725 0
-2045 -2049 2726 0
-2045 -2050 2727 0
-2046 -2047 2725 0
-2046 -2048 2726 0
-2046 -2049 2727 0
-2046 -2050 2728 0
-2055 2729 0
-2056 2730 0
-2057 2731 0
-2058 2732 0
-2051 2729 0
-2052 2730 0
-2053 2731 0
-2054 2732 0
-2051 -2055 2730 0
-2051 -2056 2731 0
-2051 -2057 2732 0
-2051 -2058 2733 0
-2052 -2055 2731 0
-2052 -2056 2732 0
-2052 -2057 2733 0
-2052 -2058 2734 0
-2053 -2055 2732 0
-2053 -2056 2733 0
-2053 -2057 2734 0
-2053 -2058 2735 0
-2054 -2055 2733 0
-2054 -2056 2734 0
-2054 -2057 2735 0
-2054 -2058 2736 0
-2063 2737 0
-2064 2738 0
-2065 2739 0
-2066 2740 0
-2059 2737 0
-2060 2738 0
-2061 2739 0
-2062 2740 0
-2059 -2063 2738 0
-2059 -2064 2739 0
-2059 -2065 2740 0
-2059 -2066 2741 0
-2060 -2063 2739 0
-2060 -2064 2740 0
-2060 -2065 2741 0
-2060 -2066 2742 0
-2061 -2063 2740 0
-2061 -2064 2741 0
-2061 -2065 2742 0
-2061 -2066 2743 0
-2062 -2063 2741 0
-2062 -2064 2742 0
-2062 -2065 2743 0
-2062 -2066 2744 0
-2071 2745 0
-2072 2746 0
-2073 2747 0
-2074 2748 0
-2067 2745 0
-2068 2746 0
-2069 2747 0
-2070 2748 0
-2067 -2071 2746 0
-2067 -2072 2747 0
-2067 -2073 2748 0
-2067 -2074 2749 0
-2068 -2071 2747 0
-2068 -2072 2748 0
-2068 -2073 2749 0
-2068 -2074 2750 0
-2069 -2071 2748 0
-2069 -2072 2749 0
-2069 -2073 2750 0
-2069 -2074 2751 0
-2070 -2071 2749 0
-2070 -2072 2750 0
-2070 -2073 2751 0
-2070 -2074 2752 0
-2079 2753 0
-2080 2754 0
-2081 2755 0
-2082 2756 0
-2075 2753 0
-2076 2754 0
-2077 2755 0
-2078 2756 0
-2075 -2079 2754 0
-2075 -2080 2755 0
-2075 -2081 2756 0
-2075 -2082 2757 0
-2076 -2079 2755 0
-2076 -2080 2756 0
-2076 -2081 2757 0
-2076 -2082 2758 0
-2077 -2079 2756 0
-2077 -2080 2757 0
-2077 -2081 2758 0
-2077 -2082 2759 0
-2078 -2079 2757 0
-2078 -2080 2758 0
-2078 -2081 2759 0
-2078 -2082 2760 0
-2087 2761 0
-2088 2762 0
-2089 2763 0
-2090 2764 0
-2083 2761 0
-2084 2762 0
-2085 2763 0
-2086 2764 0
-2083 -2087 2762 0
-2083 -2088 2763 0
-2083 -2089 2764 0
-2083 -2090 2765 0
-2084 -2087 2763 0
-2084 -2088 2764 0
-2084 -2089 2765 0
-2084 -2090 2766 0
-2085 -2087 2764 0
-2085 -2088 2765 0
-2085 -2089 2766 0
-2085 -2090 2767 0
-2086 -2087 2765 0
-2086 -2088 2766 0
-2086 -2089 2767 0
-2086 -2090 2768 0
-2095 2769 0
-2096 2770 0
-2097 2771 0
-2098 2772 0
-2091 2769 0
-2092 2770 0
-2093 2771 0
-2094 2772 0
-2091 -2095 2770 0
-2091 -2096 2771 0
-2091 -2097 2772 0
-2091 -2098 2773 0
-2092 -2095 2771 0
-2092 -2096 2772 0
-2092 -2097 2773 0
-2092 -2098 2774 0
-2093 -2095 2772 0
-2093 -2096 2773 0
-2093 -2097 2774 0
-2093 -2098 2775 0
-2094 -2095 2773 0
-2094 -2096 2774 0
-2094 -2097 2775 0
-2094 -2098 2776 0
-2103 2777 0
-2104 2778 0
-2105 2779 0
-2106 2780 0
-2099 2777 0
-2100 2778 0
-2101 2779 0
-2102 2780 0
-2099 -2103 2778 0
-2099 -2104 2779 0
-2099 -2105 2780 0
-2099 -2106 2781 0
-2100 -2103 2779 0
-2100 -2104 2780 0
-2100 -2105 2781 0
-2100 -2106 2782 0
-2101 -2103 2780 0
-2101 -2104 2781 0
-2101 -2105 2782 0
-2101 -2106 2783 0
-2102 -2103 2781 0
-2102 -2104 2782 0
-2102 -2105 2783 0
-2102 -2106 2784 0
-2111 2785 0
-2112 2786 0
-2113 2787 0
-2114 2788 0
-2107 2785 0
-2108 2786 0
-2109 2787 0
-2110 2788 0
-2107 -2111 2786 0
-2107 -2112 2787 0
-2107 -2113 2788 0
-2107 -2114 2789 0
-2108 -2111 2787 0
-2108 -2112 2788 0
-2108 -2113 2789 0
-2108 -2114 2790 0
-2109 -2111 2788 0
-2109 -2112 2789 0
-2109 -2113 2790 0
-2109 -2114 2791 0
-2110 -2111 2789 0
-2110 -2112 2790 0
-2110 -2113 2791 0
-2110 -2114 2792 0
-2119 2793 0
-2120 2794 0
-2121 2795 0
-2122 2796 0
-2115 2793 0
-2116 2794 0
-2117 2795 0
-2118 2796 0
-2115 -2119 2794 0
-2115 -2120 2795 0
-2115 -2121 2796 0
-2115 -2122 2797 0
-2116 -2119 2795 0
-2116 -2120 2796 0
-2116 -2121 2797 0
-2116 -2122 2798 0
-2117 -2119 2796 0
-2117 -2120 2797 0
-2117 -2121 2798 0
-2117 -2122 2799 0
-2118 -2119 2797 0
-2118 -2120 2798 0
-2118 -2121 2799 0
-2118 -2122 2800 0
-2127 2801 0
-2128 2802 0
-2129 2803 0
-2130 2804 0
-2123 2801 0
-2124 2802 0
-2125 2803 0
-2126 2804 0
-2123 -2127 2802 0
-2123 -2128 2803 0
-2123 -2129 2804 0
-2123 -2130 2805 0
-2124 -2127 2803 0
-2124 -2128 2804 0
-2124 -2129 2805 0
-2124 -2130 2806 0
-2125 -2127 2804 0
-2125 -2128 2805 0
-2125 -2129 2806 0
-2125 -2130 2807 0
-2126 -2127 2805 0
-2126 -2128 2806 0
-2126 -2129 2807 0
-2126 -2130 2808 0
-2135 2809 0
-2136 2810 0
-2137 2811 0
-2138 2812 0
-2131 2809 0
-2132 2810 0
-2133 2811 0
-2134 2812 0
-2131 -2135 2810 0
-2131 -2136 2811 0
-2131 -2137 2812 0
-2131 -2138 2813 0
-2132 -2135 2811 0
-2132 -2136 2812 0
-2132 -2137 2813 0
-2132 -2138 2814 0
-2133 -2135 2812 0
-2133 -2136 2813 0
-2133 -2137 2814 0
-2133 -2138 2815 0
-2134 -2135 2813 0
-2134 -2136 2814 0
-2134 -2137 2815 0
-2134 -2138 2816 0
-2143 2817 0
-2144 2818 0
-2145 2819 0
-2146 2820 0
-2139 2817 0
-2140 2818 0
-2141 2819 0
-2142 2820 0
-2139 -2143 2818 0
-2139 -2144 2819 0
-2139 -2145 2820 0
-2139 -2146 2821 0
-2140 -2143 2819 0
-2140 -2144 2820 0
-2140 -2145 2821 0
-2140 -2146 2822 0
-2141 -2143 2820 0
-2141 -2144 2821 0
-2141 -2145 2822 0
-2141 -2146 2823 0
-2142 -2143 2821 0
-2142 -2144 2822 0
-2142 -2145 2823 0
-2142 -2146 2824 0
-2151 2825 0
-2152 2826 0
-2153 2827 0
-2154 2828 0
-2147 2825 0
-2148 2826 0
-2149 2827 0
-2150 2828 0
-2147 -2151 2826 0
-2147 -2152 2827 0
-2147 -2153 2828 0
-2147 -2154 2829 0
-2148 -2151 2827 0
-2148 -2152 2828 0
-2148 -2153 2829 0
-2148 -2154 2830 0
-2149 -2151 2828 0
-2149 -2152 2829 0
-2149 -2153 2830 0
-2149 -2154 2831 0
-2150 -2151 2829 0
-2150 -2152 2830 0
-2150 -2153 2831 0
-2150 -2154 2832 0
-2159 2833 0
-2160 2834 0
-2161 2835 0
-2162 2836 0
-2155 2833 0
-2156 2834 0
-2157 2835 0
-2158 2836 0
-2155 -2159 2834 0
-2155 -2160 2835 0
-2155 -2161 2836 0
-2155 -2162 2837 0
-2156 -2159 2835 0
-2156 -2160 2836 0
-2156 -2161 2837 0
-2156 -2162 2838 0
-2157 -2159 2836 0
-2157 -2160 2837 0
-2157 -2161 2838 0
-2157 -2162 2839 0
-2158 -2159 2837 0
-2158 -2160 2838 0
-2158 -2161 2839 0
-2158 -2162 2840 0
-2167 2841 0
-2168 2842 0
-2169 2843 0
-2170 2844 0
-2163 2841 0
-2164 2842 0
-2165 2843 0
-2166 2844 0
-2163 -2167 2842 0
-2163 -2168 2843 0
-2163 -2169 2844 0
-2163 -2170 2845 0
-2164 -2167 2843 0
-2164 -2168 2844 0
-2164 -2169 2845 0
-2164 -2170 2846 0
-2165 -2167 2844 0
-2165 -2168 2845 0
-2165 -2169 2846 0
-2165 -2170 2847 0
-2166 -2167 2845 0
-2166 -2168 2846 0
-2166 -2169 2847 0
-2166 -2170 2848 0
-2175 2849 0
-2176 2850 0
-2177 2851 0
-2178 2852 0
-2171 2849 0
-2172 2850 0
-2173 2851 0
-2174 2852 0
-2171 -2175 2850 0
-2171 -2176 2851 0
-2171 -2177 2852 0
-2171 -2178 2853 0
-2172 -2175 2851 0
-2172 -2176 2852 0
-2172 -2177 2853 0
-2172 -2178 2854 0
-2173 -2175 2852 0
-2173 -2176 2853 0
-2173 -2177 2854 0
-2173 -2178 2855 0
-2174 -2175 2853 0
-2174 -2176 2854 0
-2174 -2177 2855 0
-2174 -2178 2856 0
-2183 2857 0
-2184 2858 0
-2185 2859 0
-2186 2860 0
-2179 2857 0
-2180 2858 0
-2181 2859 0
-2182 2860 0
-2179 -2183 2858 0
-2179 -2184 2859 0
-2179 -2185 2860 0
-2179 -2186 2861 0
-2180 -2183 2859 0
-2180 -2184 2860 0
-2180 -2185 2861 0
-2180 -2186 2862 0
-2181 -2183 2860 0
-2181 -2184 2861 0
-2181 -2185 2862 0
-2181 -2186 2863 0
-2182 -2183 2861 0
-2182 -2184 2862 0
-2182 -2185 2863 0
-2182 -2186 2864 0
-2191 2865 0
-2192 2866 0
-2193 2867 0
-2194 2868 0
-2187 2865 0
-2188 2866 0
-2189 2867 0
-2190 2868 0
-2187 -2191 2866 0
-2187 -2192 2867 0
-2187 -2193 2868 0
-2187 -2194 2869 0
-2188 -2191 2867 0
-2188 -2192 2868 0
-2188 -2193 2869 0
-2188 -2194 2870 0
-2189 -2191 2868 0
-2189 -2192 2869 0
-2189 -2193 2870 0
-2189 -2194 2871 0
-2190 -2191 2869 0
-2190 -2192 2870 0
-2190 -2193 2871 0
-2190 -2194 2872 0
-2199 2873 0
-2200 2874 0
-2201 2875 0
-2202 2876 0
-2195 2873 0
-2196 2874 0
-2197 2875 0
-2198 2876 0
-2195 -2199 2874 0
-2195 -2200 2875 0
-2195 -2201 2876 0
-2195 -2202 2877 0
-2196 -2199 2875 0
-2196 -2200 2876 0
-2196 -2201 2877 0
-2196 -2202 2878 0
-2197 -2199 2876 0
-2197 -2200 2877 0
-2197 -2201 2878 0
-2197 -2202 2879 0
-2198 -2199 2877 0
-2198 -2200 2878 0
-2198 -2201 2879 0
-2198 -2202 2880 0
-2207 2881 0
-2208 2882 0
-2209 2883 0
-2210 2884 0
-2203 2881 0
-2204 2882 0
-2205 2883 0
-2206 2884 0
-2203 -2207 2882 0
-2203 -2208 2883 0
-2203 -2209 2884 0
-2203 -2210 2885 0
-2204 -2207 2883 0
-2204 -2208 2884 0
-2204 -2209 2885 0
-2204 -2210 2886 0
-2205 -2207 2884 0
-2205 -2208 2885 0
-2205 -2209 2886 0
-2205 -2210 2887 0
-2206 -2207 2885 0
-2206 -2208 2886 0
-2206 -2209 2887 0
-2206 -2210 2888 0
-2215 2889 0
-2216 2890 0
-2217 2891 0
-2218 2892 0
-2211 2889 0
-2212 2890 0
-2213 2891 0
-2214 2892 0
-2211 -2215 2890 0
-2211 -2216 2891 0
-2211 -2217 2892 0
-2211 -2218 2893 0
-2212 -2215 2891 0
-2212 -2216 2892 0
-2212 -2217 2893 0
-2212 -2218 2894 0
-2213 -2215 2892 0
-2213 -2216 2893 0
-2213 -2217 2894 0
-2213 -2218 2895 0
-2214 -2215 2893 0
-2214 -2216 2894 0
-2214 -2217 2895 0
-2214 -2218 2896 0
-2223 2897 0
-2224 2898 0
-2225 2899 0
-2226 2900 0
-2219 2897 0
-2220 2898 0
-2221 2899 0
-2222 2900 0
-2219 -2223 2898 0
-2219 -2224 2899 0
-2219 -2225 2900 0
-2219 -2226 2901 0
-2220 -2223 2899 0
-2220 -2224 2900 0
-2220 -2225 2901 0
-2220 -2226 2902 0
-2221 -2223 2900 0
-2221 -2224 2901 0
-2221 -2225 2902 0
-2221 -2226 2903 0
-2222 -2223 2901 0
-2222 -2224 2902 0
-2222 -2225 2903 0
-2222 -2226 2904 0
-2231 2905 0
-2232 2906 0
-2233 2907 0
-2234 2908 0
-2227 2905 0
-2228 2906 0
-2229 2907 0
-2230 2908 0
-2227 -2231 2906 0
-2227 -2232 2907 0
-2227 -2233 2908 0
-2227 -2234 2909 0
-2228 -2231 2907 0
-2228 -2232 2908 0
-2228 -2233 2909 0
-2228 -2234 2910 0
-2229 -2231 2908 0
-2229 -2232 2909 0
-2229 -2233 2910 0
-2229 -2234 2911 0
-2230 -2231 2909 0
-2230 -2232 2910 0
-2230 -2233 2911 0
-2230 -2234 2912 0
-2239 2913 0
-2240 2914 0
-2241 2915 0
-2242 2916 0
-2235 2913 0
-2236 2914 0
-2237 2915 0
-2238 2916 0
-2235 -2239 2914 0
-2235 -2240 2915 0
-2235 -2241 2916 0
-2235 -2242 2917 0
-2236 -2239 2915 0
-2236 -2240 2916 0
-2236 -2241 2917 0
-2236 -2242 2918 0
-2237 -2239 2916 0
-2237 -2240 2917 0
-2237 -2241 2918 0
-2237 -2242 2919 0
-2238 -2239 2917 0
-2238 -2240 2918 0
-2238 -2241 2919 0
-2238 -2242 2920 0
-2247 2921 0
-2248 2922 0
-2249 2923 0
-2250 2924 0
-2243 2921 0
-2244 2922 0
-2245 2923 0
-2246 2924 0
-2243 -2247 2922 0
-2243 -2248 2923 0
-2243 -2249 2924 0
-2243 -2250 2925 0
-2244 -2247 2923 0
-2244 -2248 2924 0
-2244 -2249 2925 0
-2244 -2250 2926 0
-2245 -2247 2924 0
-2245 -2248 2925 0
-2245 -2249 2926 0
-2245 -2250 2927 0
-2246 -2247 2925 0
-2246 -2248 2926 0
-2246 -2249 2927 0
-2246 -2250 2928 0
-2255 2929 0
-2256 2930 0
-2257 2931 0
-2258 2932 0
-2251 2929 0
-2252 2930 0
-2253 2931 0
-2254 2932 0
-2251 -2255 2930 0
-2251 -2256 2931 0
-2251 -2257 2932 0
-2251 -2258 2933 0
-2252 -2255 2931 0
-2252 -2256 2932 0
-2252 -2257 2933 0
-2252 -2258 2934 0
-2253 -2255 2932 0
-2253 -2256 2933 0
-2253 -2257 2934 0
-2253 -2258 2935 0
-2254 -2255 2933 0
-2254 -2256 2934 0
-2254 -2257 2935 0
-2254 -2258 2936 0
-2263 2937 0
-2264 2938 0
-2265 2939 0
-2266 2940 0
-2259 2937 0
-2260 2938 0
-2261 2939 0
-2262 2940 0
-2259 -2263 2938 0
-2259 -2264 2939 0
-2259 -2265 2940 0
-2259 -2266 2941 0
-2260 -2263 2939 0
-2260 -2264 2940 0
-2260 -2265 2941 0
-2260 -2266 2942 0
-2261 -2263 2940 0
-2261 -2264 2941 0
-2261 -2265 2942 0
-2261 -2266 2943 0
-2262 -2263 2941 0
-2262 -2264 2942 0
-2262 -2265 2943 0
-2262 -2266 2944 0
-2271 2945 0
-2272 2946 0
-2273 2947 0
-2274 2948 0
-2267 2945 0
-2268 2946 0
-2269 2947 0
-2270 2948 0
-2267 -2271 2946 0
-2267 -2272 2947 0
-2267 -2273 2948 0
-2267 -2274 2949 0
-2268 -2271 2947 0
-2268 -2272 2948 0
-2268 -2273 2949 0
-2268 -2274 2950 0
-2269 -2271 2948 0
-2269 -2272 2949 0
-2269 -2273 2950 0
-2269 -2274 2951 0
-2270 -2271 2949 0
-2270 -2272 2950 0
-2270 -2273 2951 0
-2270 -2274 2952 0
-2279 2953 0
-2280 2954 0
-2281 2955 0
-2282 2956 0
-2275 2953 0
-2276 2954 0
-2277 2955 0
-2278 2956 0
-2275 -2279 2954 0
-2275 -2280 2955 0
-2275 -2281 2956 0
-2275 -2282 2957 0
-2276 -2279 2955 0
-2276 -2280 2956 0
-2276 -2281 2957 0
-2276 -2282 2958 0
-2277 -2279 2956 0
-2277 -2280 2957 0
-2277 -2281 2958 0
-2277 -2282 2959 0
-2278 -2279 2957 0
-2278 -2280 2958 0
-2278 -2281 2959 0
-2278 -2282 2960 0
-2287 2961 0
-2288 2962 0
-2289 2963 0
-2290 2964 0
-2283 2961 0
-2284 2962 0
-2285 2963 0
-2286 2964 0
-2283 -2287 2962 0
-2283 -2288 2963 0
-2283 -2289 2964 0
-2283 -2290 2965 0
-2284 -2287 2963 0
-2284 -2288 2964 0
-2284 -2289 2965 0
-2284 -2290 2966 0
-2285 -2287 2964 0
-2285 -2288 2965 0
-2285 -2289 2966 0
-2285 -2290 2967 0
-2286 -2287 2965 0
-2286 -2288 2966 0
-2286 -2289 2967 0
-2286 -2290 2968 0
-2295 2969 0
-2296 2970 0
-2297 2971 0
-2298 2972 0
-2291 2969 0
-2292 2970 0
-2293 2971 0
-2294 2972 0
-2291 -2295 2970 0
-2291 -2296 2971 0
-2291 -2297 2972 0
-2291 -2298 2973 0
-2292 -2295 2971 0
-2292 -2296 2972 0
-2292 -2297 2973 0
-2292 -2298 2974 0
-2293 -2295 2972 0
-2293 -2296 2973 0
-2293 -2297 2974 0
-2293 -2298 2975 0
-2294 -2295 2973 0
-2294 -2296 2974 0
-2294 -2297 2975 0
-2294 -2298 2976 0
-2303 2977 0
-2304 2978 0
-2305 2979 0
-2306 2980 0
-2299 2977 0
-2300 2978 0
-2301 2979 0
-2302 2980 0
-2299 -2303 2978 0
-2299 -2304 2979 0
-2299 -2305 2980 0
-2299 -2306 2981 0
-2300 -2303 2979 0
-2300 -2304 2980 0
-2300 -2305 2981 0
-2300 -2306 2982 0
-2301 -2303 2980 0
-2301 -2304 2981 0
-2301 -2305 2982 0
-2301 -2306 2983 0
-2302 -2303 2981 0
-2302 -2304 2982 0
-2302 -2305 2983 0
-2302 -2306 2984 0
-2311 2985 0
-2312 2986 0
-2313 2987 0
-2314 2988 0
-2307 2985 0
-2308 2986 0
-2309 2987 0
-2310 2988 0
-2307 -2311 2986 0
-2307 -2312 2987 0
-2307 -2313 2988 0
-2307 -2314 2989 0
-2308 -2311 2987 0
-2308 -2312 2988 0
-2308 -2313 2989 0
-2308 -2314 2990 0
-2309 -2311 2988 0
-2309 -2312 2989 0
-2309 -2313 2990 0
-2309 -2314 2991 0
-2310 -2311 2989 0
-2310 -2312 2990 0
-2310 -2313 2991 0
-2310 -2314 2992 0
-2319 2993 0
-2320 2994 0
-2321 2995 0
-2322 2996 0
-2315 2993 0
-2316 2994 0
-2317 2995 0
-2318 2996 0
-2315 -2319 2994 0
-2315 -2320 2995 0
-2315 -2321 2996 0
-2315 -2322 2997 0
-2316 -2319 2995 0
-2316 -2320 2996 0
-2316 -2321 2997 0
-2316 -2322 2998 0
-2317 -2319 2996 0
-2317 -2320 2997 0
-2317 -2321 2998 0
-2317 -2322 2999 0
-2318 -2319 2997 0
-2318 -2320 2998 0
-2318 -2321 2999 0
-2318 -2322 3000 0
-2327 3001 0
-2328 3002 0
-2329 3003 0
-2330 3004 0
-2323 3001 0
-2324 3002 0
-2325 3003 0
-2326 3004 0
-2323 -2327 3002 0
-2323 -2328 3003 0
-2323 -2329 3004 0
-2323 -2330 3005 0
-2324 -2327 3003 0
-2324 -2328 3004 0
-2324 -2329 3005 0
-2324 -2330 3006 0
-2325 -2327 3004 0
-2325 -2328 3005 0
-2325 -2329 3006 0
-2325 -2330 3007 0
-2326 -2327 3005 0
-2326 -2328 3006 0
-2326 -2329 3007 0
-2326 -2330 3008 0
-2335 3009 0
-2336 3010 0
-2337 3011 0
-2338 3012 0
-2331 3009 0
-2332 3010 0
-2333 3011 0
-2334 3012 0
-2331 -2335 3010 0
-2331 -2336 3011 0
-2331 -2337 3012 0
-2331 -2338 3013 0
-2332 -2335 3011 0
-2332 -2336 3012 0
-2332 -2337 3013 0
-2332 -2338 3014 0
-2333 -2335 3012 0
-2333 -2336 3013 0
-2333 -2337 3014 0
-2333 -2338 3015 0
-2334 -2335 3013 0
-2334 -2336 3014 0
-2334 -2337 3015 0
-2334 -2338 3016 0
-2343 3017 0
-2344 3018 0
-2345 3019 0
-2346 3020 0
-2339 3017 0
-2340 3018 0
-2341 3019 0
-2342 3020 0
-2339 -2343 3018 0
-2339 -2344 3019 0
-2339 -2345 3020 0
-2339 -2346 3021 0
-2340 -2343 3019 0
-2340 -2344 3020 0
-2340 -2345 3021 0
-2340 -2346 3022 0
-2341 -2343 3020 0
-2341 -2344 3021 0
-2341 -2345 3022 0
-2341 -2346 3023 0
-2342 -2343 3021 0
-2342 -2344 3022 0
-2342 -2345 3023 0
-2342 -2346 3024 0
-2351 3025 0
-2352 3026 0
-2353 3027 0
-2354 3028 0
-2347 3025 0
-2348 3026 0
-2349 3027 0
-2350 3028 0
-2347 -2351 3026 0
-2347 -2352 3027 0
-2347 -2353 3028 0
-2347 -2354 3029 0
-2348 -2351 3027 0
-2348 -2352 3028 0
-2348 -2353 3029 0
-2348 -2354 3030 0
-2349 -2351 3028 0
-2349 -2352 3029 0
-2349 -2353 3030 0
-2349 -2354 3031 0
-2350 -2351 3029 0
-2350 -2352 3030 0
-2350 -2353 3031 0
-2350 -2354 3032 0
-2359 3033 0
-2360 3034 0
-2361 3035 0
-2362 3036 0
-2355 3033 0
-2356 3034 0
-2357 3035 0
-2358 3036 0
-2355 -2359 3034 0
-2355 -2360 3035 0
-2355 -2361 3036 0
-2355 -2362 3037 0
-2356 -2359 3035 0
-2356 -2360 3036 0
-2356 -2361 3037 0
-2356 -2362 3038 0
-2357 -2359 3036 0
-2357 -2360 3037 0
-2357 -2361 3038 0
-2357 -2362 3039 0
-2358 -2359 3037 0
-2358 -2360 3038 0
-2358 -2361 3039 0
-2358 -2362 3040 0
-2367 3041 0
-2368 3042 0
-2369 3043 0
-2370 3044 0
-2363 3041 0
-2364 3042 0
-2365 3043 0
-2366 3044 0
-2363 -2367 3042 0
-2363 -2368 3043 0
-2363 -2369 3044 0
-2363 -2370 3045 0
-2364 -2367 3043 0
-2364 -2368 3044 0
-2364 -2369 3045 0
-2364 -2370 3046 0
-2365 -2367 3044 0
-2365 -2368 3045 0
-2365 -2369 3046 0
-2365 -2370 3047 0
-2366 -2367 3045 0
-2366 -2368 3046 0
-2366 -2369 3047 0
-2366 -2370 3048 0
-2375 3049 0
-2376 3050 0
-2377 3051 0
-2378 3052 0
-2371 3049 0
-2372 3050 0
-2373 3051 0
-2374 3052 0
-2371 -2375 3050 0
-2371 -2376 3051 0
-2371 -2377 3052 0
-2371 -2378 3053 0
-2372 -2375 3051 0
-2372 -2376 3052 0
-2372 -2377 3053 0
-2372 -2378 3054 0
-2373 -2375 3052 0
-2373 -2376 3053 0
-2373 -2377 3054 0
-2373 -2378 3055 0
-2374 -2375 3053 0
-2374 -2376 3054 0
-2374 -2377 3055 0
-2374 -2378 3056 0
-2383 3057 0
-2384 3058 0
-2385 3059 0
-2386 3060 0
-2379 3057 0
-2380 3058 0
-2381 3059 0
-2382 3060 0
-2379 -2383 3058 0
-2379 -2384 3059 0
-2379 -2385 3060 0
-2379 -2386 3061 0
-2380 -2383 3059 0
-2380 -2384 3060 0
-2380 -2385 3061 0
-2380 -2386 3062 0
-2381 -2383 3060 0
-2381 -2384 3061 0
-2381 -2385 3062 0
-2381 -2386 3063 0
-2382 -2383 3061 0
-2382 -2384 3062 0
-2382 -2385 3063 0
-2382 -2386 3064 0
-2391 3065 0
-2392 3066 0
-2393 3067 0
-2394 3068 0
-2387 3065 0
-2388 3066 0
-2389 3067 0
-2390 3068 0
-2387 -2391 3066 0
-2387 -2392 3067 0
-2387 -2393 3068 0
-2387 -2394 3069 0
-2388 -2391 3067 0
-2388 -2392 3068 0
-2388 -2393 3069 0
-2388 -2394 3070 0
-2389 -2391 3068 0
-2389 -2392 3069 0
-2389 -2393 3070 0
-2389 -2394 3071 0
-2390 -2391 3069 0
-2390 -2392 3070 0
-2390 -2393 3071 0
-2390 -2394 3072 0
-2399 3073 0
-2400 3074 0
-2401 3075 0
-2402 3076 0
-2395 3073 0
-2396 3074 0
-2397 3075 0
-2398 3076 0
-2395 -2399 3074 0
-2395 -2400 3075 0
-2395 -2401 3076 0
-2395 -2402 3077 0
-2396 -2399 3075 0
-2396 -2400 3076 0
-2396 -2401 3077 0
-2396 -2402 3078 0
-2397 -2399 3076 0
-2397 -2400 3077 0
-2397 -2401 3078 0
-2397 -2402 3079 0
-2398 -2399 3077 0
-2398 -2400 3078 0
-2398 -2401 3079 0
-2398 -2402 3080 0
-2407 3081 0
-2408 3082 0
-2409 3083 0
-2410 3084 0
-2403 3081 0
-2404 3082 0
-2405 3083 0
-2406 3084 0
-2403 -2407 3082 0
-2403 -2408 3083 0
-2403 -2409 3084 0
-2403 -2410 3085 0
-2404 -2407 3083 0
-2404 -2408 3084 0
-2404 -2409 3085 0
-2404 -2410 3086 0
-2405 -2407 3084 0
-2405 -2408 3085 0
-2405 -2409 3086 0
-2405 -2410 3087 0
-2406 -2407 3085 0
-2406 -2408 3086 0
-2406 -2409 3087 0
-2406 -2410 3088 0
-2415 3089 0
-2416 3090 0
-2417 3091 0
-2418 3092 0
-2411 3089 0
-2412 3090 0
-2413 3091 0
-2414 3092 0
-2411 -2415 3090 0
-2411 -2416 3091 0
-2411 -2417 3092 0
-2411 -2418 3093 0
-2412 -2415 3091 0
-2412 -2416 3092 0
-2412 -2417 3093 0
-2412 -2418 3094 0
-2413 -2415 3092 0
-2413 -2416 3093 0
-2413 -2417 3094 0
-2413 -2418 3095 0
-2414 -2415 3093 0
-2414 -2416 3094 0
-2414 -2417 3095 0
-2414 -2418 3096 0
-2423 3097 0
-2424 3098 0
-2425 3099 0
-2426 3100 0
-2419 3097 0
-2420 3098 0
-2421 3099 0
-2422 3100 0
-2419 -2423 3098 0
-2419 -2424 3099 0
-2419 -2425 3100 0
-2419 -2426 3101 0
-2420 -2423 3099 0
-2420 -2424 3100 0
-2420 -2425 3101 0
-2420 -2426 3102 0
-2421 -2423 3100 0
-2421 -2424 3101 0
-2421 -2425 3102 0
-2421 -2426 3103 0
-2422 -2423 3101 0
-2422 -2424 3102 0
-2422 -2425 3103 0
-2422 -2426 3104 0
-2431 3105 0
-2432 3106 0
-2433 3107 0
-2434 3108 0
-2427 3105 0
-2428 3106 0
-2429 3107 0
-2430 3108 0
-2427 -2431 3106 0
-2427 -2432 3107 0
-2427 -2433 3108 0
-2427 -2434 3109 0
-2428 -2431 3107 0
-2428 -2432 3108 0
-2428 -2433 3109 0
-2428 -2434 3110 0
-2429 -2431 3108 0
-2429 -2432 3109 0
-2429 -2433 3110 0
-2429 -2434 3111 0
-2430 -2431 3109 0
-2430 -2432 3110 0
-2430 -2433 3111 0
-2430 -2434 3112 0
-2439 3113 0
-2440 3114 0
-2441 3115 0
-2442 3116 0
-2435 3113 0
-2436 3114 0
-2437 3115 0
-2438 3116 0
-2435 -2439 3114 0
-2435 -2440 3115 0
-2435 -2441 3116 0
-2435 -2442 3117 0
-2436 -2439 3115 0
-2436 -2440 3116 0
-2436 -2441 3117 0
-2436 -2442 3118 0
-2437 -2439 3116 0
-2437 -2440 3117 0
-2437 -2441 3118 0
-2437 -2442 3119 0
-2438 -2439 3117 0
-2438 -2440 3118 0
-2438 -2441 3119 0
-2438 -2442 3120 0
-2447 3121 0
-2448 3122 0
-2449 3123 0
-2450 3124 0
-2443 3121 0
-2444 3122 0
-2445 3123 0
-2446 3124 0
-2443 -2447 3122 0
-2443 -2448 3123 0
-2443 -2449 3124 0
-2443 -2450 3125 0
-2444 -2447 3123 0
-2444 -2448 3124 0
-2444 -2449 3125 0
-2444 -2450 3126 0
-2445 -2447 3124 0
-2445 -2448 3125 0
-2445 -2449 3126 0
-2445 -2450 3127 0
-2446 -2447 3125 0
-2446 -2448 3126 0
-2446 -2449 3127 0
-2446 -2450 3128 0
-2455 3129 0
-2456 3130 0
-2457 3131 0
-2458 3132 0
-2451 3129 0
-2452 3130 0
-2453 3131 0
-2454 3132 0
-2451 -2455 3130 0
-2451 -2456 3131 0
-2451 -2457 3132 0
-2451 -2458 3133 0
-2452 -2455 3131 0
-2452 -2456 3132 0
-2452 -2457 3133 0
-2452 -2458 3134 0
-2453 -2455 3132 0
-2453 -2456 3133 0
-2453 -2457 3134 0
-2453 -2458 3135 0
-2454 -2455 3133 0
-2454 -2456 3134 0
-2454 -2457 3135 0
-2454 -2458 3136 0
-2463 3137 0
-2464 3138 0
-2465 3139 0
-2466 3140 0
-2459 3137 0
-2460 3138 0
-2461 3139 0
-2462 3140 0
-2459 -2463 3138 0
-2459 -2464 3139 0
-2459 -2465 3140 0
-2459 -2466 3141 0
-2460 -2463 3139 0
-2460 -2464 3140 0
-2460 -2465 3141 0
-2460 -2466 3142 0
-2461 -2463 3140 0
-2461 -2464 3141 0
-2461 -2465 3142 0
-2461 -2466 3143 0
-2462 -2463 3141 0
-2462 -2464 3142 0
-2462 -2465 3143 0
-2462 -2466 3144 0
-2471 3145 0
-2472 3146 0
-2473 3147 0
-2474 3148 0
-2467 3145 0
-2468 3146 0
-2469 3147 0
-2470 3148 0
-2467 -2471 3146 0
-2467 -2472 3147 0
-2467 -2473 3148 0
-2467 -2474 3149 0
-2468 -2471 3147 0
-2468 -2472 3148 0
-2468 -2473 3149 0
-2468 -2474 3150 0
-2469 -2471 3148 0
-2469 -2472 3149 0
-2469 -2473 3150 0
-2469 -2474 3151 0
-2470 -2471 3149 0
-2470 -2472 3150 0
-2470 -2473 3151 0
-2470 -2474 3152 0
-2479 3153 0
-2480 3154 0
-2481 3155 0
-2482 3156 0
-2475 3153 0
-2476 3154 0
-2477 3155 0
-2478 3156 0
-2475 -2479 3154 0
-2475 -2480 3155 0
-2475 -2481 3156 0
-2475 -2482 3157 0
-2476 -2479 3155 0
-2476 -2480 3156 0
-2476 -2481 3157 0
-2476 -2482 3158 0
-2477 -2479 3156 0
-2477 -2480 3157 0
-2477 -2481 3158 0
-2477 -2482 3159 0
-2478 -2479 3157 0
-2478 -2480 3158 0
-2478 -2481 3159 0
-2478 -2482 3160 0
-2487 3161 0
-2488 3162 0
-2489 3163 0
-2490 3164 0
-2483 3161 0
-2484 3162 0
-2485 3163 0
-2486 3164 0
-2483 -2487 3162 0
-2483 -2488 3163 0
-2483 -2489 3164 0
-2483 -2490 3165 0
-2484 -2487 3163 0
-2484 -2488 3164 0
-2484 -2489 3165 0
-2484 -2490 3166 0
-2485 -2487 3164 0
-2485 -2488 3165 0
-2485 -2489 3166 0
-2485 -2490 3167 0
-2486 -2487 3165 0
-2486 -2488 3166 0
-2486 -2489 3167 0
-2486 -2490 3168 0
-2495 3169 0
-2496 3170 0
-2497 3171 0
-2498 3172 0
-2491 3169 0
-2492 3170 0
-2493 3171 0
-2494 3172 0
-2491 -2495 3170 0
-2491 -2496 3171 0
-2491 -2497 3172 0
-2491 -2498 3173 0
-2492 -2495 3171 0
-2492 -2496 3172 0
-2492 -2497 3173 0
-2492 -2498 3174 0
-2493 -2495 3172 0
-2493 -2496 3173 0
-2493 -2497 3174 0
-2493 -2498 3175 0
-2494 -2495 3173 0
-2494 -2496 3174 0
-2494 -2497 3175 0
-2494 -2498 3176 0
-2503 3177 0
-2504 3178 0
-2505 3179 0
-2506 3180 0
-2499 3177 0
-2500 3178 0
-2501 3179 0
-2502 3180 0
-2499 -2503 3178 0
-2499 -2504 3179 0
-2499 -2505 3180 0
-2499 -2506 3181 0
-2500 -2503 3179 0
-2500 -2504 3180 0
-2500 -2505 3181 0
-2500 -2506 3182 0
-2501 -2503 3180 0
-2501 -2504 3181 0
-2501 -2505 3182 0
-2501 -2506 3183 0
-2502 -2503 3181 0
-2502 -2504 3182 0
-2502 -2505 3183 0
-2502 -2506 3184 0
-2511 3185 0
-2512 3186 0
-2513 3187 0
-2514 3188 0
-2507 3185 0
-2508 3186 0
-2509 3187 0
-2510 3188 0
-2507 -2511 3186 0
-2507 -2512 3187 0
-2507 -2513 3188 0
-2507 -2514 3189 0
-2508 -2511 3187 0
-2508 -2512 3188 0
-2508 -2513 3189 0
-2508 -2514 3190 0
-2509 -2511 3188 0
-2509 -2512 3189 0
-2509 -2513 3190 0
-2509 -2514 3191 0
-2510 -2511 3189 0
-2510 -2512 3190 0
-2510 -2513 3191 0
-2510 -2514 3192 0
-2519 3193 0
-2520 3194 0
-2521 3195 0
-2522 3196 0
-2515 3193 0
-2516 3194 0
-2517 3195 0
-2518 3196 0
-2515 -2519 3194 0
-2515 -2520 3195 0
-2515 -2521 3196 0
-2515 -2522 3197 0
-2516 -2519 3195 0
-2516 -2520 3196 0
-2516 -2521 3197 0
-2516 -2522 3198 0
-2517 -2519 3196 0
-2517 -2520 3197 0
-2517 -2521 3198 0
-2517 -2522 3199 0
-2518 -2519 3197 0
-2518 -2520 3198 0
-2518 -2521 3199 0
-2518 -2522 3200 0
-2529 3201 0
-2530 3202 0
-2531 3203 0
-2532 3204 0
-2533 3205 0
-2534 3206 0
-2535 3207 0
-2536 3208 0
-2523 3201 0
-2524 3202 0
-2525 3203 0
-2526 3204 0
-2527 3205 0
-2528 3206 0
-2523 -2529 3202 0
-2523 -2530 3203 0
-2523 -2531 3204 0
-2523 -2532 3205 0
-2523 -2533 3206 0
-2523 -2534 3207 0
-2523 -2535 3208 0
-2523 -2536 3209 0
-2524 -2529 3203 0
-2524 -2530 3204 0
-2524 -2531 3205 0
-2524 -2532 3206 0
-2524 -2533 3207 0
-2524 -2534 3208 0
-2524 -2535 3209 0
-2524 -2536 3210 0
-2525 -2529 3204 0
-2525 -2530 3205 0
-2525 -2531 3206 0
-2525 -2532 3207 0
-2525 -2533 3208 0
-2525 -2534 3209 0
-2525 -2535 3210 0
-2525 -2536 3211 0
-2526 -2529 3205 0
-2526 -2530 3206 0
-2526 -2531 3207 0
-2526 -2532 3208 0
-2526 -2533 3209 0
-2526 -2534 3210 0
-2526 -2535 3211 0
-2526 -2536 3212 0
-2527 -2529 3206 0
-2527 -2530 3207 0
-2527 -2531 3208 0
-2527 -2532 3209 0
-2527 -2533 3210 0
-2527 -2534 3211 0
-2527 -2535 3212 0
-2527 -2536 3213 0
-2528 -2529 3207 0
-2528 -2530 3208 0
-2528 -2531 3209 0
-2528 -2532 3210 0
-2528 -2533 3211 0
-2528 -2534 3212 0
-2528 -2535 3213 0
-2528 -2536 3214 0
-2545 3215 0
-2546 3216 0
-2547 3217 0
-2548 3218 0
-2549 3219 0
-2550 3220 0
-2551 3221 0
-2552 3222 0
-2537 3215 0
-2538 3216 0
-2539 3217 0
-2540 3218 0
-2541 3219 0
-2542 3220 0
-2543 3221 0
-2544 3222 0
-2537 -2545 3216 0
-2537 -2546 3217 0
-2537 -2547 3218 0
-2537 -2548 3219 0
-2537 -2549 3220 0
-2537 -2550 3221 0
-2537 -2551 3222 0
-2537 -2552 3223 0
-2538 -2545 3217 0
-2538 -2546 3218 0
-2538 -2547 3219 0
-2538 -2548 3220 0
-2538 -2549 3221 0
-2538 -2550 3222 0
-2538 -2551 3223 0
-2538 -2552 3224 0
-2539 -2545 3218 0
-2539 -2546 3219 0
-2539 -2547 3220 0
-2539 -2548 3221 0
-2539 -2549 3222 0
-2539 -2550 3223 0
-2539 -2551 3224 0
-2539 -2552 3225 0
-2540 -2545 3219 0
-2540 -2546 3220 0
-2540 -2547 3221 0
-2540 -2548 3222 0
-2540 -2549 3223 0
-2540 -2550 3224 0
-2540 -2551 3225 0
-2540 -2552 3226 0
-2541 -2545 3220 0
-2541 -2546 3221 0
-2541 -2547 3222 0
-2541 -2548 3223 0
-2541 -2549 3224 0
-2541 -2550 3225 0
-2541 -2551 3226 0
-2541 -2552 3227 0
-2542 -2545 3221 0
-2542 -2546 3222 0
-2542 -2547 3223 0
-2542 -2548 3224 0
-2542 -2549 3225 0
-2542 -2550 3226 0
-2542 -2551 3227 0
-2542 -2552 3228 0
-2543 -2545 3222 0
-2543 -2546 3223 0
-2543 -2547 3224 0
-2543 -2548 3225 0
-2543 -2549 3226 0
-2543 -2550 3227 0
-2543 -2551 3228 0
-2543 -2552 3229 0
-2544 -2545 3223 0
-2544 -2546 3224 0
-2544 -2547 3225 0
-2544 -2548 3226 0
-2544 -2549 3227 0
-2544 -2550 3228 0
-2544 -2551 3229 0
-2544 -2552 3230 0
-2561 3231 0
-2562 3232 0
-2563 3233 0
-2564 3234 0
-2565 3235 0
-2566 3236 0
-2567 3237 0
-2568 3238 0
-2553 3231 0
-2554 3232 0
-2555 3233 0
-2556 3234 0
-2557 3235 0
-2558 3236 0
-2559 3237 0
-2560 3238 0
-2553 -2561 3232 0
-2553 -2562 3233 0
-2553 -2563 3234 0
-2553 -2564 3235 0
-2553 -2565 3236 0
-2553 -2566 3237 0
-2553 -2567 3238 0
-2553 -2568 3239 0
-2554 -2561 3233 0
-2554 -2562 3234 0
-2554 -2563 3235 0
-2554 -2564 3236 0
-2554 -2565 3237 0
-2554 -2566 3238 0
-2554 -2567 3239 0
-2554 -2568 3240 0
-2555 -2561 3234 0
-2555 -2562 3235 0
-2555 -2563 3236 0
-2555 -2564 3237 0
-2555 -2565 3238 0
-2555 -2566 3239 0
-2555 -2567 3240 0
-2555 -2568 3241 0
-2556 -2561 3235 0
-2556 -2562 3236 0
-2556 -2563 3237 0
-2556 -2564 3238 0
-2556 -2565 3239 0
-2556 -2566 3240 0
-2556 -2567 3241 0
-2556 -2568 3242 0
-2557 -2561 3236 0
-2557 -2562 3237 0
-2557 -2563 3238 0
-2557 -2564 3239 0
-2557 -2565 3240 0
-2557 -2566 3241 0
-2557 -2567 3242 0
-2557 -2568 3243 0
-2558 -2561 3237 0
-2558 -2562 3238 0
-2558 -2563 3239 0
-2558 -2564 3240 0
-2558 -2565 3241 0
-2558 -2566 3242 0
-2558 -2567 3243 0
-2558 -2568 3244 0
-2559 -2561 3238 0
-2559 -2562 3239 0
-2559 -2563 3240 0
-2559 -2564 3241 0
-2559 -2565 3242 0
-2559 -2566 3243 0
-2559 -2567 3244 0
-2559 -2568 3245 0
-2560 -2561 3239 0
-2560 -2562 3240 0
-2560 -2563 3241 0
-2560 -2564 3242 0
-2560 -2565 3243 0
-2560 -2566 3244 0
-2560 -2567 3245 0
-2560 -2568 3246 0
-2577 3247 0
-2578 3248 0
-2579 3249 0
-2580 3250 0
-2581 3251 0
-2582 3252 0
-2583 3253 0
-2584 3254 0
-2569 3247 0
-2570 3248 0
-2571 3249 0
-2572 3250 0
-2573 3251 0
-2574 3252 0
-2575 3253 0
-2576 3254 0
-2569 -2577 3248 0
-2569 -2578 3249 0
-2569 -2579 3250 0
-2569 -2580 3251 0
-2569 -2581 3252 0
-2569 -2582 3253 0
-2569 -2583 3254 0
-2569 -2584 3255 0
-2570 -2577 3249 0
-2570 -2578 3250 0
-2570 -2579 3251 0
-2570 -2580 3252 0
-2570 -2581 3253 0
-2570 -2582 3254 0
-2570 -2583 3255 0
-2570 -2584 3256 0
-2571 -2577 3250 0
-2571 -2578 3251 0
-2571 -2579 3252 0
-2571 -2580 3253 0
-2571 -2581 3254 0
-2571 -2582 3255 0
-2571 -2583 3256 0
-2571 -2584 3257 0
-2572 -2577 3251 0
-2572 -2578 3252 0
-2572 -2579 3253 0
-2572 -2580 3254 0
-2572 -2581 3255 0
-2572 -2582 3256 0
-2572 -2583 3257 0
-2572 -2584 3258 0
-2573 -2577 3252 0
-2573 -2578 3253 0
-2573 -2579 3254 0
-2573 -2580 3255 0
-2573 -2581 3256 0
-2573 -2582 3257 0
-2573 -2583 3258 0
-2573 -2584 3259 0
-2574 -2577 3253 0
-2574 -2578 3254 0
-2574 -2579 3255 0
-2574 -2580 3256 0
-2574 -2581 3257 0
-2574 -2582 3258 0
-2574 -2583 3259 0
-2574 -2584 3260 0
-2575 -2577 3254 0
-2575 -2578 3255 0
-2575 -2579 3256 0
-2575 -2580 3257 0
-2575 -2581 3258 0
-2575 -2582 3259 0
-2575 -2583 3260 0
-2575 -2584 3261 0
-2576 -2577 3255 0
-2576 -2578 3256 0
-2576 -2579 3257 0
-2576 -2580 3258 0
-2576 -2581 3259 0
-2576 -2582 3260 0
-2576 -2583 3261 0
-2576 -2584 3262 0
-2593 3263 0
-2594 3264 0
-2595 3265 0
-2596 3266 0
-2597 3267 0
-2598 3268 0
-2599 3269 0
-2600 3270 0
-2585 3263 0
-2586 3264 0
-2587 3265 0
-2588 3266 0
-2589 3267 0
-2590 3268 0
-2591 3269 0
-2592 3270 0
-2585 -2593 3264 0
-2585 -2594 3265 0
-2585 -2595 3266 0
-2585 -2596 3267 0
-2585 -2597 3268 0
-2585 -2598 3269 0
-2585 -2599 3270 0
-2585 -2600 3271 0
-2586 -2593 3265 0
-2586 -2594 3266 0
-2586 -2595 3267 0
-2586 -2596 3268 0
-2586 -2597 3269 0
-2586 -2598 3270 0
-2586 -2599 3271 0
-2586 -2600 3272 0
-2587 -2593 3266 0
-2587 -2594 3267 0
-2587 -2595 3268 0
-2587 -2596 3269 0
-2587 -2597 3270 0
-2587 -2598 3271 0
-2587 -2599 3272 0
-2587 -2600 3273 0
-2588 -2593 3267 0
-2588 -2594 3268 0
-2588 -2595 3269 0
-2588 -2596 3270 0
-2588 -2597 3271 0
-2588 -2598 3272 0
-2588 -2599 3273 0
-2588 -2600 3274 0
-2589 -2593 3268 0
-2589 -2594 3269 0
-2589 -2595 3270 0
-2589 -2596 3271 0
-2589 -2597 3272 0
-2589 -2598 3273 0
-2589 -2599 3274 0
-2589 -2600 3275 0
-2590 -2593 3269 0
-2590 -2594 3270 0
-2590 -2595 3271 0
-2590 -2596 3272 0
-2590 -2597 3273 0
-2590 -2598 3274 0
-2590 -2599 3275 0
-2590 -2600 3276 0
-2591 -2593 3270 0
-2591 -2594 3271 0
-2591 -2595 3272 0
-2591 -2596 3273 0
-2591 -2597 3274 0
-2591 -2598 3275 0
-2591 -2599 3276 0
-2591 -2600 3277 0
-2592 -2593 3271 0
-2592 -2594 3272 0
-2592 -2595 3273 0
-2592 -2596 3274 0
-2592 -2597 3275 0
-2592 -2598 3276 0
-2592 -2599 3277 0
-2592 -2600 3278 0
-2609 3279 0
-2610 3280 0
-2611 3281 0
-2612 3282 0
-2613 3283 0
-2614 3284 0
-2615 3285 0
-2616 3286 0
-2601 3279 0
-2602 3280 0
-2603 3281 0
-2604 3282 0
-2605 3283 0
-2606 3284 0
-2607 3285 0
-2608 3286 0
-2601 -2609 3280 0
-2601 -2610 3281 0
-2601 -2611 3282 0
-2601 -2612 3283 0
-2601 -2613 3284 0
-2601 -2614 3285 0
-2601 -2615 3286 0
-2601 -2616 3287 0
-2602 -2609 3281 0
-2602 -2610 3282 0
-2602 -2611 3283 0
-2602 -2612 3284 0
-2602 -2613 3285 0
-2602 -2614 3286 0
-2602 -2615 3287 0
-2602 -2616 3288 0
-2603 -2609 3282 0
-2603 -2610 3283 0
-2603 -2611 3284 0
-2603 -2612 3285 0
-2603 -2613 3286 0
-2603 -2614 3287 0
-2603 -2615 3288 0
-2603 -2616 3289 0
-2604 -2609 3283 0
-2604 -2610 3284 0
-2604 -2611 3285 0
-2604 -2612 3286 0
-2604 -2613 3287 0
-2604 -2614 3288 0
-2604 -2615 3289 0
-2604 -2616 3290 0
-2605 -2609 3284 0
-2605 -2610 3285 0
-2605 -2611 3286 0
-2605 -2612 3287 0
-2605 -2613 3288 0
-2605 -2614 3289 0
-2605 -2615 3290 0
-2605 -2616 3291 0
-2606 -2609 3285 0
-2606 -2610 3286 0
-2606 -2611 3287 0
-2606 -2612 3288 0
-2606 -2613 3289 0
-2606 -2614 3290 0
-2606 -2615 3291 0
-2606 -2616 3292 0
-2607 -2609 3286 0
-2607 -2610 3287 0
-2607 -2611 3288 0
-2607 -2612 3289 0
-2607 -2613 3290 0
-2607 -2614 3291 0
-2607 -2615 3292 0
-2607 -2616 3293 0
-2608 -2609 3287 0
-2608 -2610 3288 0
-2608 -2611 3289 0
-2608 -2612 3290 0
-2608 -2613 3291 0
-2608 -2614 3292 0
-2608 -2615 3293 0
-2608 -2616 3294 0
-2625 3295 0
-2626 3296 0
-2627 3297 0
-2628 3298 0
-2629 3299 0
-2630 3300 0
-2631 3301 0
-2632 3302 0
-2617 3295 0
-2618 3296 0
-2619 3297 0
-2620 3298 0
-2621 3299 0
-2622 3300 0
-2623 3301 0
-2624 3302 0
-2617 -2625 3296 0
-2617 -2626 3297 0
-2617 -2627 3298 0
-2617 -2628 3299 0
-2617 -2629 3300 0
-2617 -2630 3301 0
-2617 -2631 3302 0
-2617 -2632 3303 0
-2618 -2625 3297 0
-2618 -2626 3298 0
-2618 -2627 3299 0
-2618 -2628 3300 0
-2618 -2629 3301 0
-2618 -2630 3302 0
-2618 -2631 3303 0
-2618 -2632 3304 0
-2619 -2625 3298 0
-2619 -2626 3299 0
-2619 -2627 3300 0
-2619 -2628 3301 0
-2619 -2629 3302 0
-2619 -2630 3303 0
-2619 -2631 3304 0
-2619 -2632 3305 0
-2620 -2625 3299 0
-2620 -2626 3300 0
-2620 -2627 3301 0
-2620 -2628 3302 0
-2620 -2629 3303 0
-2620 -2630 3304 0
-2620 -2631 3305 0
-2620 -2632 3306 0
-2621 -2625 3300 0
-2621 -2626 3301 0
-2621 -2627 3302 0
-2621 -2628 3303 0
-2621 -2629 3304 0
-2621 -2630 3305 0
-2621 -2631 3306 0
-2621 -2632 3307 0
-2622 -2625 3301 0
-2622 -2626 3302 0
-2622 -2627 3303 0
-2622 -2628 3304 0
-2622 -2629 3305 0
-2622 -2630 3306 0
-2622 -2631 3307 0
-2622 -2632 3308 0
-2623 -2625 3302 0
-2623 -2626 3303 0
-2623 -2627 3304 0
-2623 -2628 3305 0
-2623 -2629 3306 0
-2623 -2630 3307 0
-2623 -2631 3308 0
-2623 -2632 3309 0
-2624 -2625 3303 0
-2624 -2626 3304 0
-2624 -2627 3305 0
-2624 -2628 3306 0
-2624 -2629 3307 0
-2624 -2630 3308 0
-2624 -2631 3309 0
-2624 -2632 3310 0
-2641 3311 0
-2642 3312 0
-2643 3313 0
-2644 3314 0
-2645 3315 0
-2646 3316 0
-2647 3317 0
-2648 3318 0
-2633 3311 0
-2634 3312 0
-2635 3313 0
-2636 3314 0
-2637 3315 0
-2638 3316 0
-2639 3317 0
-2640 3318 0
-2633 -2641 3312 0
-2633 -2642 3313 0
-2633 -2643 3314 0
-2633 -2644 3315 0
-2633 -2645 3316 0
-2633 -2646 3317 0
-2633 -2647 3318 0
-2633 -2648 3319 0
-2634 -2641 3313 0
-2634 -2642 3314 0
-2634 -2643 3315 0
-2634 -2644 3316 0
-2634 -2645 3317 0
-2634 -2646 3318 0
-2634 -2647 3319 0
-2634 -2648 3320 0
-2635 -2641 3314 0
-2635 -2642 3315 0
-2635 -2643 3316 0
-2635 -2644 3317 0
-2635 -2645 3318 0
-2635 -2646 3319 0
-2635 -2647 3320 0
-2635 -2648 3321 0
-2636 -2641 3315 0
-2636 -2642 3316 0
-2636 -2643 3317 0
-2636 -2644 3318 0
-2636 -2645 3319 0
-2636 -2646 3320 0
-2636 -2647 3321 0
-2636 -2648 3322 0
-2637 -2641 3316 0
-2637 -2642 3317 0
-2637 -2643 3318 0
-2637 -2644 3319 0
-2637 -2645 3320 0
-2637 -2646 3321 0
-2637 -2647 3322 0
-2637 -2648 3323 0
-2638 -2641 3317 0
-2638 -2642 3318 0
-2638 -2643 3319 0
-2638 -2644 3320 0
-2638 -2645 3321 0
-2638 -2646 3322 0
-2638 -2647 3323 0
-2638 -2648 3324 0
-2639 -2641 3318 0
-2639 -2642 3319 0
-2639 -2643 3320 0
-2639 -2644 3321 0
-2639 -2645 3322 0
-2639 -2646 3323 0
-2639 -2647 3324 0
-2639 -2648 3325 0
-2640 -2641 3319 0
-2640 -2642 3320 0
-2640 -2643 3321 0
-2640 -2644 3322 0
-2640 -2645 3323 0
-2640 -2646 3324 0
-2640 -2647 3325 0
-2640 -2648 3326 0
-2657 3327 0
-2658 3328 0
-2659 3329 0
-2660 3330 0
-2661 3331 0
-2662 3332 0
-2663 3333 0
-2664 3334 0
-2649 3327 0
-2650 3328 0
-2651 3329 0
-2652 3330 0
-2653 3331 0
-2654 3332 0
-2655 3333 0
-2656 3334 0
-2649 -2657 3328 0
-2649 -2658 3329 0
-2649 -2659 3330 0
-2649 -2660 3331 0
-2649 -2661 3332 0
-2649 -2662 3333 0
-2649 -2663 3334 0
-2649 -2664 3335 0
-2650 -2657 3329 0
-2650 -2658 3330 0
-2650 -2659 3331 0
-2650 -2660 3332 0
-2650 -2661 3333 0
-2650 -2662 3334 0
-2650 -2663 3335 0
-2650 -2664 3336 0
-2651 -2657 3330 0
-2651 -2658 3331 0
-2651 -2659 3332 0
-2651 -2660 3333 0
-2651 -2661 3334 0
-2651 -2662 3335 0
-2651 -2663 3336 0
-2651 -2664 3337 0
-2652 -2657 3331 0
-2652 -2658 3332 0
-2652 -2659 3333 0
-2652 -2660 3334 0
-2652 -2661 3335 0
-2652 -2662 3336 0
-2652 -2663 3337 0
-2652 -2664 3338 0
-2653 -2657 3332 0
-2653 -2658 3333 0
-2653 -2659 3334 0
-2653 -2660 3335 0
-2653 -2661 3336 0
-2653 -2662 3337 0
-2653 -2663 3338 0
-2653 -2664 3339 0
-2654 -2657 3333 0
-2654 -2658 3334 0
-2654 -2659 3335 0
-2654 -2660 3336 0
-2654 -2661 3337 0
-2654 -2662 3338 0
-2654 -2663 3339 0
-2654 -2664 3340 0
-2655 -2657 3334 0
-2655 -2658 3335 0
-2655 -2659 3336 0
-2655 -2660 3337 0
-2655 -2661 3338 0
-2655 -2662 3339 0
-2655 -2663 3340 0
-2655 -2664 3341 0
-2656 -2657 3335 0
-2656 -2658 3336 0
-2656 -2659 3337 0
-2656 -2660 3338 0
-2656 -2661 3339 0
-2656 -2662 3340 0
-2656 -2663 3341 0
-2656 -2664 3342 0
-2673 3343 0
-2674 3344 0
-2675 3345 0
-2676 3346 0
-2677 3347 0
-2678 3348 0
-2679 3349 0
-2680 3350 0
-2665 3343 0
-2666 3344 0
-2667 3345 0
-2668 3346 0
-2669 3347 0
-2670 3348 0
-2671 3349 0
-2672 3350 0
-2665 -2673 3344 0
-2665 -2674 3345 0
-2665 -2675 3346 0
-2665 -2676 3347 0
-2665 -2677 3348 0
-2665 -2678 3349 0
-2665 -2679 3350 0
-2665 -2680 3351 0
-2666 -2673 3345 0
-2666 -2674 3346 0
-2666 -2675 3347 0
-2666 -2676 3348 0
-2666 -2677 3349 0
-2666 -2678 3350 0
-2666 -2679 3351 0
-2666 -2680 3352 0
-2667 -2673 3346 0
-2667 -2674 3347 0
-2667 -2675 3348 0
-2667 -2676 3349 0
-2667 -2677 3350 0
-2667 -2678 3351 0
-2667 -2679 3352 0
-2667 -2680 3353 0
-2668 -2673 3347 0
-2668 -2674 3348 0
-2668 -2675 3349 0
-2668 -2676 3350 0
-2668 -2677 3351 0
-2668 -2678 3352 0
-2668 -2679 3353 0
-2668 -2680 3354 0
-2669 -2673 3348 0
-2669 -2674 3349 0
-2669 -2675 3350 0
-2669 -2676 3351 0
-2669 -2677 3352 0
-2669 -2678 3353 0
-2669 -2679 3354 0
-2669 -2680 3355 0
-2670 -2673 3349 0
-2670 -2674 3350 0
-2670 -2675 3351 0
-2670 -2676 3352 0
-2670 -2677 3353 0
-2670 -2678 3354 0
-2670 -2679 3355 0
-2670 -2680 3356 0
-2671 -2673 3350 0
-2671 -2674 3351 0
-2671 -2675 3352 0
-2671 -2676 3353 0
-2671 -2677 3354 0
-2671 -2678 3355 0
-2671 -2679 3356 0
-2671 -2680 3357 0
-2672 -2673 3351 0
-2672 -2674 3352 0
-2672 -2675 3353 0
-2672 -2676 3354 0
-2672 -2677 3355 0
-2672 -2678 3356 0
-2672 -2679 3357 0
-2672 -2680 3358 0
-2689 3359 0
-2690 3360 0
-2691 3361 0
-2692 3362 0
-2693 3363 0
-2694 3364 0
-2695 3365 0
-2696 3366 0
-2681 3359 0
-2682 3360 0
-2683 3361 0
-2684 3362 0
-2685 3363 0
-2686 3364 0
-2687 3365 0
-2688 3366 0
-2681 -2689 3360 0
-2681 -2690 3361 0
-2681 -2691 3362 0
-2681 -2692 3363 0
-2681 -2693 3364 0
-2681 -2694 3365 0
-2681 -2695 3366 0
-2681 -2696 3367 0
-2682 -2689 3361 0
-2682 -2690 3362 0
-2682 -2691 3363 0
-2682 -2692 3364 0
-2682 -2693 3365 0
-2682 -2694 3366 0
-2682 -2695 3367 0
-2682 -2696 3368 0
-2683 -2689 3362 0
-2683 -2690 3363 0
-2683 -2691 3364 0
-2683 -2692 3365 0
-2683 -2693 3366 0
-2683 -2694 3367 0
-2683 -2695 3368 0
-2683 -2696 3369 0
-2684 -2689 3363 0
-2684 -2690 3364 0
-2684 -2691 3365 0
-2684 -2692 3366 0
-2684 -2693 3367 0
-2684 -2694 3368 0
-2684 -2695 3369 0
-2684 -2696 3370 0
-2685 -2689 3364 0
-2685 -2690 3365 0
-2685 -2691 3366 0
-2685 -2692 3367 0
-2685 -2693 3368 0
-2685 -2694 3369 0
-2685 -2695 3370 0
-2685 -2696 3371 0
-2686 -2689 3365 0
-2686 -2690 3366 0
-2686 -2691 3367 0
-2686 -2692 3368 0
-2686 -2693 3369 0
-2686 -2694 3370 0
-2686 -2695 3371 0
-2686 -2696 3372 0
-2687 -2689 3366 0
-2687 -2690 3367 0
-2687 -2691 3368 0
-2687 -2692 3369 0
-2687 -2693 3370 0
-2687 -2694 3371 0
-2687 -2695 3372 0
-2687 -2696 3373 0
-2688 -2689 3367 0
-2688 -2690 3368 0
-2688 -2691 3369 0
-2688 -2692 3370 0
-2688 -2693 3371 0
-2688 -2694 3372 0
-2688 -2695 3373 0
-2688 -2696 3374 0
-2705 3375 0
-2706 3376 0
-2707 3377 0
-2708 3378 0
-2709 3379 0
-2710 3380 0
-2711 3381 0
-2712 3382 0
-2697 3375 0
-2698 3376 0
-2699 3377 0
-2700 3378 0
-2701 3379 0
-2702 3380 0
-2703 3381 0
-2704 3382 0
-2697 -2705 3376 0
-2697 -2706 3377 0
-2697 -2707 3378 0
-2697 -2708 3379 0
-2697 -2709 3380 0
-2697 -2710 3381 0
-2697 -2711 3382 0
-2697 -2712 3383 0
-2698 -2705 3377 0
-2698 -2706 3378 0
-2698 -2707 3379 0
-2698 -2708 3380 0
-2698 -2709 3381 0
-2698 -2710 3382 0
-2698 -2711 3383 0
-2698 -2712 3384 0
-2699 -2705 3378 0
-2699 -2706 3379 0
-2699 -2707 3380 0
-2699 -2708 3381 0
-2699 -2709 3382 0
-2699 -2710 3383 0
-2699 -2711 3384 0
-2699 -2712 3385 0
-2700 -2705 3379 0
-2700 -2706 3380 0
-2700 -2707 3381 0
-2700 -2708 3382 0
-2700 -2709 3383 0
-2700 -2710 3384 0
-2700 -2711 3385 0
-2700 -2712 3386 0
-2701 -2705 3380 0
-2701 -2706 3381 0
-2701 -2707 3382 0
-2701 -2708 3383 0
-2701 -2709 3384 0
-2701 -2710 3385 0
-2701 -2711 3386 0
-2701 -2712 3387 0
-2702 -2705 3381 0
-2702 -2706 3382 0
-2702 -2707 3383 0
-2702 -2708 3384 0
-2702 -2709 3385 0
-2702 -2710 3386 0
-2702 -2711 3387 0
-2702 -2712 3388 0
-2703 -2705 3382 0
-2703 -2706 3383 0
-2703 -2707 3384 0
-2703 -2708 3385 0
-2703 -2709 3386 0
-2703 -2710 3387 0
-2703 -2711 3388 0
-2703 -2712 3389 0
-2704 -2705 3383 0
-2704 -2706 3384 0
-2704 -2707 3385 0
-2704 -2708 3386 0
-2704 -2709 3387 0
-2704 -2710 3388 0
-2704 -2711 3389 0
-2704 -2712 3390 0
-2721 3391 0
-2722 3392 0
-2723 3393 0
-2724 3394 0
-2725 3395 0
-2726 3396 0
-2727 3397 0
-2728 3398 0
-2713 3391 0
-2714 3392 0
-2715 3393 0
-2716 3394 0
-2717 3395 0
-2718 3396 0
-2719 3397 0
-2720 3398 0
-2713 -2721 3392 0
-2713 -2722 3393 0
-2713 -2723 3394 0
-2713 -2724 3395 0
-2713 -2725 3396 0
-2713 -2726 3397 0
-2713 -2727 3398 0
-2713 -2728 3399 0
-2714 -2721 3393 0
-2714 -2722 3394 0
-2714 -2723 3395 0
-2714 -2724 3396 0
-2714 -2725 3397 0
-2714 -2726 3398 0
-2714 -2727 3399 0
-2714 -2728 3400 0
-2715 -2721 3394 0
-2715 -2722 3395 0
-2715 -2723 3396 0
-2715 -2724 3397 0
-2715 -2725 3398 0
-2715 -2726 3399 0
-2715 -2727 3400 0
-2715 -2728 3401 0
-2716 -2721 3395 0
-2716 -2722 3396 0
-2716 -2723 3397 0
-2716 -2724 3398 0
-2716 -2725 3399 0
-2716 -2726 3400 0
-2716 -2727 3401 0
-2716 -2728 3402 0
-2717 -2721 3396 0
-2717 -2722 3397 0
-2717 -2723 3398 0
-2717 -2724 3399 0
-2717 -2725 3400 0
-2717 -2726 3401 0
-2717 -2727 3402 0
-2717 -2728 3403 0
-2718 -2721 3397 0
-2718 -2722 3398 0
-2718 -2723 3399 0
-2718 -2724 3400 0
-2718 -2725 3401 0
-2718 -2726 3402 0
-2718 -2727 3403 0
-2718 -2728 3404 0
-2719 -2721 3398 0
-2719 -2722 3399 0
-2719 -2723 3400 0
-2719 -2724 3401 0
-2719 -2725 3402 0
-2719 -2726 3403 0
-2719 -2727 3404 0
-2719 -2728 3405 0
-2720 -2721 3399 0
-2720 -2722 3400 0
-2720 -2723 3401 0
-2720 -2724 3402 0
-2720 -2725 3403 0
-2720 -2726 3404 0
-2720 -2727 3405 0
-2720 -2728 3406 0
-2737 3407 0
-2738 3408 0
-2739 3409 0
-2740 3410 0
-2741 3411 0
-2742 3412 0
-2743 3413 0
-2744 3414 0
-2729 3407 0
-2730 3408 0
-2731 3409 0
-2732 3410 0
-2733 3411 0
-2734 3412 0
-2735 3413 0
-2736 3414 0
-2729 -2737 3408 0
-2729 -2738 3409 0
-2729 -2739 3410 0
-2729 -2740 3411 0
-2729 -2741 3412 0
-2729 -2742 3413 0
-2729 -2743 3414 0
-2729 -2744 3415 0
-2730 -2737 3409 0
-2730 -2738 3410 0
-2730 -2739 3411 0
-2730 -2740 3412 0
-2730 -2741 3413 0
-2730 -2742 3414 0
-2730 -2743 3415 0
-2730 -2744 3416 0
-2731 -2737 3410 0
-2731 -2738 3411 0
-2731 -2739 3412 0
-2731 -2740 3413 0
-2731 -2741 3414 0
-2731 -2742 3415 0
-2731 -2743 3416 0
-2731 -2744 3417 0
-2732 -2737 3411 0
-2732 -2738 3412 0
-2732 -2739 3413 0
-2732 -2740 3414 0
-2732 -2741 3415 0
-2732 -2742 3416 0
-2732 -2743 3417 0
-2732 -2744 3418 0
-2733 -2737 3412 0
-2733 -2738 3413 0
-2733 -2739 3414 0
-2733 -2740 3415 0
-2733 -2741 3416 0
-2733 -2742 3417 0
-2733 -2743 3418 0
-2733 -2744 3419 0
-2734 -2737 3413 0
-2734 -2738 3414 0
-2734 -2739 3415 0
-2734 -2740 3416 0
-2734 -2741 3417 0
-2734 -2742 3418 0
-2734 -2743 3419 0
-2734 -2744 3420 0
-2735 -2737 3414 0
-2735 -2738 3415 0
-2735 -2739 3416 0
-2735 -2740 3417 0
-2735 -2741 3418 0
-2735 -2742 3419 0
-2735 -2743 3420 0
-2735 -2744 3421 0
-2736 -2737 3415 0
-2736 -2738 3416 0
-2736 -2739 3417 0
-2736 -2740 3418 0
-2736 -2741 3419 0
-2736 -2742 3420 0
-2736 -2743 3421 0
-2736 -2744 3422 0
-2753 3423 0
-2754 3424 0
-2755 3425 0
-2756 3426 0
-2757 3427 0
-2758 3428 0
-2759 3429 0
-2760 3430 0
-2745 3423 0
-2746 3424 0
-2747 3425 0
-2748 3426 0
-2749 3427 0
-2750 3428 0
-2751 3429 0
-2752 3430 0
-2745 -2753 3424 0
-2745 -2754 3425 0
-2745 -2755 3426 0
-2745 -2756 3427 0
-2745 -2757 3428 0
-2745 -2758 3429 0
-2745 -2759 3430 0
-2745 -2760 3431 0
-2746 -2753 3425 0
-2746 -2754 3426 0
-2746 -2755 3427 0
-2746 -2756 3428 0
-2746 -2757 3429 0
-2746 -2758 3430 0
-2746 -2759 3431 0
-2746 -2760 3432 0
-2747 -2753 3426 0
-2747 -2754 3427 0
-2747 -2755 3428 0
-2747 -2756 3429 0
-2747 -2757 3430 0
-2747 -2758 3431 0
-2747 -2759 3432 0
-2747 -2760 3433 0
-2748 -2753 3427 0
-2748 -2754 3428 0
-2748 -2755 3429 0
-2748 -2756 3430 0
-2748 -2757 3431 0
-2748 -2758 3432 0
-2748 -2759 3433 0
-2748 -2760 3434 0
-2749 -2753 3428 0
-2749 -2754 3429 0
-2749 -2755 3430 0
-2749 -2756 3431 0
-2749 -2757 3432 0
-2749 -2758 3433 0
-2749 -2759 3434 0
-2749 -2760 3435 0
-2750 -2753 3429 0
-2750 -2754 3430 0
-2750 -2755 3431 0
-2750 -2756 3432 0
-2750 -2757 3433 0
-2750 -2758 3434 0
-2750 -2759 3435 0
-2750 -2760 3436 0
-2751 -2753 3430 0
-2751 -2754 3431 0
-2751 -2755 3432 0
-2751 -2756 3433 0
-2751 -2757 3434 0
-2751 -2758 3435 0
-2751 -2759 3436 0
-2751 -2760 3437 0
-2752 -2753 3431 0
-2752 -2754 3432 0
-2752 -2755 3433 0
-2752 -2756 3434 0
-2752 -2757 3435 0
-2752 -2758 3436 0
-2752 -2759 3437 0
-2752 -2760 3438 0
-2769 3439 0
-2770 3440 0
-2771 3441 0
-2772 3442 0
-2773 3443 0
-2774 3444 0
-2775 3445 0
-2776 3446 0
-2761 3439 0
-2762 3440 0
-2763 3441 0
-2764 3442 0
-2765 3443 0
-2766 3444 0
-2767 3445 0
-2768 3446 0
-2761 -2769 3440 0
-2761 -2770 3441 0
-2761 -2771 3442 0
-2761 -2772 3443 0
-2761 -2773 3444 0
-2761 -2774 3445 0
-2761 -2775 3446 0
-2761 -2776 3447 0
-2762 -2769 3441 0
-2762 -2770 3442 0
-2762 -2771 3443 0
-2762 -2772 3444 0
-2762 -2773 3445 0
-2762 -2774 3446 0
-2762 -2775 3447 0
-2762 -2776 3448 0
-2763 -2769 3442 0
-2763 -2770 3443 0
-2763 -2771 3444 0
-2763 -2772 3445 0
-2763 -2773 3446 0
-2763 -2774 3447 0
-2763 -2775 3448 0
-2763 -2776 3449 0
-2764 -2769 3443 0
-2764 -2770 3444 0
-2764 -2771 3445 0
-2764 -2772 3446 0
-2764 -2773 3447 0
-2764 -2774 3448 0
-2764 -2775 3449 0
-2764 -2776 3450 0
-2765 -2769 3444 0
-2765 -2770 3445 0
-2765 -2771 3446 0
-2765 -2772 3447 0
-2765 -2773 3448 0
-2765 -2774 3449 0
-2765 -2775 3450 0
-2765 -2776 3451 0
-2766 -2769 3445 0
-2766 -2770 3446 0
-2766 -2771 3447 0
-2766 -2772 3448 0
-2766 -2773 3449 0
-2766 -2774 3450 0
-2766 -2775 3451 0
-2766 -2776 3452 0
-2767 -2769 3446 0
-2767 -2770 3447 0
-2767 -2771 3448 0
-2767 -2772 3449 0
-2767 -2773 3450 0
-2767 -2774 3451 0
-2767 -2775 3452 0
-2767 -2776 3453 0
-2768 -2769 3447 0
-2768 -2770 3448 0
-2768 -2771 3449 0
-2768 -2772 3450 0
-2768 -2773 3451 0
-2768 -2774 3452 0
-2768 -2775 3453 0
-2768 -2776 3454 0
-2785 3455 0
-2786 3456 0
-2787 3457 0
-2788 3458 0
-2789 3459 0
-2790 3460 0
-2791 3461 0
-2792 3462 0
-2777 3455 0
-2778 3456 0
-2779 3457 0
-2780 3458 0
-2781 3459 0
-2782 3460 0
-2783 3461 0
-2784 3462 0
-2777 -2785 3456 0
-2777 -2786 3457 0
-2777 -2787 3458 0
-2777 -2788 3459 0
-2777 -2789 3460 0
-2777 -2790 3461 0
-2777 -2791 3462 0
-2777 -2792 3463 0
-2778 -2785 3457 0
-2778 -2786 3458 0
-2778 -2787 3459 0
-2778 -2788 3460 0
-2778 -2789 3461 0
-2778 -2790 3462 0
-2778 -2791 3463 0
-2778 -2792 3464 0
-2779 -2785 3458 0
-2779 -2786 3459 0
-2779 -2787 3460 0
-2779 -2788 3461 0
-2779 -2789 3462 0
-2779 -2790 3463 0
-2779 -2791 3464 0
-2779 -2792 3465 0
-2780 -2785 3459 0
-2780 -2786 3460 0
-2780 -2787 3461 0
-2780 -2788 3462 0
-2780 -2789 3463 0
-2780 -2790 3464 0
-2780 -2791 3465 0
-2780 -2792 3466 0
-2781 -2785 3460 0
-2781 -2786 3461 0
-2781 -2787 3462 0
-2781 -2788 3463 0
-2781 -2789 3464 0
-2781 -2790 3465 0
-2781 -2791 3466 0
-2781 -2792 3467 0
-2782 -2785 3461 0
-2782 -2786 3462 0
-2782 -2787 3463 0
-2782 -2788 3464 0
-2782 -2789 3465 0
-2782 -2790 3466 0
-2782 -2791 3467 0
-2782 -2792 3468 0
-2783 -2785 3462 0
-2783 -2786 3463 0
-2783 -2787 3464 0
-2783 -2788 3465 0
-2783 -2789 3466 0
-2783 -2790 3467 0
-2783 -2791 3468 0
-2783 -2792 3469 0
-2784 -2785 3463 0
-2784 -2786 3464 0
-2784 -2787 3465 0
-2784 -2788 3466 0
-2784 -2789 3467 0
-2784 -2790 3468 0
-2784 -2791 3469 0
-2784 -2792 3470 0
-2801 3471 0
-2802 3472 0
-2803 3473 0
-2804 3474 0
-2805 3475 0
-2806 3476 0
-2807 3477 0
-2808 3478 0
-2793 3471 0
-2794 3472 0
-2795 3473 0
-2796 3474 0
-2797 3475 0
-2798 3476 0
-2799 3477 0
-2800 3478 0
-2793 -2801 3472 0
-2793 -2802 3473 0
-2793 -2803 3474 0
-2793 -2804 3475 0
-2793 -2805 3476 0
-2793 -2806 3477 0
-2793 -2807 3478 0
-2793 -2808 3479 0
-2794 -2801 3473 0
-2794 -2802 3474 0
-2794 -2803 3475 0
-2794 -2804 3476 0
-2794 -2805 3477 0
-2794 -2806 3478 0
-2794 -2807 3479 0
-2794 -2808 3480 0
-2795 -2801 3474 0
-2795 -2802 3475 0
-2795 -2803 3476 0
-2795 -2804 3477 0
-2795 -2805 3478 0
-2795 -2806 3479 0
-2795 -2807 3480 0
-2795 -2808 3481 0
-2796 -2801 3475 0
-2796 -2802 3476 0
-2796 -2803 3477 0
-2796 -2804 3478 0
-2796 -2805 3479 0
-2796 -2806 3480 0
-2796 -2807 3481 0
-2796 -2808 3482 0
-2797 -2801 3476 0
-2797 -2802 3477 0
-2797 -2803 3478 0
-2797 -2804 3479 0
-2797 -2805 3480 0
-2797 -2806 3481 0
-2797 -2807 3482 0
-2797 -2808 3483 0
-2798 -2801 3477 0
-2798 -2802 3478 0
-2798 -2803 3479 0
-2798 -2804 3480 0
-2798 -2805 3481 0
-2798 -2806 3482 0
-2798 -2807 3483 0
-2798 -2808 3484 0
-2799 -2801 3478 0
-2799 -2802 3479 0
-2799 -2803 3480 0
-2799 -2804 3481 0
-2799 -2805 3482 0
-2799 -2806 3483 0
-2799 -2807 3484 0
-2799 -2808 3485 0
-2800 -2801 3479 0
-2800 -2802 3480 0
-2800 -2803 3481 0
-2800 -2804 3482 0
-2800 -2805 3483 0
-2800 -2806 3484 0
-2800 -2807 3485 0
-2800 -2808 3486 0
-2817 3487 0
-2818 3488 0
-2819 3489 0
-2820 3490 0
-2821 3491 0
-2822 3492 0
-2823 3493 0
-2824 3494 0
-2809 3487 0
-2810 3488 0
-2811 3489 0
-2812 3490 0
-2813 3491 0
-2814 3492 0
-2815 3493 0
-2816 3494 0
-2809 -2817 3488 0
-2809 -2818 3489 0
-2809 -2819 3490 0
-2809 -2820 3491 0
-2809 -2821 3492 0
-2809 -2822 3493 0
-2809 -2823 3494 0
-2809 -2824 3495 0
-2810 -2817 3489 0
-2810 -2818 3490 0
-2810 -2819 3491 0
-2810 -2820 3492 0
-2810 -2821 3493 0
-2810 -2822 3494 0
-2810 -2823 3495 0
-2810 -2824 3496 0
-2811 -2817 3490 0
-2811 -2818 3491 0
-2811 -2819 3492 0
-2811 -2820 3493 0
-2811 -2821 3494 0
-2811 -2822 3495 0
-2811 -2823 3496 0
-2811 -2824 3497 0
-2812 -2817 3491 0
-2812 -2818 3492 0
-2812 -2819 3493 0
-2812 -2820 3494 0
-2812 -2821 3495 0
-2812 -2822 3496 0
-2812 -2823 3497 0
-2812 -2824 3498 0
-2813 -2817 3492 0
-2813 -2818 3493 0
-2813 -2819 3494 0
-2813 -2820 3495 0
-2813 -2821 3496 0
-2813 -2822 3497 0
-2813 -2823 3498 0
-2813 -2824 3499 0
-2814 -2817 3493 0
-2814 -2818 3494 0
-2814 -2819 3495 0
-2814 -2820 3496 0
-2814 -2821 3497 0
-2814 -2822 3498 0
-2814 -2823 3499 0
-2814 -2824 3500 0
-2815 -2817 3494 0
-2815 -2818 3495 0
-2815 -2819 3496 0
-2815 -2820 3497 0
-2815 -2821 3498 0
-2815 -2822 3499 0
-2815 -2823 3500 0
-2815 -2824 3501 0
-2816 -2817 3495 0
-2816 -2818 3496 0
-2816 -2819 3497 0
-2816 -2820 3498 0
-2816 -2821 3499 0
-2816 -2822 3500 0
-2816 -2823 3501 0
-2816 -2824 3502 0
-2833 3503 0
-2834 3504 0
-2835 3505 0
-2836 3506 0
-2837 3507 0
-2838 3508 0
-2839 3509 0
-2840 3510 0
-2825 3503 0
-2826 3504 0
-2827 3505 0
-2828 3506 0
-2829 3507 0
-2830 3508 0
-2831 3509 0
-2832 3510 0
-2825 -2833 3504 0
-2825 -2834 3505 0
-2825 -2835 3506 0
-2825 -2836 3507 0
-2825 -2837 3508 0
-2825 -2838 3509 0
-2825 -2839 3510 0
-2825 -2840 3511 0
-2826 -2833 3505 0
-2826 -2834 3506 0
-2826 -2835 3507 0
-2826 -2836 3508 0
-2826 -2837 3509 0
-2826 -2838 3510 0
-2826 -2839 3511 0
-2826 -2840 3512 0
-2827 -2833 3506 0
-2827 -2834 3507 0
-2827 -2835 3508 0
-2827 -2836 3509 0
-2827 -2837 3510 0
-2827 -2838 3511 0
-2827 -2839 3512 0
-2827 -2840 3513 0
-2828 -2833 3507 0
-2828 -2834 3508 0
-2828 -2835 3509 0
-2828 -2836 3510 0
-2828 -2837 3511 0
-2828 -2838 3512 0
-2828 -2839 3513 0
-2828 -2840 3514 0
-2829 -2833 3508 0
-2829 -2834 3509 0
-2829 -2835 3510 0
-2829 -2836 3511 0
-2829 -2837 3512 0
-2829 -2838 3513 0
-2829 -2839 3514 0
-2829 -2840 3515 0
-2830 -2833 3509 0
-2830 -2834 3510 0
-2830 -2835 3511 0
-2830 -2836 3512 0
-2830 -2837 3513 0
-2830 -2838 3514 0
-2830 -2839 3515 0
-2830 -2840 3516 0
-2831 -2833 3510 0
-2831 -2834 3511 0
-2831 -2835 3512 0
-2831 -2836 3513 0
-2831 -2837 3514 0
-2831 -2838 3515 0
-2831 -2839 3516 0
-2831 -2840 3517 0
-2832 -2833 3511 0
-2832 -2834 3512 0
-2832 -2835 3513 0
-2832 -2836 3514 0
-2832 -2837 3515 0
-2832 -2838 3516 0
-2832 -2839 3517 0
-2832 -2840 3518 0
-2849 3519 0
-2850 3520 0
-2851 3521 0
-2852 3522 0
-2853 3523 0
-2854 3524 0
-2855 3525 0
-2856 3526 0
-2841 3519 0
-2842 3520 0
-2843 3521 0
-2844 3522 0
-2845 3523 0
-2846 3524 0
-2847 3525 0
-2848 3526 0
-2841 -2849 3520 0
-2841 -2850 3521 0
-2841 -2851 3522 0
-2841 -2852 3523 0
-2841 -2853 3524 0
-2841 -2854 3525 0
-2841 -2855 3526 0
-2841 -2856 3527 0
-2842 -2849 3521 0
-2842 -2850 3522 0
-2842 -2851 3523 0
-2842 -2852 3524 0
-2842 -2853 3525 0
-2842 -2854 3526 0
-2842 -2855 3527 0
-2842 -2856 3528 0
-2843 -2849 3522 0
-2843 -2850 3523 0
-2843 -2851 3524 0
-2843 -2852 3525 0
-2843 -2853 3526 0
-2843 -2854 3527 0
-2843 -2855 3528 0
-2843 -2856 3529 0
-2844 -2849 3523 0
-2844 -2850 3524 0
-2844 -2851 3525 0
-2844 -2852 3526 0
-2844 -2853 3527 0
-2844 -2854 3528 0
-2844 -2855 3529 0
-2844 -2856 3530 0
-2845 -2849 3524 0
-2845 -2850 3525 0
-2845 -2851 3526 0
-2845 -2852 3527 0
-2845 -2853 3528 0
-2845 -2854 3529 0
-2845 -2855 3530 0
-2845 -2856 3531 0
-2846 -2849 3525 0
-2846 -2850 3526 0
-2846 -2851 3527 0
-2846 -2852 3528 0
-2846 -2853 3529 0
-2846 -2854 3530 0
-2846 -2855 3531 0
-2846 -2856 3532 0
-2847 -2849 3526 0
-2847 -2850 3527 0
-2847 -2851 3528 0
-2847 -2852 3529 0
-2847 -2853 3530 0
-2847 -2854 3531 0
-2847 -2855 3532 0
-2847 -2856 3533 0
-2848 -2849 3527 0
-2848 -2850 3528 0
-2848 -2851 3529 0
-2848 -2852 3530 0
-2848 -2853 3531 0
-2848 -2854 3532 0
-2848 -2855 3533 0
-2848 -2856 3534 0
-2865 3535 0
-2866 3536 0
-2867 3537 0
-2868 3538 0
-2869 3539 0
-2870 3540 0
-2871 3541 0
-2872 3542 0
-2857 3535 0
-2858 3536 0
-2859 3537 0
-2860 3538 0
-2861 3539 0
-2862 3540 0
-2863 3541 0
-2864 3542 0
-2857 -2865 3536 0
-2857 -2866 3537 0
-2857 -2867 3538 0
-2857 -2868 3539 0
-2857 -2869 3540 0
-2857 -2870 3541 0
-2857 -2871 3542 0
-2857 -2872 3543 0
-2858 -2865 3537 0
-2858 -2866 3538 0
-2858 -2867 3539 0
-2858 -2868 3540 0
-2858 -2869 3541 0
-2858 -2870 3542 0
-2858 -2871 3543 0
-2858 -2872 3544 0
-2859 -2865 3538 0
-2859 -2866 3539 0
-2859 -2867 3540 0
-2859 -2868 3541 0
-2859 -2869 3542 0
-2859 -2870 3543 0
-2859 -2871 3544 0
-2859 -2872 3545 0
-2860 -2865 3539 0
-2860 -2866 3540 0
-2860 -2867 3541 0
-2860 -2868 3542 0
-2860 -2869 3543 0
-2860 -2870 3544 0
-2860 -2871 3545 0
-2860 -2872 3546 0
-2861 -2865 3540 0
-2861 -2866 3541 0
-2861 -2867 3542 0
-2861 -2868 3543 0
-2861 -2869 3544 0
-2861 -2870 3545 0
-2861 -2871 3546 0
-2861 -2872 3547 0
-2862 -2865 3541 0
-2862 -2866 3542 0
-2862 -2867 3543 0
-2862 -2868 3544 0
-2862 -2869 3545 0
-2862 -2870 3546 0
-2862 -2871 3547 0
-2862 -2872 3548 0
-2863 -2865 3542 0
-2863 -2866 3543 0
-2863 -2867 3544 0
-2863 -2868 3545 0
-2863 -2869 3546 0
-2863 -2870 3547 0
-2863 -2871 3548 0
-2863 -2872 3549 0
-2864 -2865 3543 0
-2864 -2866 3544 0
-2864 -2867 3545 0
-2864 -2868 3546 0
-2864 -2869 3547 0
-2864 -2870 3548 0
-2864 -2871 3549 0
-2864 -2872 3550 0
-2881 3551 0
-2882 3552 0
-2883 3553 0
-2884 3554 0
-2885 3555 0
-2886 3556 0
-2887 3557 0
-2888 3558 0
-2873 3551 0
-2874 3552 0
-2875 3553 0
-2876 3554 0
-2877 3555 0
-2878 3556 0
-2879 3557 0
-2880 3558 0
-2873 -2881 3552 0
-2873 -2882 3553 0
-2873 -2883 3554 0
-2873 -2884 3555 0
-2873 -2885 3556 0
-2873 -2886 3557 0
-2873 -2887 3558 0
-2873 -2888 3559 0
-2874 -2881 3553 0
-2874 -2882 3554 0
-2874 -2883 3555 0
-2874 -2884 3556 0
-2874 -2885 3557 0
-2874 -2886 3558 0
-2874 -2887 3559 0
-2874 -2888 3560 0
-2875 -2881 3554 0
-2875 -2882 3555 0
-2875 -2883 3556 0
-2875 -2884 3557 0
-2875 -2885 3558 0
-2875 -2886 3559 0
-2875 -2887 3560 0
-2875 -2888 3561 0
-2876 -2881 3555 0
-2876 -2882 3556 0
-2876 -2883 3557 0
-2876 -2884 3558 0
-2876 -2885 3559 0
-2876 -2886 3560 0
-2876 -2887 3561 0
-2876 -2888 3562 0
-2877 -2881 3556 0
-2877 -2882 3557 0
-2877 -2883 3558 0
-2877 -2884 3559 0
-2877 -2885 3560 0
-2877 -2886 3561 0
-2877 -2887 3562 0
-2877 -2888 3563 0
-2878 -2881 3557 0
-2878 -2882 3558 0
-2878 -2883 3559 0
-2878 -2884 3560 0
-2878 -2885 3561 0
-2878 -2886 3562 0
-2878 -2887 3563 0
-2878 -2888 3564 0
-2879 -2881 3558 0
-2879 -2882 3559 0
-2879 -2883 3560 0
-2879 -2884 3561 0
-2879 -2885 3562 0
-2879 -2886 3563 0
-2879 -2887 3564 0
-2879 -2888 3565 0
-2880 -2881 3559 0
-2880 -2882 3560 0
-2880 -2883 3561 0
-2880 -2884 3562 0
-2880 -2885 3563 0
-2880 -2886 3564 0
-2880 -2887 3565 0
-2880 -2888 3566 0
-2897 3567 0
-2898 3568 0
-2899 3569 0
-2900 3570 0
-2901 3571 0
-2902 3572 0
-2903 3573 0
-2904 3574 0
-2889 3567 0
-2890 3568 0
-2891 3569 0
-2892 3570 0
-2893 3571 0
-2894 3572 0
-2895 3573 0
-2896 3574 0
-2889 -2897 3568 0
-2889 -2898 3569 0
-2889 -2899 3570 0
-2889 -2900 3571 0
-2889 -2901 3572 0
-2889 -2902 3573 0
-2889 -2903 3574 0
-2889 -2904 3575 0
-2890 -2897 3569 0
-2890 -2898 3570 0
-2890 -2899 3571 0
-2890 -2900 3572 0
-2890 -2901 3573 0
-2890 -2902 3574 0
-2890 -2903 3575 0
-2890 -2904 3576 0
-2891 -2897 3570 0
-2891 -2898 3571 0
-2891 -2899 3572 0
-2891 -2900 3573 0
-2891 -2901 3574 0
-2891 -2902 3575 0
-2891 -2903 3576 0
-2891 -2904 3577 0
-2892 -2897 3571 0
-2892 -2898 3572 0
-2892 -2899 3573 0
-2892 -2900 3574 0
-2892 -2901 3575 0
-2892 -2902 3576 0
-2892 -2903 3577 0
-2892 -2904 3578 0
-2893 -2897 3572 0
-2893 -2898 3573 0
-2893 -2899 3574 0
-2893 -2900 3575 0
-2893 -2901 3576 0
-2893 -2902 3577 0
-2893 -2903 3578 0
-2893 -2904 3579 0
-2894 -2897 3573 0
-2894 -2898 3574 0
-2894 -2899 3575 0
-2894 -2900 3576 0
-2894 -2901 3577 0
-2894 -2902 3578 0
-2894 -2903 3579 0
-2894 -2904 3580 0
-2895 -2897 3574 0
-2895 -2898 3575 0
-2895 -2899 3576 0
-2895 -2900 3577 0
-2895 -2901 3578 0
-2895 -2902 3579 0
-2895 -2903 3580 0
-2895 -2904 3581 0
-2896 -2897 3575 0
-2896 -2898 3576 0
-2896 -2899 3577 0
-2896 -2900 3578 0
-2896 -2901 3579 0
-2896 -2902 3580 0
-2896 -2903 3581 0
-2896 -2904 3582 0
-2913 3583 0
-2914 3584 0
-2915 3585 0
-2916 3586 0
-2917 3587 0
-2918 3588 0
-2919 3589 0
-2920 3590 0
-2905 3583 0
-2906 3584 0
-2907 3585 0
-2908 3586 0
-2909 3587 0
-2910 3588 0
-2911 3589 0
-2912 3590 0
-2905 -2913 3584 0
-2905 -2914 3585 0
-2905 -2915 3586 0
-2905 -2916 3587 0
-2905 -2917 3588 0
-2905 -2918 3589 0
-2905 -2919 3590 0
-2905 -2920 3591 0
-2906 -2913 3585 0
-2906 -2914 3586 0
-2906 -2915 3587 0
-2906 -2916 3588 0
-2906 -2917 3589 0
-2906 -2918 3590 0
-2906 -2919 3591 0
-2906 -2920 3592 0
-2907 -2913 3586 0
-2907 -2914 3587 0
-2907 -2915 3588 0
-2907 -2916 3589 0
-2907 -2917 3590 0
-2907 -2918 3591 0
-2907 -2919 3592 0
-2907 -2920 3593 0
-2908 -2913 3587 0
-2908 -2914 3588 0
-2908 -2915 3589 0
-2908 -2916 3590 0
-2908 -2917 3591 0
-2908 -2918 3592 0
-2908 -2919 3593 0
-2908 -2920 3594 0
-2909 -2913 3588 0
-2909 -2914 3589 0
-2909 -2915 3590 0
-2909 -2916 3591 0
-2909 -2917 3592 0
-2909 -2918 3593 0
-2909 -2919 3594 0
-2909 -2920 3595 0
-2910 -2913 3589 0
-2910 -2914 3590 0
-2910 -2915 3591 0
-2910 -2916 3592 0
-2910 -2917 3593 0
-2910 -2918 3594 0
-2910 -2919 3595 0
-2910 -2920 3596 0
-2911 -2913 3590 0
-2911 -2914 3591 0
-2911 -2915 3592 0
-2911 -2916 3593 0
-2911 -2917 3594 0
-2911 -2918 3595 0
-2911 -2919 3596 0
-2911 -2920 3597 0
-2912 -2913 3591 0
-2912 -2914 3592 0
-2912 -2915 3593 0
-2912 -2916 3594 0
-2912 -2917 3595 0
-2912 -2918 3596 0
-2912 -2919 3597 0
-2912 -2920 3598 0
-2929 3599 0
-2930 3600 0
-2931 3601 0
-2932 3602 0
-2933 3603 0
-2934 3604 0
-2935 3605 0
-2936 3606 0
-2921 3599 0
-2922 3600 0
-2923 3601 0
-2924 3602 0
-2925 3603 0
-2926 3604 0
-2927 3605 0
-2928 3606 0
-2921 -2929 3600 0
-2921 -2930 3601 0
-2921 -2931 3602 0
-2921 -2932 3603 0
-2921 -2933 3604 0
-2921 -2934 3605 0
-2921 -2935 3606 0
-2921 -2936 3607 0
-2922 -2929 3601 0
-2922 -2930 3602 0
-2922 -2931 3603 0
-2922 -2932 3604 0
-2922 -2933 3605 0
-2922 -2934 3606 0
-2922 -2935 3607 0
-2922 -2936 3608 0
-2923 -2929 3602 0
-2923 -2930 3603 0
-2923 -2931 3604 0
-2923 -2932 3605 0
-2923 -2933 3606 0
-2923 -2934 3607 0
-2923 -2935 3608 0
-2923 -2936 3609 0
-2924 -2929 3603 0
-2924 -2930 3604 0
-2924 -2931 3605 0
-2924 -2932 3606 0
-2924 -2933 3607 0
-2924 -2934 3608 0
-2924 -2935 3609 0
-2924 -2936 3610 0
-2925 -2929 3604 0
-2925 -2930 3605 0
-2925 -2931 3606 0
-2925 -2932 3607 0
-2925 -2933 3608 0
-2925 -2934 3609 0
-2925 -2935 3610 0
-2925 -2936 3611 0
-2926 -2929 3605 0
-2926 -2930 3606 0
-2926 -2931 3607 0
-2926 -2932 3608 0
-2926 -2933 3609 0
-2926 -2934 3610 0
-2926 -2935 3611 0
-2926 -2936 3612 0
-2927 -2929 3606 0
-2927 -2930 3607 0
-2927 -2931 3608 0
-2927 -2932 3609 0
-2927 -2933 3610 0
-2927 -2934 3611 0
-2927 -2935 3612 0
-2927 -2936 3613 0
-2928 -2929 3607 0
-2928 -2930 3608 0
-2928 -2931 3609 0
-2928 -2932 3610 0
-2928 -2933 3611 0
-2928 -2934 3612 0
-2928 -2935 3613 0
-2928 -2936 3614 0
-2945 3615 0
-2946 3616 0
-2947 3617 0
-2948 3618 0
-2949 3619 0
-2950 3620 0
-2951 3621 0
-2952 3622 0
-2937 3615 0
-2938 3616 0
-2939 3617 0
-2940 3618 0
-2941 3619 0
-2942 3620 0
-2943 3621 0
-2944 3622 0
-2937 -2945 3616 0
-2937 -2946 3617 0
-2937 -2947 3618 0
-2937 -2948 3619 0
-2937 -2949 3620 0
-2937 -2950 3621 0
-2937 -2951 3622 0
-2937 -2952 3623 0
-2938 -2945 3617 0
-2938 -2946 3618 0
-2938 -2947 3619 0
-2938 -2948 3620 0
-2938 -2949 3621 0
-2938 -2950 3622 0
-2938 -2951 3623 0
-2938 -2952 3624 0
-2939 -2945 3618 0
-2939 -2946 3619 0
-2939 -2947 3620 0
-2939 -2948 3621 0
-2939 -2949 3622 0
-2939 -2950 3623 0
-2939 -2951 3624 0
-2939 -2952 3625 0
-2940 -2945 3619 0
-2940 -2946 3620 0
-2940 -2947 3621 0
-2940 -2948 3622 0
-2940 -2949 3623 0
-2940 -2950 3624 0
-2940 -2951 3625 0
-2940 -2952 3626 0
-2941 -2945 3620 0
-2941 -2946 3621 0
-2941 -2947 3622 0
-2941 -2948 3623 0
-2941 -2949 3624 0
-2941 -2950 3625 0
-2941 -2951 3626 0
-2941 -2952 3627 0
-2942 -2945 3621 0
-2942 -2946 3622 0
-2942 -2947 3623 0
-2942 -2948 3624 0
-2942 -2949 3625 0
-2942 -2950 3626 0
-2942 -2951 3627 0
-2942 -2952 3628 0
-2943 -2945 3622 0
-2943 -2946 3623 0
-2943 -2947 3624 0
-2943 -2948 3625 0
-2943 -2949 3626 0
-2943 -2950 3627 0
-2943 -2951 3628 0
-2943 -2952 3629 0
-2944 -2945 3623 0
-2944 -2946 3624 0
-2944 -2947 3625 0
-2944 -2948 3626 0
-2944 -2949 3627 0
-2944 -2950 3628 0
-2944 -2951 3629 0
-2944 -2952 3630 0
-2961 3631 0
-2962 3632 0
-2963 3633 0
-2964 3634 0
-2965 3635 0
-2966 3636 0
-2967 3637 0
-2968 3638 0
-2953 3631 0
-2954 3632 0
-2955 3633 0
-2956 3634 0
-2957 3635 0
-2958 3636 0
-2959 3637 0
-2960 3638 0
-2953 -2961 3632 0
-2953 -2962 3633 0
-2953 -2963 3634 0
-2953 -2964 3635 0
-2953 -2965 3636 0
-2953 -2966 3637 0
-2953 -2967 3638 0
-2953 -2968 3639 0
-2954 -2961 3633 0
-2954 -2962 3634 0
-2954 -2963 3635 0
-2954 -2964 3636 0
-2954 -2965 3637 0
-2954 -2966 3638 0
-2954 -2967 3639 0
-2954 -2968 3640 0
-2955 -2961 3634 0
-2955 -2962 3635 0
-2955 -2963 3636 0
-2955 -2964 3637 0
-2955 -2965 3638 0
-2955 -2966 3639 0
-2955 -2967 3640 0
-2955 -2968 3641 0
-2956 -2961 3635 0
-2956 -2962 3636 0
-2956 -2963 3637 0
-2956 -2964 3638 0
-2956 -2965 3639 0
-2956 -2966 3640 0
-2956 -2967 3641 0
-2956 -2968 3642 0
-2957 -2961 3636 0
-2957 -2962 3637 0
-2957 -2963 3638 0
-2957 -2964 3639 0
-2957 -2965 3640 0
-2957 -2966 3641 0
-2957 -2967 3642 0
-2957 -2968 3643 0
-2958 -2961 3637 0
-2958 -2962 3638 0
-2958 -2963 3639 0
-2958 -2964 3640 0
-2958 -2965 3641 0
-2958 -2966 3642 0
-2958 -2967 3643 0
-2958 -2968 3644 0
-2959 -2961 3638 0
-2959 -2962 3639 0
-2959 -2963 3640 0
-2959 -2964 3641 0
-2959 -2965 3642 0
-2959 -2966 3643 0
-2959 -2967 3644 0
-2959 -2968 3645 0
-2960 -2961 3639 0
-2960 -2962 3640 0
-2960 -2963 3641 0
-2960 -2964 3642 0
-2960 -2965 3643 0
-2960 -2966 3644 0
-2960 -2967 3645 0
-2960 -2968 3646 0
-2977 3647 0
-2978 3648 0
-2979 3649 0
-2980 3650 0
-2981 3651 0
-2982 3652 0
-2983 3653 0
-2984 3654 0
-2969 3647 0
-2970 3648 0
-2971 3649 0
-2972 3650 0
-2973 3651 0
-2974 3652 0
-2975 3653 0
-2976 3654 0
-2969 -2977 3648 0
-2969 -2978 3649 0
-2969 -2979 3650 0
-2969 -2980 3651 0
-2969 -2981 3652 0
-2969 -2982 3653 0
-2969 -2983 3654 0
-2969 -2984 3655 0
-2970 -2977 3649 0
-2970 -2978 3650 0
-2970 -2979 3651 0
-2970 -2980 3652 0
-2970 -2981 3653 0
-2970 -2982 3654 0
-2970 -2983 3655 0
-2970 -2984 3656 0
-2971 -2977 3650 0
-2971 -2978 3651 0
-2971 -2979 3652 0
-2971 -2980 3653 0
-2971 -2981 3654 0
-2971 -2982 3655 0
-2971 -2983 3656 0
-2971 -2984 3657 0
-2972 -2977 3651 0
-2972 -2978 3652 0
-2972 -2979 3653 0
-2972 -2980 3654 0
-2972 -2981 3655 0
-2972 -2982 3656 0
-2972 -2983 3657 0
-2972 -2984 3658 0
-2973 -2977 3652 0
-2973 -2978 3653 0
-2973 -2979 3654 0
-2973 -2980 3655 0
-2973 -2981 3656 0
-2973 -2982 3657 0
-2973 -2983 3658 0
-2973 -2984 3659 0
-2974 -2977 3653 0
-2974 -2978 3654 0
-2974 -2979 3655 0
-2974 -2980 3656 0
-2974 -2981 3657 0
-2974 -2982 3658 0
-2974 -2983 3659 0
-2974 -2984 3660 0
-2975 -2977 3654 0
-2975 -2978 3655 0
-2975 -2979 3656 0
-2975 -2980 3657 0
-2975 -2981 3658 0
-2975 -2982 3659 0
-2975 -2983 3660 0
-2975 -2984 3661 0
-2976 -2977 3655 0
-2976 -2978 3656 0
-2976 -2979 3657 0
-2976 -2980 3658 0
-2976 -2981 3659 0
-2976 -2982 3660 0
-2976 -2983 3661 0
-2976 -2984 3662 0
-2993 3663 0
-2994 3664 0
-2995 3665 0
-2996 3666 0
-2997 3667 0
-2998 3668 0
-2999 3669 0
-3000 3670 0
-2985 3663 0
-2986 3664 0
-2987 3665 0
-2988 3666 0
-2989 3667 0
-2990 3668 0
-2991 3669 0
-2992 3670 0
-2985 -2993 3664 0
-2985 -2994 3665 0
-2985 -2995 3666 0
-2985 -2996 3667 0
-2985 -2997 3668 0
-2985 -2998 3669 0
-2985 -2999 3670 0
-2985 -3000 3671 0
-2986 -2993 3665 0
-2986 -2994 3666 0
-2986 -2995 3667 0
-2986 -2996 3668 0
-2986 -2997 3669 0
-2986 -2998 3670 0
-2986 -2999 3671 0
-2986 -3000 3672 0
-2987 -2993 3666 0
-2987 -2994 3667 0
-2987 -2995 3668 0
-2987 -2996 3669 0
-2987 -2997 3670 0
-2987 -2998 3671 0
-2987 -2999 3672 0
-2987 -3000 3673 0
-2988 -2993 3667 0
-2988 -2994 3668 0
-2988 -2995 3669 0
-2988 -2996 3670 0
-2988 -2997 3671 0
-2988 -2998 3672 0
-2988 -2999 3673 0
-2988 -3000 3674 0
-2989 -2993 3668 0
-2989 -2994 3669 0
-2989 -2995 3670 0
-2989 -2996 3671 0
-2989 -2997 3672 0
-2989 -2998 3673 0
-2989 -2999 3674 0
-2989 -3000 3675 0
-2990 -2993 3669 0
-2990 -2994 3670 0
-2990 -2995 3671 0
-2990 -2996 3672 0
-2990 -2997 3673 0
-2990 -2998 3674 0
-2990 -2999 3675 0
-2990 -3000 3676 0
-2991 -2993 3670 0
-2991 -2994 3671 0
-2991 -2995 3672 0
-2991 -2996 3673 0
-2991 -2997 3674 0
-2991 -2998 3675 0
-2991 -2999 3676 0
-2991 -3000 3677 0
-2992 -2993 3671 0
-2992 -2994 3672 0
-2992 -2995 3673 0
-2992 -2996 3674 0
-2992 -2997 3675 0
-2992 -2998 3676 0
-2992 -2999 3677 0
-2992 -3000 3678 0
-3009 3679 0
-3010 3680 0
-3011 3681 0
-3012 3682 0
-3013 3683 0
-3014 3684 0
-3015 3685 0
-3016 3686 0
-3001 3679 0
-3002 3680 0
-3003 3681 0
-3004 3682 0
-3005 3683 0
-3006 3684 0
-3007 3685 0
-3008 3686 0
-3001 -3009 3680 0
-3001 -3010 3681 0
-3001 -3011 3682 0
-3001 -3012 3683 0
-3001 -3013 3684 0
-3001 -3014 3685 0
-3001 -3015 3686 0
-3001 -3016 3687 0
-3002 -3009 3681 0
-3002 -3010 3682 0
-3002 -3011 3683 0
-3002 -3012 3684 0
-3002 -3013 3685 0
-3002 -3014 3686 0
-3002 -3015 3687 0
-3002 -3016 3688 0
-3003 -3009 3682 0
-3003 -3010 3683 0
-3003 -3011 3684 0
-3003 -3012 3685 0
-3003 -3013 3686 0
-3003 -3014 3687 0
-3003 -3015 3688 0
-3003 -3016 3689 0
-3004 -3009 3683 0
-3004 -3010 3684 0
-3004 -3011 3685 0
-3004 -3012 3686 0
-3004 -3013 3687 0
-3004 -3014 3688 0
-3004 -3015 3689 0
-3004 -3016 3690 0
-3005 -3009 3684 0
-3005 -3010 3685 0
-3005 -3011 3686 0
-3005 -3012 3687 0
-3005 -3013 3688 0
-3005 -3014 3689 0
-3005 -3015 3690 0
-3005 -3016 3691 0
-3006 -3009 3685 0
-3006 -3010 3686 0
-3006 -3011 3687 0
-3006 -3012 3688 0
-3006 -3013 3689 0
-3006 -3014 3690 0
-3006 -3015 3691 0
-3006 -3016 3692 0
-3007 -3009 3686 0
-3007 -3010 3687 0
-3007 -3011 3688 0
-3007 -3012 3689 0
-3007 -3013 3690 0
-3007 -3014 3691 0
-3007 -3015 3692 0
-3007 -3016 3693 0
-3008 -3009 3687 0
-3008 -3010 3688 0
-3008 -3011 3689 0
-3008 -3012 3690 0
-3008 -3013 3691 0
-3008 -3014 3692 0
-3008 -3015 3693 0
-3008 -3016 3694 0
-3025 3695 0
-3026 3696 0
-3027 3697 0
-3028 3698 0
-3029 3699 0
-3030 3700 0
-3031 3701 0
-3032 3702 0
-3017 3695 0
-3018 3696 0
-3019 3697 0
-3020 3698 0
-3021 3699 0
-3022 3700 0
-3023 3701 0
-3024 3702 0
-3017 -3025 3696 0
-3017 -3026 3697 0
-3017 -3027 3698 0
-3017 -3028 3699 0
-3017 -3029 3700 0
-3017 -3030 3701 0
-3017 -3031 3702 0
-3017 -3032 3703 0
-3018 -3025 3697 0
-3018 -3026 3698 0
-3018 -3027 3699 0
-3018 -3028 3700 0
-3018 -3029 3701 0
-3018 -3030 3702 0
-3018 -3031 3703 0
-3018 -3032 3704 0
-3019 -3025 3698 0
-3019 -3026 3699 0
-3019 -3027 3700 0
-3019 -3028 3701 0
-3019 -3029 3702 0
-3019 -3030 3703 0
-3019 -3031 3704 0
-3019 -3032 3705 0
-3020 -3025 3699 0
-3020 -3026 3700 0
-3020 -3027 3701 0
-3020 -3028 3702 0
-3020 -3029 3703 0
-3020 -3030 3704 0
-3020 -3031 3705 0
-3020 -3032 3706 0
-3021 -3025 3700 0
-3021 -3026 3701 0
-3021 -3027 3702 0
-3021 -3028 3703 0
-3021 -3029 3704 0
-3021 -3030 3705 0
-3021 -3031 3706 0
-3021 -3032 3707 0
-3022 -3025 3701 0
-3022 -3026 3702 0
-3022 -3027 3703 0
-3022 -3028 3704 0
-3022 -3029 3705 0
-3022 -3030 3706 0
-3022 -3031 3707 0
-3022 -3032 3708 0
-3023 -3025 3702 0
-3023 -3026 3703 0
-3023 -3027 3704 0
-3023 -3028 3705 0
-3023 -3029 3706 0
-3023 -3030 3707 0
-3023 -3031 3708 0
-3023 -3032 3709 0
-3024 -3025 3703 0
-3024 -3026 3704 0
-3024 -3027 3705 0
-3024 -3028 3706 0
-3024 -3029 3707 0
-3024 -3030 3708 0
-3024 -3031 3709 0
-3024 -3032 3710 0
-3041 3711 0
-3042 3712 0
-3043 3713 0
-3044 3714 0
-3045 3715 0
-3046 3716 0
-3047 3717 0
-3048 3718 0
-3033 3711 0
-3034 3712 0
-3035 3713 0
-3036 3714 0
-3037 3715 0
-3038 3716 0
-3039 3717 0
-3040 3718 0
-3033 -3041 3712 0
-3033 -3042 3713 0
-3033 -3043 3714 0
-3033 -3044 3715 0
-3033 -3045 3716 0
-3033 -3046 3717 0
-3033 -3047 3718 0
-3033 -3048 3719 0
-3034 -3041 3713 0
-3034 -3042 3714 0
-3034 -3043 3715 0
-3034 -3044 3716 0
-3034 -3045 3717 0
-3034 -3046 3718 0
-3034 -3047 3719 0
-3034 -3048 3720 0
-3035 -3041 3714 0
-3035 -3042 3715 0
-3035 -3043 3716 0
-3035 -3044 3717 0
-3035 -3045 3718 0
-3035 -3046 3719 0
-3035 -3047 3720 0
-3035 -3048 3721 0
-3036 -3041 3715 0
-3036 -3042 3716 0
-3036 -3043 3717 0
-3036 -3044 3718 0
-3036 -3045 3719 0
-3036 -3046 3720 0
-3036 -3047 3721 0
-3036 -3048 3722 0
-3037 -3041 3716 0
-3037 -3042 3717 0
-3037 -3043 3718 0
-3037 -3044 3719 0
-3037 -3045 3720 0
-3037 -3046 3721 0
-3037 -3047 3722 0
-3037 -3048 3723 0
-3038 -3041 3717 0
-3038 -3042 3718 0
-3038 -3043 3719 0
-3038 -3044 3720 0
-3038 -3045 3721 0
-3038 -3046 3722 0
-3038 -3047 3723 0
-3038 -3048 3724 0
-3039 -3041 3718 0
-3039 -3042 3719 0
-3039 -3043 3720 0
-3039 -3044 3721 0
-3039 -3045 3722 0
-3039 -3046 3723 0
-3039 -3047 3724 0
-3039 -3048 3725 0
-3040 -3041 3719 0
-3040 -3042 3720 0
-3040 -3043 3721 0
-3040 -3044 3722 0
-3040 -3045 3723 0
-3040 -3046 3724 0
-3040 -3047 3725 0
-3040 -3048 3726 0
-3057 3727 0
-3058 3728 0
-3059 3729 0
-3060 3730 0
-3061 3731 0
-3062 3732 0
-3063 3733 0
-3064 3734 0
-3049 3727 0
-3050 3728 0
-3051 3729 0
-3052 3730 0
-3053 3731 0
-3054 3732 0
-3055 3733 0
-3056 3734 0
-3049 -3057 3728 0
-3049 -3058 3729 0
-3049 -3059 3730 0
-3049 -3060 3731 0
-3049 -3061 3732 0
-3049 -3062 3733 0
-3049 -3063 3734 0
-3049 -3064 3735 0
-3050 -3057 3729 0
-3050 -3058 3730 0
-3050 -3059 3731 0
-3050 -3060 3732 0
-3050 -3061 3733 0
-3050 -3062 3734 0
-3050 -3063 3735 0
-3050 -3064 3736 0
-3051 -3057 3730 0
-3051 -3058 3731 0
-3051 -3059 3732 0
-3051 -3060 3733 0
-3051 -3061 3734 0
-3051 -3062 3735 0
-3051 -3063 3736 0
-3051 -3064 3737 0
-3052 -3057 3731 0
-3052 -3058 3732 0
-3052 -3059 3733 0
-3052 -3060 3734 0
-3052 -3061 3735 0
-3052 -3062 3736 0
-3052 -3063 3737 0
-3052 -3064 3738 0
-3053 -3057 3732 0
-3053 -3058 3733 0
-3053 -3059 3734 0
-3053 -3060 3735 0
-3053 -3061 3736 0
-3053 -3062 3737 0
-3053 -3063 3738 0
-3053 -3064 3739 0
-3054 -3057 3733 0
-3054 -3058 3734 0
-3054 -3059 3735 0
-3054 -3060 3736 0
-3054 -3061 3737 0
-3054 -3062 3738 0
-3054 -3063 3739 0
-3054 -3064 3740 0
-3055 -3057 3734 0
-3055 -3058 3735 0
-3055 -3059 3736 0
-3055 -3060 3737 0
-3055 -3061 3738 0
-3055 -3062 3739 0
-3055 -3063 3740 0
-3055 -3064 3741 0
-3056 -3057 3735 0
-3056 -3058 3736 0
-3056 -3059 3737 0
-3056 -3060 3738 0
-3056 -3061 3739 0
-3056 -3062 3740 0
-3056 -3063 3741 0
-3056 -3064 3742 0
-3073 3743 0
-3074 3744 0
-3075 3745 0
-3076 3746 0
-3077 3747 0
-3078 3748 0
-3079 3749 0
-3080 3750 0
-3065 3743 0
-3066 3744 0
-3067 3745 0
-3068 3746 0
-3069 3747 0
-3070 3748 0
-3071 3749 0
-3072 3750 0
-3065 -3073 3744 0
-3065 -3074 3745 0
-3065 -3075 3746 0
-3065 -3076 3747 0
-3065 -3077 3748 0
-3065 -3078 3749 0
-3065 -3079 3750 0
-3065 -3080 3751 0
-3066 -3073 3745 0
-3066 -3074 3746 0
-3066 -3075 3747 0
-3066 -3076 3748 0
-3066 -3077 3749 0
-3066 -3078 3750 0
-3066 -3079 3751 0
-3066 -3080 3752 0
-3067 -3073 3746 0
-3067 -3074 3747 0
-3067 -3075 3748 0
-3067 -3076 3749 0
-3067 -3077 3750 0
-3067 -3078 3751 0
-3067 -3079 3752 0
-3067 -3080 3753 0
-3068 -3073 3747 0
-3068 -3074 3748 0
-3068 -3075 3749 0
-3068 -3076 3750 0
-3068 -3077 3751 0
-3068 -3078 3752 0
-3068 -3079 3753 0
-3068 -3080 3754 0
-3069 -3073 3748 0
-3069 -3074 3749 0
-3069 -3075 3750 0
-3069 -3076 3751 0
-3069 -3077 3752 0
-3069 -3078 3753 0
-3069 -3079 3754 0
-3069 -3080 3755 0
-3070 -3073 3749 0
-3070 -3074 3750 0
-3070 -3075 3751 0
-3070 -3076 3752 0
-3070 -3077 3753 0
-3070 -3078 3754 0
-3070 -3079 3755 0
-3070 -3080 3756 0
-3071 -3073 3750 0
-3071 -3074 3751 0
-3071 -3075 3752 0
-3071 -3076 3753 0
-3071 -3077 3754 0
-3071 -3078 3755 0
-3071 -3079 3756 0
-3071 -3080 3757 0
-3072 -3073 3751 0
-3072 -3074 3752 0
-3072 -3075 3753 0
-3072 -3076 3754 0
-3072 -3077 3755 0
-3072 -3078 3756 0
-3072 -3079 3757 0
-3072 -3080 3758 0
-3089 3759 0
-3090 3760 0
-3091 3761 0
-3092 3762 0
-3093 3763 0
-3094 3764 0
-3095 3765 0
-3096 3766 0
-3081 3759 0
-3082 3760 0
-3083 3761 0
-3084 3762 0
-3085 3763 0
-3086 3764 0
-3087 3765 0
-3088 3766 0
-3081 -3089 3760 0
-3081 -3090 3761 0
-3081 -3091 3762 0
-3081 -3092 3763 0
-3081 -3093 3764 0
-3081 -3094 3765 0
-3081 -3095 3766 0
-3081 -3096 3767 0
-3082 -3089 3761 0
-3082 -3090 3762 0
-3082 -3091 3763 0
-3082 -3092 3764 0
-3082 -3093 3765 0
-3082 -3094 3766 0
-3082 -3095 3767 0
-3082 -3096 3768 0
-3083 -3089 3762 0
-3083 -3090 3763 0
-3083 -3091 3764 0
-3083 -3092 3765 0
-3083 -3093 3766 0
-3083 -3094 3767 0
-3083 -3095 3768 0
-3083 -3096 3769 0
-3084 -3089 3763 0
-3084 -3090 3764 0
-3084 -3091 3765 0
-3084 -3092 3766 0
-3084 -3093 3767 0
-3084 -3094 3768 0
-3084 -3095 3769 0
-3084 -3096 3770 0
-3085 -3089 3764 0
-3085 -3090 3765 0
-3085 -3091 3766 0
-3085 -3092 3767 0
-3085 -3093 3768 0
-3085 -3094 3769 0
-3085 -3095 3770 0
-3085 -3096 3771 0
-3086 -3089 3765 0
-3086 -3090 3766 0
-3086 -3091 3767 0
-3086 -3092 3768 0
-3086 -3093 3769 0
-3086 -3094 3770 0
-3086 -3095 3771 0
-3086 -3096 3772 0
-3087 -3089 3766 0
-3087 -3090 3767 0
-3087 -3091 3768 0
-3087 -3092 3769 0
-3087 -3093 3770 0
-3087 -3094 3771 0
-3087 -3095 3772 0
-3087 -3096 3773 0
-3088 -3089 3767 0
-3088 -3090 3768 0
-3088 -3091 3769 0
-3088 -3092 3770 0
-3088 -3093 3771 0
-3088 -3094 3772 0
-3088 -3095 3773 0
-3088 -3096 3774 0
-3105 3775 0
-3106 3776 0
-3107 3777 0
-3108 3778 0
-3109 3779 0
-3110 3780 0
-3111 3781 0
-3112 3782 0
-3097 3775 0
-3098 3776 0
-3099 3777 0
-3100 3778 0
-3101 3779 0
-3102 3780 0
-3103 3781 0
-3104 3782 0
-3097 -3105 3776 0
-3097 -3106 3777 0
-3097 -3107 3778 0
-3097 -3108 3779 0
-3097 -3109 3780 0
-3097 -3110 3781 0
-3097 -3111 3782 0
-3097 -3112 3783 0
-3098 -3105 3777 0
-3098 -3106 3778 0
-3098 -3107 3779 0
-3098 -3108 3780 0
-3098 -3109 3781 0
-3098 -3110 3782 0
-3098 -3111 3783 0
-3098 -3112 3784 0
-3099 -3105 3778 0
-3099 -3106 3779 0
-3099 -3107 3780 0
-3099 -3108 3781 0
-3099 -3109 3782 0
-3099 -3110 3783 0
-3099 -3111 3784 0
-3099 -3112 3785 0
-3100 -3105 3779 0
-3100 -3106 3780 0
-3100 -3107 3781 0
-3100 -3108 3782 0
-3100 -3109 3783 0
-3100 -3110 3784 0
-3100 -3111 3785 0
-3100 -3112 3786 0
-3101 -3105 3780 0
-3101 -3106 3781 0
-3101 -3107 3782 0
-3101 -3108 3783 0
-3101 -3109 3784 0
-3101 -3110 3785 0
-3101 -3111 3786 0
-3101 -3112 3787 0
-3102 -3105 3781 0
-3102 -3106 3782 0
-3102 -3107 3783 0
-3102 -3108 3784 0
-3102 -3109 3785 0
-3102 -3110 3786 0
-3102 -3111 3787 0
-3102 -3112 3788 0
-3103 -3105 3782 0
-3103 -3106 3783 0
-3103 -3107 3784 0
-3103 -3108 3785 0
-3103 -3109 3786 0
-3103 -3110 3787 0
-3103 -3111 3788 0
-3103 -3112 3789 0
-3104 -3105 3783 0
-3104 -3106 3784 0
-3104 -3107 3785 0
-3104 -3108 3786 0
-3104 -3109 3787 0
-3104 -3110 3788 0
-3104 -3111 3789 0
-3104 -3112 3790 0
-3121 3791 0
-3122 3792 0
-3123 3793 0
-3124 3794 0
-3125 3795 0
-3126 3796 0
-3127 3797 0
-3128 3798 0
-3113 3791 0
-3114 3792 0
-3115 3793 0
-3116 3794 0
-3117 3795 0
-3118 3796 0
-3119 3797 0
-3120 3798 0
-3113 -3121 3792 0
-3113 -3122 3793 0
-3113 -3123 3794 0
-3113 -3124 3795 0
-3113 -3125 3796 0
-3113 -3126 3797 0
-3113 -3127 3798 0
-3113 -3128 3799 0
-3114 -3121 3793 0
-3114 -3122 3794 0
-3114 -3123 3795 0
-3114 -3124 3796 0
-3114 -3125 3797 0
-3114 -3126 3798 0
-3114 -3127 3799 0
-3114 -3128 3800 0
-3115 -3121 3794 0
-3115 -3122 3795 0
-3115 -3123 3796 0
-3115 -3124 3797 0
-3115 -3125 3798 0
-3115 -3126 3799 0
-3115 -3127 3800 0
-3115 -3128 3801 0
-3116 -3121 3795 0
-3116 -3122 3796 0
-3116 -3123 3797 0
-3116 -3124 3798 0
-3116 -3125 3799 0
-3116 -3126 3800 0
-3116 -3127 3801 0
-3116 -3128 3802 0
-3117 -3121 3796 0
-3117 -3122 3797 0
-3117 -3123 3798 0
-3117 -3124 3799 0
-3117 -3125 3800 0
-3117 -3126 3801 0
-3117 -3127 3802 0
-3117 -3128 3803 0
-3118 -3121 3797 0
-3118 -3122 3798 0
-3118 -3123 3799 0
-3118 -3124 3800 0
-3118 -3125 3801 0
-3118 -3126 3802 0
-3118 -3127 3803 0
-3118 -3128 3804 0
-3119 -3121 3798 0
-3119 -3122 3799 0
-3119 -3123 3800 0
-3119 -3124 3801 0
-3119 -3125 3802 0
-3119 -3126 3803 0
-3119 -3127 3804 0
-3119 -3128 3805 0
-3120 -3121 3799 0
-3120 -3122 3800 0
-3120 -3123 3801 0
-3120 -3124 3802 0
-3120 -3125 3803 0
-3120 -3126 3804 0
-3120 -3127 3805 0
-3120 -3128 3806 0
-3137 3807 0
-3138 3808 0
-3139 3809 0
-3140 3810 0
-3141 3811 0
-3142 3812 0
-3143 3813 0
-3144 3814 0
-3129 3807 0
-3130 3808 0
-3131 3809 0
-3132 3810 0
-3133 3811 0
-3134 3812 0
-3135 3813 0
-3136 3814 0
-3129 -3137 3808 0
-3129 -3138 3809 0
-3129 -3139 3810 0
-3129 -3140 3811 0
-3129 -3141 3812 0
-3129 -3142 3813 0
-3129 -3143 3814 0
-3129 -3144 3815 0
-3130 -3137 3809 0
-3130 -3138 3810 0
-3130 -3139 3811 0
-3130 -3140 3812 0
-3130 -3141 3813 0
-3130 -3142 3814 0
-3130 -3143 3815 0
-3130 -3144 3816 0
-3131 -3137 3810 0
-3131 -3138 3811 0
-3131 -3139 3812 0
-3131 -3140 3813 0
-3131 -3141 3814 0
-3131 -3142 3815 0
-3131 -3143 3816 0
-3131 -3144 3817 0
-3132 -3137 3811 0
-3132 -3138 3812 0
-3132 -3139 3813 0
-3132 -3140 3814 0
-3132 -3141 3815 0
-3132 -3142 3816 0
-3132 -3143 3817 0
-3132 -3144 3818 0
-3133 -3137 3812 0
-3133 -3138 3813 0
-3133 -3139 3814 0
-3133 -3140 3815 0
-3133 -3141 3816 0
-3133 -3142 3817 0
-3133 -3143 3818 0
-3133 -3144 3819 0
-3134 -3137 3813 0
-3134 -3138 3814 0
-3134 -3139 3815 0
-3134 -3140 3816 0
-3134 -3141 3817 0
-3134 -3142 3818 0
-3134 -3143 3819 0
-3134 -3144 3820 0
-3135 -3137 3814 0
-3135 -3138 3815 0
-3135 -3139 3816 0
-3135 -3140 3817 0
-3135 -3141 3818 0
-3135 -3142 3819 0
-3135 -3143 3820 0
-3135 -3144 3821 0
-3136 -3137 3815 0
-3136 -3138 3816 0
-3136 -3139 3817 0
-3136 -3140 3818 0
-3136 -3141 3819 0
-3136 -3142 3820 0
-3136 -3143 3821 0
-3136 -3144 3822 0
-3153 3823 0
-3154 3824 0
-3155 3825 0
-3156 3826 0
-3157 3827 0
-3158 3828 0
-3159 3829 0
-3160 3830 0
-3145 3823 0
-3146 3824 0
-3147 3825 0
-3148 3826 0
-3149 3827 0
-3150 3828 0
-3151 3829 0
-3152 3830 0
-3145 -3153 3824 0
-3145 -3154 3825 0
-3145 -3155 3826 0
-3145 -3156 3827 0
-3145 -3157 3828 0
-3145 -3158 3829 0
-3145 -3159 3830 0
-3145 -3160 3831 0
-3146 -3153 3825 0
-3146 -3154 3826 0
-3146 -3155 3827 0
-3146 -3156 3828 0
-3146 -3157 3829 0
-3146 -3158 3830 0
-3146 -3159 3831 0
-3146 -3160 3832 0
-3147 -3153 3826 0
-3147 -3154 3827 0
-3147 -3155 3828 0
-3147 -3156 3829 0
-3147 -3157 3830 0
-3147 -3158 3831 0
-3147 -3159 3832 0
-3147 -3160 3833 0
-3148 -3153 3827 0
-3148 -3154 3828 0
-3148 -3155 3829 0
-3148 -3156 3830 0
-3148 -3157 3831 0
-3148 -3158 3832 0
-3148 -3159 3833 0
-3148 -3160 3834 0
-3149 -3153 3828 0
-3149 -3154 3829 0
-3149 -3155 3830 0
-3149 -3156 3831 0
-3149 -3157 3832 0
-3149 -3158 3833 0
-3149 -3159 3834 0
-3149 -3160 3835 0
-3150 -3153 3829 0
-3150 -3154 3830 0
-3150 -3155 3831 0
-3150 -3156 3832 0
-3150 -3157 3833 0
-3150 -3158 3834 0
-3150 -3159 3835 0
-3150 -3160 3836 0
-3151 -3153 3830 0
-3151 -3154 3831 0
-3151 -3155 3832 0
-3151 -3156 3833 0
-3151 -3157 3834 0
-3151 -3158 3835 0
-3151 -3159 3836 0
-3151 -3160 3837 0
-3152 -3153 3831 0
-3152 -3154 3832 0
-3152 -3155 3833 0
-3152 -3156 3834 0
-3152 -3157 3835 0
-3152 -3158 3836 0
-3152 -3159 3837 0
-3152 -3160 3838 0
-3169 3839 0
-3170 3840 0
-3171 3841 0
-3172 3842 0
-3173 3843 0
-3174 3844 0
-3175 3845 0
-3176 3846 0
-3161 3839 0
-3162 3840 0
-3163 3841 0
-3164 3842 0
-3165 3843 0
-3166 3844 0
-3167 3845 0
-3168 3846 0
-3161 -3169 3840 0
-3161 -3170 3841 0
-3161 -3171 3842 0
-3161 -3172 3843 0
-3161 -3173 3844 0
-3161 -3174 3845 0
-3161 -3175 3846 0
-3161 -3176 3847 0
-3162 -3169 3841 0
-3162 -3170 3842 0
-3162 -3171 3843 0
-3162 -3172 3844 0
-3162 -3173 3845 0
-3162 -3174 3846 0
-3162 -3175 3847 0
-3162 -3176 3848 0
-3163 -3169 3842 0
-3163 -3170 3843 0
-3163 -3171 3844 0
-3163 -3172 3845 0
-3163 -3173 3846 0
-3163 -3174 3847 0
-3163 -3175 3848 0
-3163 -3176 3849 0
-3164 -3169 3843 0
-3164 -3170 3844 0
-3164 -3171 3845 0
-3164 -3172 3846 0
-3164 -3173 3847 0
-3164 -3174 3848 0
-3164 -3175 3849 0
-3164 -3176 3850 0
-3165 -3169 3844 0
-3165 -3170 3845 0
-3165 -3171 3846 0
-3165 -3172 3847 0
-3165 -3173 3848 0
-3165 -3174 3849 0
-3165 -3175 3850 0
-3165 -3176 3851 0
-3166 -3169 3845 0
-3166 -3170 3846 0
-3166 -3171 3847 0
-3166 -3172 3848 0
-3166 -3173 3849 0
-3166 -3174 3850 0
-3166 -3175 3851 0
-3166 -3176 3852 0
-3167 -3169 3846 0
-3167 -3170 3847 0
-3167 -3171 3848 0
-3167 -3172 3849 0
-3167 -3173 3850 0
-3167 -3174 3851 0
-3167 -3175 3852 0
-3167 -3176 3853 0
-3168 -3169 3847 0
-3168 -3170 3848 0
-3168 -3171 3849 0
-3168 -3172 3850 0
-3168 -3173 3851 0
-3168 -3174 3852 0
-3168 -3175 3853 0
-3168 -3176 3854 0
-3185 3855 0
-3186 3856 0
-3187 3857 0
-3188 3858 0
-3189 3859 0
-3190 3860 0
-3191 3861 0
-3192 3862 0
-3177 3855 0
-3178 3856 0
-3179 3857 0
-3180 3858 0
-3181 3859 0
-3182 3860 0
-3183 3861 0
-3184 3862 0
-3177 -3185 3856 0
-3177 -3186 3857 0
-3177 -3187 3858 0
-3177 -3188 3859 0
-3177 -3189 3860 0
-3177 -3190 3861 0
-3177 -3191 3862 0
-3177 -3192 3863 0
-3178 -3185 3857 0
-3178 -3186 3858 0
-3178 -3187 3859 0
-3178 -3188 3860 0
-3178 -3189 3861 0
-3178 -3190 3862 0
-3178 -3191 3863 0
-3178 -3192 3864 0
-3179 -3185 3858 0
-3179 -3186 3859 0
-3179 -3187 3860 0
-3179 -3188 3861 0
-3179 -3189 3862 0
-3179 -3190 3863 0
-3179 -3191 3864 0
-3179 -3192 3865 0
-3180 -3185 3859 0
-3180 -3186 3860 0
-3180 -3187 3861 0
-3180 -3188 3862 0
-3180 -3189 3863 0
-3180 -3190 3864 0
-3180 -3191 3865 0
-3180 -3192 3866 0
-3181 -3185 3860 0
-3181 -3186 3861 0
-3181 -3187 3862 0
-3181 -3188 3863 0
-3181 -3189 3864 0
-3181 -3190 3865 0
-3181 -3191 3866 0
-3181 -3192 3867 0
-3182 -3185 3861 0
-3182 -3186 3862 0
-3182 -3187 3863 0
-3182 -3188 3864 0
-3182 -3189 3865 0
-3182 -3190 3866 0
-3182 -3191 3867 0
-3182 -3192 3868 0
-3183 -3185 3862 0
-3183 -3186 3863 0
-3183 -3187 3864 0
-3183 -3188 3865 0
-3183 -3189 3866 0
-3183 -3190 3867 0
-3183 -3191 3868 0
-3183 -3192 3869 0
-3184 -3185 3863 0
-3184 -3186 3864 0
-3184 -3187 3865 0
-3184 -3188 3866 0
-3184 -3189 3867 0
-3184 -3190 3868 0
-3184 -3191 3869 0
-3184 -3192 3870 0
-3201 3871 0
-3202 3872 0
-3203 3873 0
-3204 3874 0
-3205 3875 0
-3206 3876 0
-3207 3877 0
-3208 3878 0
-3209 3879 0
-3210 3880 0
-3211 3881 0
-3212 3882 0
-3213 3883 0
-3214 3884 0
-3193 3871 0
-3194 3872 0
-3195 3873 0
-3196 3874 0
-3197 3875 0
-3198 3876 0
-3199 3877 0
-3200 3878 0
-3193 -3201 3872 0
-3193 -3202 3873 0
-3193 -3203 3874 0
-3193 -3204 3875 0
-3193 -3205 3876 0
-3193 -3206 3877 0
-3193 -3207 3878 0
-3193 -3208 3879 0
-3193 -3209 3880 0
-3193 -3210 3881 0
-3193 -3211 3882 0
-3193 -3212 3883 0
-3193 -3213 3884 0
-3193 -3214 3885 0
-3194 -3201 3873 0
-3194 -3202 3874 0
-3194 -3203 3875 0
-3194 -3204 3876 0
-3194 -3205 3877 0
-3194 -3206 3878 0
-3194 -3207 3879 0
-3194 -3208 3880 0
-3194 -3209 3881 0
-3194 -3210 3882 0
-3194 -3211 3883 0
-3194 -3212 3884 0
-3194 -3213 3885 0
-3194 -3214 3886 0
-3195 -3201 3874 0
-3195 -3202 3875 0
-3195 -3203 3876 0
-3195 -3204 3877 0
-3195 -3205 3878 0
-3195 -3206 3879 0
-3195 -3207 3880 0
-3195 -3208 3881 0
-3195 -3209 3882 0
-3195 -3210 3883 0
-3195 -3211 3884 0
-3195 -3212 3885 0
-3195 -3213 3886 0
-3195 -3214 3887 0
-3196 -3201 3875 0
-3196 -3202 3876 0
-3196 -3203 3877 0
-3196 -3204 3878 0
-3196 -3205 3879 0
-3196 -3206 3880 0
-3196 -3207 3881 0
-3196 -3208 3882 0
-3196 -3209 3883 0
-3196 -3210 3884 0
-3196 -3211 3885 0
-3196 -3212 3886 0
-3196 -3213 3887 0
-3196 -3214 3888 0
-3197 -3201 3876 0
-3197 -3202 3877 0
-3197 -3203 3878 0
-3197 -3204 3879 0
-3197 -3205 3880 0
-3197 -3206 3881 0
-3197 -3207 3882 0
-3197 -3208 3883 0
-3197 -3209 3884 0
-3197 -3210 3885 0
-3197 -3211 3886 0
-3197 -3212 3887 0
-3197 -3213 3888 0
-3197 -3214 3889 0
-3198 -3201 3877 0
-3198 -3202 3878 0
-3198 -3203 3879 0
-3198 -3204 3880 0
-3198 -3205 3881 0
-3198 -3206 3882 0
-3198 -3207 3883 0
-3198 -3208 3884 0
-3198 -3209 3885 0
-3198 -3210 3886 0
-3198 -3211 3887 0
-3198 -3212 3888 0
-3198 -3213 3889 0
-3198 -3214 3890 0
-3199 -3201 3878 0
-3199 -3202 3879 0
-3199 -3203 3880 0
-3199 -3204 3881 0
-3199 -3205 3882 0
-3199 -3206 3883 0
-3199 -3207 3884 0
-3199 -3208 3885 0
-3199 -3209 3886 0
-3199 -3210 3887 0
-3199 -3211 3888 0
-3199 -3212 3889 0
-3199 -3213 3890 0
-3199 -3214 3891 0
-3200 -3201 3879 0
-3200 -3202 3880 0
-3200 -3203 3881 0
-3200 -3204 3882 0
-3200 -3205 3883 0
-3200 -3206 3884 0
-3200 -3207 3885 0
-3200 -3208 3886 0
-3200 -3209 3887 0
-3200 -3210 3888 0
-3200 -3211 3889 0
-3200 -3212 3890 0
-3200 -3213 3891 0
-3200 -3214 3892 0
-3231 3893 0
-3232 3894 0
-3233 3895 0
-3234 3896 0
-3235 3897 0
-3236 3898 0
-3237 3899 0
-3238 3900 0
-3239 3901 0
-3240 3902 0
-3241 3903 0
-3242 3904 0
-3243 3905 0
-3244 3906 0
-3245 3907 0
-3246 3908 0
-3215 3893 0
-3216 3894 0
-3217 3895 0
-3218 3896 0
-3219 3897 0
-3220 3898 0
-3221 3899 0
-3222 3900 0
-3223 3901 0
-3224 3902 0
-3225 3903 0
-3226 3904 0
-3227 3905 0
-3228 3906 0
-3229 3907 0
-3230 3908 0
-3215 -3231 3894 0
-3215 -3232 3895 0
-3215 -3233 3896 0
-3215 -3234 3897 0
-3215 -3235 3898 0
-3215 -3236 3899 0
-3215 -3237 3900 0
-3215 -3238 3901 0
-3215 -3239 3902 0
-3215 -3240 3903 0
-3215 -3241 3904 0
-3215 -3242 3905 0
-3215 -3243 3906 0
-3215 -3244 3907 0
-3215 -3245 3908 0
-3215 -3246 3909 0
-3216 -3231 3895 0
-3216 -3232 3896 0
-3216 -3233 3897 0
-3216 -3234 3898 0
-3216 -3235 3899 0
-3216 -3236 3900 0
-3216 -3237 3901 0
-3216 -3238 3902 0
-3216 -3239 3903 0
-3216 -3240 3904 0
-3216 -3241 3905 0
-3216 -3242 3906 0
-3216 -3243 3907 0
-3216 -3244 3908 0
-3216 -3245 3909 0
-3216 -3246 3910 0
-3217 -3231 3896 0
-3217 -3232 3897 0
-3217 -3233 3898 0
-3217 -3234 3899 0
-3217 -3235 3900 0
-3217 -3236 3901 0
-3217 -3237 3902 0
-3217 -3238 3903 0
-3217 -3239 3904 0
-3217 -3240 3905 0
-3217 -3241 3906 0
-3217 -3242 3907 0
-3217 -3243 3908 0
-3217 -3244 3909 0
-3217 -3245 3910 0
-3217 -3246 3911 0
-3218 -3231 3897 0
-3218 -3232 3898 0
-3218 -3233 3899 0
-3218 -3234 3900 0
-3218 -3235 3901 0
-3218 -3236 3902 0
-3218 -3237 3903 0
-3218 -3238 3904 0
-3218 -3239 3905 0
-3218 -3240 3906 0
-3218 -3241 3907 0
-3218 -3242 3908 0
-3218 -3243 3909 0
-3218 -3244 3910 0
-3218 -3245 3911 0
-3218 -3246 3912 0
-3219 -3231 3898 0
-3219 -3232 3899 0
-3219 -3233 3900 0
-3219 -3234 3901 0
-3219 -3235 3902 0
-3219 -3236 3903 0
-3219 -3237 3904 0
-3219 -3238 3905 0
-3219 -3239 3906 0
-3219 -3240 3907 0
-3219 -3241 3908 0
-3219 -3242 3909 0
-3219 -3243 3910 0
-3219 -3244 3911 0
-3219 -3245 3912 0
-3219 -3246 3913 0
-3220 -3231 3899 0
-3220 -3232 3900 0
-3220 -3233 3901 0
-3220 -3234 3902 0
-3220 -3235 3903 0
-3220 -3236 3904 0
-3220 -3237 3905 0
-3220 -3238 3906 0
-3220 -3239 3907 0
-3220 -3240 3908 0
-3220 -3241 3909 0
-3220 -3242 3910 0
-3220 -3243 3911 0
-3220 -3244 3912 0
-3220 -3245 3913 0
-3220 -3246 3914 0
-3221 -3231 3900 0
-3221 -3232 3901 0
-3221 -3233 3902 0
-3221 -3234 3903 0
-3221 -3235 3904 0
-3221 -3236 3905 0
-3221 -3237 3906 0
-3221 -3238 3907 0
-3221 -3239 3908 0
-3221 -3240 3909 0
-3221 -3241 3910 0
-3221 -3242 3911 0
-3221 -3243 3912 0
-3221 -3244 3913 0
-3221 -3245 3914 0
-3221 -3246 3915 0
-3222 -3231 3901 0
-3222 -3232 3902 0
-3222 -3233 3903 0
-3222 -3234 3904 0
-3222 -3235 3905 0
-3222 -3236 3906 0
-3222 -3237 3907 0
-3222 -3238 3908 0
-3222 -3239 3909 0
-3222 -3240 3910 0
-3222 -3241 3911 0
-3222 -3242 3912 0
-3222 -3243 3913 0
-3222 -3244 3914 0
-3222 -3245 3915 0
-3222 -3246 3916 0
-3223 -3231 3902 0
-3223 -3232 3903 0
-3223 -3233 3904 0
-3223 -3234 3905 0
-3223 -3235 3906 0
-3223 -3236 3907 0
-3223 -3237 3908 0
-3223 -3238 3909 0
-3223 -3239 3910 0
-3223 -3240 3911 0
-3223 -3241 3912 0
-3223 -3242 3913 0
-3223 -3243 3914 0
-3223 -3244 3915 0
-3223 -3245 3916 0
-3223 -3246 3917 0
-3224 -3231 3903 0
-3224 -3232 3904 0
-3224 -3233 3905 0
-3224 -3234 3906 0
-3224 -3235 3907 0
-3224 -3236 3908 0
-3224 -3237 3909 0
-3224 -3238 3910 0
-3224 -3239 3911 0
-3224 -3240 3912 0
-3224 -3241 3913 0
-3224 -3242 3914 0
-3224 -3243 3915 0
-3224 -3244 3916 0
-3224 -3245 3917 0
-3225 -3231 3904 0
-3225 -3232 3905 0
-3225 -3233 3906 0
-3225 -3234 3907 0
-3225 -3235 3908 0
-3225 -3236 3909 0
-3225 -3237 3910 0
-3225 -3238 3911 0
-3225 -3239 3912 0
-3225 -3240 3913 0
-3225 -3241 3914 0
-3225 -3242 3915 0
-3225 -3243 3916 0
-3225 -3244 3917 0
-3226 -3231 3905 0
-3226 -3232 3906 0
-3226 -3233 3907 0
-3226 -3234 3908 0
-3226 -3235 3909 0
-3226 -3236 3910 0
-3226 -3237 3911 0
-3226 -3238 3912 0
-3226 -3239 3913 0
-3226 -3240 3914 0
-3226 -3241 3915 0
-3226 -3242 3916 0
-3226 -3243 3917 0
-3227 -3231 3906 0
-3227 -3232 3907 0
-3227 -3233 3908 0
-3227 -3234 3909 0
-3227 -3235 3910 0
-3227 -3236 3911 0
-3227 -3237 3912 0
-3227 -3238 3913 0
-3227 -3239 3914 0
-3227 -3240 3915 0
-3227 -3241 3916 0
-3227 -3242 3917 0
-3228 -3231 3907 0
-3228 -3232 3908 0
-3228 -3233 3909 0
-3228 -3234 3910 0
-3228 -3235 3911 0
-3228 -3236 3912 0
-3228 -3237 3913 0
-3228 -3238 3914 0
-3228 -3239 3915 0
-3228 -3240 3916 0
-3228 -3241 3917 0
-3229 -3231 3908 0
-3229 -3232 3909 0
-3229 -3233 3910 0
-3229 -3234 3911 0
-3229 -3235 3912 0
-3229 -3236 3913 0
-3229 -3237 3914 0
-3229 -3238 3915 0
-3229 -3239 3916 0
-3229 -3240 3917 0
-3230 -3231 3909 0
-3230 -3232 3910 0
-3230 -3233 3911 0
-3230 -3234 3912 0
-3230 -3235 3913 0
-3230 -3236 3914 0
-3230 -3237 3915 0
-3230 -3238 3916 0
-3230 -3239 3917 0
-3263 3918 0
-3264 3919 0
-3265 3920 0
-3266 3921 0
-3267 3922 0
-3268 3923 0
-3269 3924 0
-3270 3925 0
-3271 3926 0
-3272 3927 0
-3273 3928 0
-3274 3929 0
-3275 3930 0
-3276 3931 0
-3277 3932 0
-3278 3933 0
-3247 3918 0
-3248 3919 0
-3249 3920 0
-3250 3921 0
-3251 3922 0
-3252 3923 0
-3253 3924 0
-3254 3925 0
-3255 3926 0
-3256 3927 0
-3257 3928 0
-3258 3929 0
-3259 3930 0
-3260 3931 0
-3261 3932 0
-3262 3933 0
-3247 -3263 3919 0
-3247 -3264 3920 0
-3247 -3265 3921 0
-3247 -3266 3922 0
-3247 -3267 3923 0
-3247 -3268 3924 0
-3247 -3269 3925 0
-3247 -3270 3926 0
-3247 -3271 3927 0
-3247 -3272 3928 0
-3247 -3273 3929 0
-3247 -3274 3930 0
-3247 -3275 3931 0
-3247 -3276 3932 0
-3247 -3277 3933 0
-3247 -3278 3934 0
-3248 -3263 3920 0
-3248 -3264 3921 0
-3248 -3265 3922 0
-3248 -3266 3923 0
-3248 -3267 3924 0
-3248 -3268 3925 0
-3248 -3269 3926 0
-3248 -3270 3927 0
-3248 -3271 3928 0
-3248 -3272 3929 0
-3248 -3273 3930 0
-3248 -3274 3931 0
-3248 -3275 3932 0
-3248 -3276 3933 0
-3248 -3277 3934 0
-3248 -3278 3935 0
-3249 -3263 3921 0
-3249 -3264 3922 0
-3249 -3265 3923 0
-3249 -3266 3924 0
-3249 -3267 3925 0
-3249 -3268 3926 0
-3249 -3269 3927 0
-3249 -3270 3928 0
-3249 -3271 3929 0
-3249 -3272 3930 0
-3249 -3273 3931 0
-3249 -3274 3932 0
-3249 -3275 3933 0
-3249 -3276 3934 0
-3249 -3277 3935 0
-3249 -3278 3936 0
-3250 -3263 3922 0
-3250 -3264 3923 0
-3250 -3265 3924 0
-3250 -3266 3925 0
-3250 -3267 3926 0
-3250 -3268 3927 0
-3250 -3269 3928 0
-3250 -3270 3929 0
-3250 -3271 3930 0
-3250 -3272 3931 0
-3250 -3273 3932 0
-3250 -3274 3933 0
-3250 -3275 3934 0
-3250 -3276 3935 0
-3250 -3277 3936 0
-3250 -3278 3937 0
-3251 -3263 3923 0
-3251 -3264 3924 0
-3251 -3265 3925 0
-3251 -3266 3926 0
-3251 -3267 3927 0
-3251 -3268 3928 0
-3251 -3269 3929 0
-3251 -3270 3930 0
-3251 -3271 3931 0
-3251 -3272 3932 0
-3251 -3273 3933 0
-3251 -3274 3934 0
-3251 -3275 3935 0
-3251 -3276 3936 0
-3251 -3277 3937 0
-3251 -3278 3938 0
-3252 -3263 3924 0
-3252 -3264 3925 0
-3252 -3265 3926 0
-3252 -3266 3927 0
-3252 -3267 3928 0
-3252 -3268 3929 0
-3252 -3269 3930 0
-3252 -3270 3931 0
-3252 -3271 3932 0
-3252 -3272 3933 0
-3252 -3273 3934 0
-3252 -3274 3935 0
-3252 -3275 3936 0
-3252 -3276 3937 0
-3252 -3277 3938 0
-3252 -3278 3939 0
-3253 -3263 3925 0
-3253 -3264 3926 0
-3253 -3265 3927 0
-3253 -3266 3928 0
-3253 -3267 3929 0
-3253 -3268 3930 0
-3253 -3269 3931 0
-3253 -3270 3932 0
-3253 -3271 3933 0
-3253 -3272 3934 0
-3253 -3273 3935 0
-3253 -3274 3936 0
-3253 -3275 3937 0
-3253 -3276 3938 0
-3253 -3277 3939 0
-3253 -3278 3940 0
-3254 -3263 3926 0
-3254 -3264 3927 0
-3254 -3265 3928 0
-3254 -3266 3929 0
-3254 -3267 3930 0
-3254 -3268 3931 0
-3254 -3269 3932 0
-3254 -3270 3933 0
-3254 -3271 3934 0
-3254 -3272 3935 0
-3254 -3273 3936 0
-3254 -3274 3937 0
-3254 -3275 3938 0
-3254 -3276 3939 0
-3254 -3277 3940 0
-3254 -3278 3941 0
-3255 -3263 3927 0
-3255 -3264 3928 0
-3255 -3265 3929 0
-3255 -3266 3930 0
-3255 -3267 3931 0
-3255 -3268 3932 0
-3255 -3269 3933 0
-3255 -3270 3934 0
-3255 -3271 3935 0
-3255 -3272 3936 0
-3255 -3273 3937 0
-3255 -3274 3938 0
-3255 -3275 3939 0
-3255 -3276 3940 0
-3255 -3277 3941 0
-3255 -3278 3942 0
-3256 -3263 3928 0
-3256 -3264 3929 0
-3256 -3265 3930 0
-3256 -3266 3931 0
-3256 -3267 3932 0
-3256 -3268 3933 0
-3256 -3269 3934 0
-3256 -3270 3935 0
-3256 -3271 3936 0
-3256 -3272 3937 0
-3256 -3273 3938 0
-3256 -3274 3939 0
-3256 -3275 3940 0
-3256 -3276 3941 0
-3256 -3277 3942 0
-3257 -3263 3929 0
-3257 -3264 3930 0
-3257 -3265 3931 0
-3257 -3266 3932 0
-3257 -3267 3933 0
-3257 -3268 3934 0
-3257 -3269 3935 0
-3257 -3270 3936 0
-3257 -3271 3937 0
-3257 -3272 3938 0
-3257 -3273 3939 0
-3257 -3274 3940 0
-3257 -3275 3941 0
-3257 -3276 3942 0
-3258 -3263 3930 0
-3258 -3264 3931 0
-3258 -3265 3932 0
-3258 -3266 3933 0
-3258 -3267 3934 0
-3258 -3268 3935 0
-3258 -3269 3936 0
-3258 -3270 3937 0
-3258 -3271 3938 0
-3258 -3272 3939 0
-3258 -3273 3940 0
-3258 -3274 3941 0
-3258 -3275 3942 0
-3259 -3263 3931 0
-3259 -3264 3932 0
-3259 -3265 3933 0
-3259 -3266 3934 0
-3259 -3267 3935 0
-3259 -3268 3936 0
-3259 -3269 3937 0
-3259 -3270 3938 0
-3259 -3271 3939 0
-3259 -3272 3940 0
-3259 -3273 3941 0
-3259 -3274 3942 0
-3260 -3263 3932 0
-3260 -3264 3933 0
-3260 -3265 3934 0
-3260 -3266 3935 0
-3260 -3267 3936 0
-3260 -3268 3937 0
-3260 -3269 3938 0
-3260 -3270 3939 0
-3260 -3271 3940 0
-3260 -3272 3941 0
-3260 -3273 3942 0
-3261 -3263 3933 0
-3261 -3264 3934 0
-3261 -3265 3935 0
-3261 -3266 3936 0
-3261 -3267 3937 0
-3261 -3268 3938 0
-3261 -3269 3939 0
-3261 -3270 3940 0
-3261 -3271 3941 0
-3261 -3272 3942 0
-3262 -3263 3934 0
-3262 -3264 3935 0
-3262 -3265 3936 0
-3262 -3266 3937 0
-3262 -3267 3938 0
-3262 -3268 3939 0
-3262 -3269 3940 0
-3262 -3270 3941 0
-3262 -3271 3942 0
-3295 3943 0
-3296 3944 0
-3297 3945 0
-3298 3946 0
-3299 3947 0
-3300 3948 0
-3301 3949 0
-3302 3950 0
-3303 3951 0
-3304 3952 0
-3305 3953 0
-3306 3954 0
-3307 3955 0
-3308 3956 0
-3309 3957 0
-3310 3958 0
-3279 3943 0
-3280 3944 0
-3281 3945 0
-3282 3946 0
-3283 3947 0
-3284 3948 0
-3285 3949 0
-3286 3950 0
-3287 3951 0
-3288 3952 0
-3289 3953 0
-3290 3954 0
-3291 3955 0
-3292 3956 0
-3293 3957 0
-3294 3958 0
-3279 -3295 3944 0
-3279 -3296 3945 0
-3279 -3297 3946 0
-3279 -3298 3947 0
-3279 -3299 3948 0
-3279 -3300 3949 0
-3279 -3301 3950 0
-3279 -3302 3951 0
-3279 -3303 3952 0
-3279 -3304 3953 0
-3279 -3305 3954 0
-3279 -3306 3955 0
-3279 -3307 3956 0
-3279 -3308 3957 0
-3279 -3309 3958 0
-3279 -3310 3959 0
-3280 -3295 3945 0
-3280 -3296 3946 0
-3280 -3297 3947 0
-3280 -3298 3948 0
-3280 -3299 3949 0
-3280 -3300 3950 0
-3280 -3301 3951 0
-3280 -3302 3952 0
-3280 -3303 3953 0
-3280 -3304 3954 0
-3280 -3305 3955 0
-3280 -3306 3956 0
-3280 -3307 3957 0
-3280 -3308 3958 0
-3280 -3309 3959 0
-3280 -3310 3960 0
-3281 -3295 3946 0
-3281 -3296 3947 0
-3281 -3297 3948 0
-3281 -3298 3949 0
-3281 -3299 3950 0
-3281 -3300 3951 0
-3281 -3301 3952 0
-3281 -3302 3953 0
-3281 -3303 3954 0
-3281 -3304 3955 0
-3281 -3305 3956 0
-3281 -3306 3957 0
-3281 -3307 3958 0
-3281 -3308 3959 0
-3281 -3309 3960 0
-3281 -3310 3961 0
-3282 -3295 3947 0
-3282 -3296 3948 0
-3282 -3297 3949 0
-3282 -3298 3950 0
-3282 -3299 3951 0
-3282 -3300 3952 0
-3282 -3301 3953 0
-3282 -3302 3954 0
-3282 -3303 3955 0
-3282 -3304 3956 0
-3282 -3305 3957 0
-3282 -3306 3958 0
-3282 -3307 3959 0
-3282 -3308 3960 0
-3282 -3309 3961 0
-3282 -3310 3962 0
-3283 -3295 3948 0
-3283 -3296 3949 0
-3283 -3297 3950 0
-3283 -3298 3951 0
-3283 -3299 3952 0
-3283 -3300 3953 0
-3283 -3301 3954 0
-3283 -3302 3955 0
-3283 -3303 3956 0
-3283 -3304 3957 0
-3283 -3305 3958 0
-3283 -3306 3959 0
-3283 -3307 3960 0
-3283 -3308 3961 0
-3283 -3309 3962 0
-3283 -3310 3963 0
-3284 -3295 3949 0
-3284 -3296 3950 0
-3284 -3297 3951 0
-3284 -3298 3952 0
-3284 -3299 3953 0
-3284 -3300 3954 0
-3284 -3301 3955 0
-3284 -3302 3956 0
-3284 -3303 3957 0
-3284 -3304 3958 0
-3284 -3305 3959 0
-3284 -3306 3960 0
-3284 -3307 3961 0
-3284 -3308 3962 0
-3284 -3309 3963 0
-3284 -3310 3964 0
-3285 -3295 3950 0
-3285 -3296 3951 0
-3285 -3297 3952 0
-3285 -3298 3953 0
-3285 -3299 3954 0
-3285 -3300 3955 0
-3285 -3301 3956 0
-3285 -3302 3957 0
-3285 -3303 3958 0
-3285 -3304 3959 0
-3285 -3305 3960 0
-3285 -3306 3961 0
-3285 -3307 3962 0
-3285 -3308 3963 0
-3285 -3309 3964 0
-3285 -3310 3965 0
-3286 -3295 3951 0
-3286 -3296 3952 0
-3286 -3297 3953 0
-3286 -3298 3954 0
-3286 -3299 3955 0
-3286 -3300 3956 0
-3286 -3301 3957 0
-3286 -3302 3958 0
-3286 -3303 3959 0
-3286 -3304 3960 0
-3286 -3305 3961 0
-3286 -3306 3962 0
-3286 -3307 3963 0
-3286 -3308 3964 0
-3286 -3309 3965 0
-3286 -3310 3966 0
-3287 -3295 3952 0
-3287 -3296 3953 0
-3287 -3297 3954 0
-3287 -3298 3955 0
-3287 -3299 3956 0
-3287 -3300 3957 0
-3287 -3301 3958 0
-3287 -3302 3959 0
-3287 -3303 3960 0
-3287 -3304 3961 0
-3287 -3305 3962 0
-3287 -3306 3963 0
-3287 -3307 3964 0
-3287 -3308 3965 0
-3287 -3309 3966 0
-3287 -3310 3967 0
-3288 -3295 3953 0
-3288 -3296 3954 0
-3288 -3297 3955 0
-3288 -3298 3956 0
-3288 -3299 3957 0
-3288 -3300 3958 0
-3288 -3301 3959 0
-3288 -3302 3960 0
-3288 -3303 3961 0
-3288 -3304 3962 0
-3288 -3305 3963 0
-3288 -3306 3964 0
-3288 -3307 3965 0
-3288 -3308 3966 0
-3288 -3309 3967 0
-3289 -3295 3954 0
-3289 -3296 3955 0
-3289 -3297 3956 0
-3289 -3298 3957 0
-3289 -3299 3958 0
-3289 -3300 3959 0
-3289 -3301 3960 0
-3289 -3302 3961 0
-3289 -3303 3962 0
-3289 -3304 3963 0
-3289 -3305 3964 0
-3289 -3306 3965 0
-3289 -3307 3966 0
-3289 -3308 3967 0
-3290 -3295 3955 0
-3290 -3296 3956 0
-3290 -3297 3957 0
-3290 -3298 3958 0
-3290 -3299 3959 0
-3290 -3300 3960 0
-3290 -3301 3961 0
-3290 -3302 3962 0
-3290 -3303 3963 0
-3290 -3304 3964 0
-3290 -3305 3965 0
-3290 -3306 3966 0
-3290 -3307 3967 0
-3291 -3295 3956 0
-3291 -3296 3957 0
-3291 -3297 3958 0
-3291 -3298 3959 0
-3291 -3299 3960 0
-3291 -3300 3961 0
-3291 -3301 3962 0
-3291 -3302 3963 0
-3291 -3303 3964 0
-3291 -3304 3965 0
-3291 -3305 3966 0
-3291 -3306 3967 0
-3292 -3295 3957 0
-3292 -3296 3958 0
-3292 -3297 3959 0
-3292 -3298 3960 0
-3292 -3299 3961 0
-3292 -3300 3962 0
-3292 -3301 3963 0
-3292 -3302 3964 0
-3292 -3303 3965 0
-3292 -3304 3966 0
-3292 -3305 3967 0
-3293 -3295 3958 0
-3293 -3296 3959 0
-3293 -3297 3960 0
-3293 -3298 3961 0
-3293 -3299 3962 0
-3293 -3300 3963 0
-3293 -3301 3964 0
-3293 -3302 3965 0
-3293 -3303 3966 0
-3293 -3304 3967 0
-3294 -3295 3959 0
-3294 -3296 3960 0
-3294 -3297 3961 0
-3294 -3298 3962 0
-3294 -3299 3963 0
-3294 -3300 3964 0
-3294 -3301 3965 0
-3294 -3302 3966 0
-3294 -3303 3967 0
-3327 3968 0
-3328 3969 0
-3329 3970 0
-3330 3971 0
-3331 3972 0
-3332 3973 0
-3333 3974 0
-3334 3975 0
-3335 3976 0
-3336 3977 0
-3337 3978 0
-3338 3979 0
-3339 3980 0
-3340 3981 0
-3341 3982 0
-3342 3983 0
-3311 3968 0
-3312 3969 0
-3313 3970 0
-3314 3971 0
-3315 3972 0
-3316 3973 0
-3317 3974 0
-3318 3975 0
-3319 3976 0
-3320 3977 0
-3321 3978 0
-3322 3979 0
-3323 3980 0
-3324 3981 0
-3325 3982 0
-3326 3983 0
-3311 -3327 3969 0
-3311 -3328 3970 0
-3311 -3329 3971 0
-3311 -3330 3972 0
-3311 -3331 3973 0
-3311 -3332 3974 0
-3311 -3333 3975 0
-3311 -3334 3976 0
-3311 -3335 3977 0
-3311 -3336 3978 0
-3311 -3337 3979 0
-3311 -3338 3980 0
-3311 -3339 3981 0
-3311 -3340 3982 0
-3311 -3341 3983 0
-3311 -3342 3984 0
-3312 -3327 3970 0
-3312 -3328 3971 0
-3312 -3329 3972 0
-3312 -3330 3973 0
-3312 -3331 3974 0
-3312 -3332 3975 0
-3312 -3333 3976 0
-3312 -3334 3977 0
-3312 -3335 3978 0
-3312 -3336 3979 0
-3312 -3337 3980 0
-3312 -3338 3981 0
-3312 -3339 3982 0
-3312 -3340 3983 0
-3312 -3341 3984 0
-3312 -3342 3985 0
-3313 -3327 3971 0
-3313 -3328 3972 0
-3313 -3329 3973 0
-3313 -3330 3974 0
-3313 -3331 3975 0
-3313 -3332 3976 0
-3313 -3333 3977 0
-3313 -3334 3978 0
-3313 -3335 3979 0
-3313 -3336 3980 0
-3313 -3337 3981 0
-3313 -3338 3982 0
-3313 -3339 3983 0
-3313 -3340 3984 0
-3313 -3341 3985 0
-3313 -3342 3986 0
-3314 -3327 3972 0
-3314 -3328 3973 0
-3314 -3329 3974 0
-3314 -3330 3975 0
-3314 -3331 3976 0
-3314 -3332 3977 0
-3314 -3333 3978 0
-3314 -3334 3979 0
-3314 -3335 3980 0
-3314 -3336 3981 0
-3314 -3337 3982 0
-3314 -3338 3983 0
-3314 -3339 3984 0
-3314 -3340 3985 0
-3314 -3341 3986 0
-3314 -3342 3987 0
-3315 -3327 3973 0
-3315 -3328 3974 0
-3315 -3329 3975 0
-3315 -3330 3976 0
-3315 -3331 3977 0
-3315 -3332 3978 0
-3315 -3333 3979 0
-3315 -3334 3980 0
-3315 -3335 3981 0
-3315 -3336 3982 0
-3315 -3337 3983 0
-3315 -3338 3984 0
-3315 -3339 3985 0
-3315 -3340 3986 0
-3315 -3341 3987 0
-3315 -3342 3988 0
-3316 -3327 3974 0
-3316 -3328 3975 0
-3316 -3329 3976 0
-3316 -3330 3977 0
-3316 -3331 3978 0
-3316 -3332 3979 0
-3316 -3333 3980 0
-3316 -3334 3981 0
-3316 -3335 3982 0
-3316 -3336 3983 0
-3316 -3337 3984 0
-3316 -3338 3985 0
-3316 -3339 3986 0
-3316 -3340 3987 0
-3316 -3341 3988 0
-3316 -3342 3989 0
-3317 -3327 3975 0
-3317 -3328 3976 0
-3317 -3329 3977 0
-3317 -3330 3978 0
-3317 -3331 3979 0
-3317 -3332 3980 0
-3317 -3333 3981 0
-3317 -3334 3982 0
-3317 -3335 3983 0
-3317 -3336 3984 0
-3317 -3337 3985 0
-3317 -3338 3986 0
-3317 -3339 3987 0
-3317 -3340 3988 0
-3317 -3341 3989 0
-3317 -3342 3990 0
-3318 -3327 3976 0
-3318 -3328 3977 0
-3318 -3329 3978 0
-3318 -3330 3979 0
-3318 -3331 3980 0
-3318 -3332 3981 0
-3318 -3333 3982 0
-3318 -3334 3983 0
-3318 -3335 3984 0
-3318 -3336 3985 0
-3318 -3337 3986 0
-3318 -3338 3987 0
-3318 -3339 3988 0
-3318 -3340 3989 0
-3318 -3341 3990 0
-3318 -3342 3991 0
-3319 -3327 3977 0
-3319 -3328 3978 0
-3319 -3329 3979 0
-3319 -3330 3980 0
-3319 -3331 3981 0
-3319 -3332 3982 0
-3319 -3333 3983 0
-3319 -3334 3984 0
-3319 -3335 3985 0
-3319 -3336 3986 0
-3319 -3337 3987 0
-3319 -3338 3988 0
-3319 -3339 3989 0
-3319 -3340 3990 0
-3319 -3341 3991 0
-3319 -3342 3992 0
-3320 -3327 3978 0
-3320 -3328 3979 0
-3320 -3329 3980 0
-3320 -3330 3981 0
-3320 -3331 3982 0
-3320 -3332 3983 0
-3320 -3333 3984 0
-3320 -3334 3985 0
-3320 -3335 3986 0
-3320 -3336 3987 0
-3320 -3337 3988 0
-3320 -3338 3989 0
-3320 -3339 3990 0
-3320 -3340 3991 0
-3320 -3341 3992 0
-3321 -3327 3979 0
-3321 -3328 3980 0
-3321 -3329 3981 0
-3321 -3330 3982 0
-3321 -3331 3983 0
-3321 -3332 3984 0
-3321 -3333 3985 0
-3321 -3334 3986 0
-3321 -3335 3987 0
-3321 -3336 3988 0
-3321 -3337 3989 0
-3321 -3338 3990 0
-3321 -3339 3991 0
-3321 -3340 3992 0
-3322 -3327 3980 0
-3322 -3328 3981 0
-3322 -3329 3982 0
-3322 -3330 3983 0
-3322 -3331 3984 0
-3322 -3332 3985 0
-3322 -3333 3986 0
-3322 -3334 3987 0
-3322 -3335 3988 0
-3322 -3336 3989 0
-3322 -3337 3990 0
-3322 -3338 3991 0
-3322 -3339 3992 0
-3323 -3327 3981 0
-3323 -3328 3982 0
-3323 -3329 3983 0
-3323 -3330 3984 0
-3323 -3331 3985 0
-3323 -3332 3986 0
-3323 -3333 3987 0
-3323 -3334 3988 0
-3323 -3335 3989 0
-3323 -3336 3990 0
-3323 -3337 3991 0
-3323 -3338 3992 0
-3324 -3327 3982 0
-3324 -3328 3983 0
-3324 -3329 3984 0
-3324 -3330 3985 0
-3324 -3331 3986 0
-3324 -3332 3987 0
-3324 -3333 3988 0
-3324 -3334 3989 0
-3324 -3335 3990 0
-3324 -3336 3991 0
-3324 -3337 3992 0
-3325 -3327 3983 0
-3325 -3328 3984 0
-3325 -3329 3985 0
-3325 -3330 3986 0
-3325 -3331 3987 0
-3325 -3332 3988 0
-3325 -3333 3989 0
-3325 -3334 3990 0
-3325 -3335 3991 0
-3325 -3336 3992 0
-3326 -3327 3984 0
-3326 -3328 3985 0
-3326 -3329 3986 0
-3326 -3330 3987 0
-3326 -3331 3988 0
-3326 -3332 3989 0
-3326 -3333 3990 0
-3326 -3334 3991 0
-3326 -3335 3992 0
-3359 3993 0
-3360 3994 0
-3361 3995 0
-3362 3996 0
-3363 3997 0
-3364 3998 0
-3365 3999 0
-3366 4000 0
-3367 4001 0
-3368 4002 0
-3369 4003 0
-3370 4004 0
-3371 4005 0
-3372 4006 0
-3373 4007 0
-3374 4008 0
-3343 3993 0
-3344 3994 0
-3345 3995 0
-3346 3996 0
-3347 3997 0
-3348 3998 0
-3349 3999 0
-3350 4000 0
-3351 4001 0
-3352 4002 0
-3353 4003 0
-3354 4004 0
-3355 4005 0
-3356 4006 0
-3357 4007 0
-3358 4008 0
-3343 -3359 3994 0
-3343 -3360 3995 0
-3343 -3361 3996 0
-3343 -3362 3997 0
-3343 -3363 3998 0
-3343 -3364 3999 0
-3343 -3365 4000 0
-3343 -3366 4001 0
-3343 -3367 4002 0
-3343 -3368 4003 0
-3343 -3369 4004 0
-3343 -3370 4005 0
-3343 -3371 4006 0
-3343 -3372 4007 0
-3343 -3373 4008 0
-3343 -3374 4009 0
-3344 -3359 3995 0
-3344 -3360 3996 0
-3344 -3361 3997 0
-3344 -3362 3998 0
-3344 -3363 3999 0
-3344 -3364 4000 0
-3344 -3365 4001 0
-3344 -3366 4002 0
-3344 -3367 4003 0
-3344 -3368 4004 0
-3344 -3369 4005 0
-3344 -3370 4006 0
-3344 -3371 4007 0
-3344 -3372 4008 0
-3344 -3373 4009 0
-3344 -3374 4010 0
-3345 -3359 3996 0
-3345 -3360 3997 0
-3345 -3361 3998 0
-3345 -3362 3999 0
-3345 -3363 4000 0
-3345 -3364 4001 0
-3345 -3365 4002 0
-3345 -3366 4003 0
-3345 -3367 4004 0
-3345 -3368 4005 0
-3345 -3369 4006 0
-3345 -3370 4007 0
-3345 -3371 4008 0
-3345 -3372 4009 0
-3345 -3373 4010 0
-3345 -3374 4011 0
-3346 -3359 3997 0
-3346 -3360 3998 0
-3346 -3361 3999 0
-3346 -3362 4000 0
-3346 -3363 4001 0
-3346 -3364 4002 0
-3346 -3365 4003 0
-3346 -3366 4004 0
-3346 -3367 4005 0
-3346 -3368 4006 0
-3346 -3369 4007 0
-3346 -3370 4008 0
-3346 -3371 4009 0
-3346 -3372 4010 0
-3346 -3373 4011 0
-3346 -3374 4012 0
-3347 -3359 3998 0
-3347 -3360 3999 0
-3347 -3361 4000 0
-3347 -3362 4001 0
-3347 -3363 4002 0
-3347 -3364 4003 0
-3347 -3365 4004 0
-3347 -3366 4005 0
-3347 -3367 4006 0
-3347 -3368 4007 0
-3347 -3369 4008 0
-3347 -3370 4009 0
-3347 -3371 4010 0
-3347 -3372 4011 0
-3347 -3373 4012 0
-3347 -3374 4013 0
-3348 -3359 3999 0
-3348 -3360 4000 0
-3348 -3361 4001 0
-3348 -3362 4002 0
-3348 -3363 4003 0
-3348 -3364 4004 0
-3348 -3365 4005 0
-3348 -3366 4006 0
-3348 -3367 4007 0
-3348 -3368 4008 0
-3348 -3369 4009 0
-3348 -3370 4010 0
-3348 -3371 4011 0
-3348 -3372 4012 0
-3348 -3373 4013 0
-3348 -3374 4014 0
-3349 -3359 4000 0
-3349 -3360 4001 0
-3349 -3361 4002 0
-3349 -3362 4003 0
-3349 -3363 4004 0
-3349 -3364 4005 0
-3349 -3365 4006 0
-3349 -3366 4007 0
-3349 -3367 4008 0
-3349 -3368 4009 0
-3349 -3369 4010 0
-3349 -3370 4011 0
-3349 -3371 4012 0
-3349 -3372 4013 0
-3349 -3373 4014 0
-3349 -3374 4015 0
-3350 -3359 4001 0
-3350 -3360 4002 0
-3350 -3361 4003 0
-3350 -3362 4004 0
-3350 -3363 4005 0
-3350 -3364 4006 0
-3350 -3365 4007 0
-3350 -3366 4008 0
-3350 -3367 4009 0
-3350 -3368 4010 0
-3350 -3369 4011 0
-3350 -3370 4012 0
-3350 -3371 4013 0
-3350 -3372 4014 0
-3350 -3373 4015 0
-3350 -3374 4016 0
-3351 -3359 4002 0
-3351 -3360 4003 0
-3351 -3361 4004 0
-3351 -3362 4005 0
-3351 -3363 4006 0
-3351 -3364 4007 0
-3351 -3365 4008 0
-3351 -3366 4009 0
-3351 -3367 4010 0
-3351 -3368 4011 0
-3351 -3369 4012 0
-3351 -3370 4013 0
-3351 -3371 4014 0
-3351 -3372 4015 0
-3351 -3373 4016 0
-3351 -3374 4017 0
-3352 -3359 4003 0
-3352 -3360 4004 0
-3352 -3361 4005 0
-3352 -3362 4006 0
-3352 -3363 4007 0
-3352 -3364 4008 0
-3352 -3365 4009 0
-3352 -3366 4010 0
-3352 -3367 4011 0
-3352 -3368 4012 0
-3352 -3369 4013 0
-3352 -3370 4014 0
-3352 -3371 4015 0
-3352 -3372 4016 0
-3352 -3373 4017 0
-3353 -3359 4004 0
-3353 -3360 4005 0
-3353 -3361 4006 0
-3353 -3362 4007 0
-3353 -3363 4008 0
-3353 -3364 4009 0
-3353 -3365 4010 0
-3353 -3366 4011 0
-3353 -3367 4012 0
-3353 -3368 4013 0
-3353 -3369 4014 0
-3353 -3370 4015 0
-3353 -3371 4016 0
-3353 -3372 4017 0
-3354 -3359 4005 0
-3354 -3360 4006 0
-3354 -3361 4007 0
-3354 -3362 4008 0
-3354 -3363 4009 0
-3354 -3364 4010 0
-3354 -3365 4011 0
-3354 -3366 4012 0
-3354 -3367 4013 0
-3354 -3368 4014 0
-3354 -3369 4015 0
-3354 -3370 4016 0
-3354 -3371 4017 0
-3355 -3359 4006 0
-3355 -3360 4007 0
-3355 -3361 4008 0
-3355 -3362 4009 0
-3355 -3363 4010 0
-3355 -3364 4011 0
-3355 -3365 4012 0
-3355 -3366 4013 0
-3355 -3367 4014 0
-3355 -3368 4015 0
-3355 -3369 4016 0
-3355 -3370 4017 0
-3356 -3359 4007 0
-3356 -3360 4008 0
-3356 -3361 4009 0
-3356 -3362 4010 0
-3356 -3363 4011 0
-3356 -3364 4012 0
-3356 -3365 4013 0
-3356 -3366 4014 0
-3356 -3367 4015 0
-3356 -3368 4016 0
-3356 -3369 4017 0
-3357 -3359 4008 0
-3357 -3360 4009 0
-3357 -3361 4010 0
-3357 -3362 4011 0
-3357 -3363 4012 0
-3357 -3364 4013 0
-3357 -3365 4014 0
-3357 -3366 4015 0
-3357 -3367 4016 0
-3357 -3368 4017 0
-3358 -3359 4009 0
-3358 -3360 4010 0
-3358 -3361 4011 0
-3358 -3362 4012 0
-3358 -3363 4013 0
-3358 -3364 4014 0
-3358 -3365 4015 0
-3358 -3366 4016 0
-3358 -3367 4017 0
-3391 4018 0
-3392 4019 0
-3393 4020 0
-3394 4021 0
-3395 4022 0
-3396 4023 0
-3397 4024 0
-3398 4025 0
-3399 4026 0
-3400 4027 0
-3401 4028 0
-3402 4029 0
-3403 4030 0
-3404 4031 0
-3405 4032 0
-3406 4033 0
-3375 4018 0
-3376 4019 0
-3377 4020 0
-3378 4021 0
-3379 4022 0
-3380 4023 0
-3381 4024 0
-3382 4025 0
-3383 4026 0
-3384 4027 0
-3385 4028 0
-3386 4029 0
-3387 4030 0
-3388 4031 0
-3389 4032 0
-3390 4033 0
-3375 -3391 4019 0
-3375 -3392 4020 0
-3375 -3393 4021 0
-3375 -3394 4022 0
-3375 -3395 4023 0
-3375 -3396 4024 0
-3375 -3397 4025 0
-3375 -3398 4026 0
-3375 -3399 4027 0
-3375 -3400 4028 0
-3375 -3401 4029 0
-3375 -3402 4030 0
-3375 -3403 4031 0
-3375 -3404 4032 0
-3375 -3405 4033 0
-3375 -3406 4034 0
-3376 -3391 4020 0
-3376 -3392 4021 0
-3376 -3393 4022 0
-3376 -3394 4023 0
-3376 -3395 4024 0
-3376 -3396 4025 0
-3376 -3397 4026 0
-3376 -3398 4027 0
-3376 -3399 4028 0
-3376 -3400 4029 0
-3376 -3401 4030 0
-3376 -3402 4031 0
-3376 -3403 4032 0
-3376 -3404 4033 0
-3376 -3405 4034 0
-3376 -3406 4035 0
-3377 -3391 4021 0
-3377 -3392 4022 0
-3377 -3393 4023 0
-3377 -3394 4024 0
-3377 -3395 4025 0
-3377 -3396 4026 0
-3377 -3397 4027 0
-3377 -3398 4028 0
-3377 -3399 4029 0
-3377 -3400 4030 0
-3377 -3401 4031 0
-3377 -3402 4032 0
-3377 -3403 4033 0
-3377 -3404 4034 0
-3377 -3405 4035 0
-3377 -3406 4036 0
-3378 -3391 4022 0
-3378 -3392 4023 0
-3378 -3393 4024 0
-3378 -3394 4025 0
-3378 -3395 4026 0
-3378 -3396 4027 0
-3378 -3397 4028 0
-3378 -3398 4029 0
-3378 -3399 4030 0
-3378 -3400 4031 0
-3378 -3401 4032 0
-3378 -3402 4033 0
-3378 -3403 4034 0
-3378 -3404 4035 0
-3378 -3405 4036 0
-3378 -3406 4037 0
-3379 -3391 4023 0
-3379 -3392 4024 0
-3379 -3393 4025 0
-3379 -3394 4026 0
-3379 -3395 4027 0
-3379 -3396 4028 0
-3379 -3397 4029 0
-3379 -3398 4030 0
-3379 -3399 4031 0
-3379 -3400 4032 0
-3379 -3401 4033 0
-3379 -3402 4034 0
-3379 -3403 4035 0
-3379 -3404 4036 0
-3379 -3405 4037 0
-3379 -3406 4038 0
-3380 -3391 4024 0
-3380 -3392 4025 0
-3380 -3393 4026 0
-3380 -3394 4027 0
-3380 -3395 4028 0
-3380 -3396 4029 0
-3380 -3397 4030 0
-3380 -3398 4031 0
-3380 -3399 4032 0
-3380 -3400 4033 0
-3380 -3401 4034 0
-3380 -3402 4035 0
-3380 -3403 4036 0
-3380 -3404 4037 0
-3380 -3405 4038 0
-3380 -3406 4039 0
-3381 -3391 4025 0
-3381 -3392 4026 0
-3381 -3393 4027 0
-3381 -3394 4028 0
-3381 -3395 4029 0
-3381 -3396 4030 0
-3381 -3397 4031 0
-3381 -3398 4032 0
-3381 -3399 4033 0
-3381 -3400 4034 0
-3381 -3401 4035 0
-3381 -3402 4036 0
-3381 -3403 4037 0
-3381 -3404 4038 0
-3381 -3405 4039 0
-3381 -3406 4040 0
-3382 -3391 4026 0
-3382 -3392 4027 0
-3382 -3393 4028 0
-3382 -3394 4029 0
-3382 -3395 4030 0
-3382 -3396 4031 0
-3382 -3397 4032 0
-3382 -3398 4033 0
-3382 -3399 4034 0
-3382 -3400 4035 0
-3382 -3401 4036 0
-3382 -3402 4037 0
-3382 -3403 4038 0
-3382 -3404 4039 0
-3382 -3405 4040 0
-3382 -3406 4041 0
-3383 -3391 4027 0
-3383 -3392 4028 0
-3383 -3393 4029 0
-3383 -3394 4030 0
-3383 -3395 4031 0
-3383 -3396 4032 0
-3383 -3397 4033 0
-3383 -3398 4034 0
-3383 -3399 4035 0
-3383 -3400 4036 0
-3383 -3401 4037 0
-3383 -3402 4038 0
-3383 -3403 4039 0
-3383 -3404 4040 0
-3383 -3405 4041 0
-3383 -3406 4042 0
-3384 -3391 4028 0
-3384 -3392 4029 0
-3384 -3393 4030 0
-3384 -3394 4031 0
-3384 -3395 4032 0
-3384 -3396 4033 0
-3384 -3397 4034 0
-3384 -3398 4035 0
-3384 -3399 4036 0
-3384 -3400 4037 0
-3384 -3401 4038 0
-3384 -3402 4039 0
-3384 -3403 4040 0
-3384 -3404 4041 0
-3384 -3405 4042 0
-3385 -3391 4029 0
-3385 -3392 4030 0
-3385 -3393 4031 0
-3385 -3394 4032 0
-3385 -3395 4033 0
-3385 -3396 4034 0
-3385 -3397 4035 0
-3385 -3398 4036 0
-3385 -3399 4037 0
-3385 -3400 4038 0
-3385 -3401 4039 0
-3385 -3402 4040 0
-3385 -3403 4041 0
-3385 -3404 4042 0
-3386 -3391 4030 0
-3386 -3392 4031 0
-3386 -3393 4032 0
-3386 -3394 4033 0
-3386 -3395 4034 0
-3386 -3396 4035 0
-3386 -3397 4036 0
-3386 -3398 4037 0
-3386 -3399 4038 0
-3386 -3400 4039 0
-3386 -3401 4040 0
-3386 -3402 4041 0
-3386 -3403 4042 0
-3387 -3391 4031 0
-3387 -3392 4032 0
-3387 -3393 4033 0
-3387 -3394 4034 0
-3387 -3395 4035 0
-3387 -3396 4036 0
-3387 -3397 4037 0
-3387 -3398 4038 0
-3387 -3399 4039 0
-3387 -3400 4040 0
-3387 -3401 4041 0
-3387 -3402 4042 0
-3388 -3391 4032 0
-3388 -3392 4033 0
-3388 -3393 4034 0
-3388 -3394 4035 0
-3388 -3395 4036 0
-3388 -3396 4037 0
-3388 -3397 4038 0
-3388 -3398 4039 0
-3388 -3399 4040 0
-3388 -3400 4041 0
-3388 -3401 4042 0
-3389 -3391 4033 0
-3389 -3392 4034 0
-3389 -3393 4035 0
-3389 -3394 4036 0
-3389 -3395 4037 0
-3389 -3396 4038 0
-3389 -3397 4039 0
-3389 -3398 4040 0
-3389 -3399 4041 0
-3389 -3400 4042 0
-3390 -3391 4034 0
-3390 -3392 4035 0
-3390 -3393 4036 0
-3390 -3394 4037 0
-3390 -3395 4038 0
-3390 -3396 4039 0
-3390 -3397 4040 0
-3390 -3398 4041 0
-3390 -3399 4042 0
-3423 4043 0
-3424 4044 0
-3425 4045 0
-3426 4046 0
-3427 4047 0
-3428 4048 0
-3429 4049 0
-3430 4050 0
-3431 4051 0
-3432 4052 0
-3433 4053 0
-3434 4054 0
-3435 4055 0
-3436 4056 0
-3437 4057 0
-3438 4058 0
-3407 4043 0
-3408 4044 0
-3409 4045 0
-3410 4046 0
-3411 4047 0
-3412 4048 0
-3413 4049 0
-3414 4050 0
-3415 4051 0
-3416 4052 0
-3417 4053 0
-3418 4054 0
-3419 4055 0
-3420 4056 0
-3421 4057 0
-3422 4058 0
-3407 -3423 4044 0
-3407 -3424 4045 0
-3407 -3425 4046 0
-3407 -3426 4047 0
-3407 -3427 4048 0
-3407 -3428 4049 0
-3407 -3429 4050 0
-3407 -3430 4051 0
-3407 -3431 4052 0
-3407 -3432 4053 0
-3407 -3433 4054 0
-3407 -3434 4055 0
-3407 -3435 4056 0
-3407 -3436 4057 0
-3407 -3437 4058 0
-3407 -3438 4059 0
-3408 -3423 4045 0
-3408 -3424 4046 0
-3408 -3425 4047 0
-3408 -3426 4048 0
-3408 -3427 4049 0
-3408 -3428 4050 0
-3408 -3429 4051 0
-3408 -3430 4052 0
-3408 -3431 4053 0
-3408 -3432 4054 0
-3408 -3433 4055 0
-3408 -3434 4056 0
-3408 -3435 4057 0
-3408 -3436 4058 0
-3408 -3437 4059 0
-3408 -3438 4060 0
-3409 -3423 4046 0
-3409 -3424 4047 0
-3409 -3425 4048 0
-3409 -3426 4049 0
-3409 -3427 4050 0
-3409 -3428 4051 0
-3409 -3429 4052 0
-3409 -3430 4053 0
-3409 -3431 4054 0
-3409 -3432 4055 0
-3409 -3433 4056 0
-3409 -3434 4057 0
-3409 -3435 4058 0
-3409 -3436 4059 0
-3409 -3437 4060 0
-3409 -3438 4061 0
-3410 -3423 4047 0
-3410 -3424 4048 0
-3410 -3425 4049 0
-3410 -3426 4050 0
-3410 -3427 4051 0
-3410 -3428 4052 0
-3410 -3429 4053 0
-3410 -3430 4054 0
-3410 -3431 4055 0
-3410 -3432 4056 0
-3410 -3433 4057 0
-3410 -3434 4058 0
-3410 -3435 4059 0
-3410 -3436 4060 0
-3410 -3437 4061 0
-3410 -3438 4062 0
-3411 -3423 4048 0
-3411 -3424 4049 0
-3411 -3425 4050 0
-3411 -3426 4051 0
-3411 -3427 4052 0
-3411 -3428 4053 0
-3411 -3429 4054 0
-3411 -3430 4055 0
-3411 -3431 4056 0
-3411 -3432 4057 0
-3411 -3433 4058 0
-3411 -3434 4059 0
-3411 -3435 4060 0
-3411 -3436 4061 0
-3411 -3437 4062 0
-3411 -3438 4063 0
-3412 -3423 4049 0
-3412 -3424 4050 0
-3412 -3425 4051 0
-3412 -3426 4052 0
-3412 -3427 4053 0
-3412 -3428 4054 0
-3412 -3429 4055 0
-3412 -3430 4056 0
-3412 -3431 4057 0
-3412 -3432 4058 0
-3412 -3433 4059 0
-3412 -3434 4060 0
-3412 -3435 4061 0
-3412 -3436 4062 0
-3412 -3437 4063 0
-3412 -3438 4064 0
-3413 -3423 4050 0
-3413 -3424 4051 0
-3413 -3425 4052 0
-3413 -3426 4053 0
-3413 -3427 4054 0
-3413 -3428 4055 0
-3413 -3429 4056 0
-3413 -3430 4057 0
-3413 -3431 4058 0
-3413 -3432 4059 0
-3413 -3433 4060 0
-3413 -3434 4061 0
-3413 -3435 4062 0
-3413 -3436 4063 0
-3413 -3437 4064 0
-3413 -3438 4065 0
-3414 -3423 4051 0
-3414 -3424 4052 0
-3414 -3425 4053 0
-3414 -3426 4054 0
-3414 -3427 4055 0
-3414 -3428 4056 0
-3414 -3429 4057 0
-3414 -3430 4058 0
-3414 -3431 4059 0
-3414 -3432 4060 0
-3414 -3433 4061 0
-3414 -3434 4062 0
-3414 -3435 4063 0
-3414 -3436 4064 0
-3414 -3437 4065 0
-3414 -3438 4066 0
-3415 -3423 4052 0
-3415 -3424 4053 0
-3415 -3425 4054 0
-3415 -3426 4055 0
-3415 -3427 4056 0
-3415 -3428 4057 0
-3415 -3429 4058 0
-3415 -3430 4059 0
-3415 -3431 4060 0
-3415 -3432 4061 0
-3415 -3433 4062 0
-3415 -3434 4063 0
-3415 -3435 4064 0
-3415 -3436 4065 0
-3415 -3437 4066 0
-3415 -3438 4067 0
-3416 -3423 4053 0
-3416 -3424 4054 0
-3416 -3425 4055 0
-3416 -3426 4056 0
-3416 -3427 4057 0
-3416 -3428 4058 0
-3416 -3429 4059 0
-3416 -3430 4060 0
-3416 -3431 4061 0
-3416 -3432 4062 0
-3416 -3433 4063 0
-3416 -3434 4064 0
-3416 -3435 4065 0
-3416 -3436 4066 0
-3416 -3437 4067 0
-3417 -3423 4054 0
-3417 -3424 4055 0
-3417 -3425 4056 0
-3417 -3426 4057 0
-3417 -3427 4058 0
-3417 -3428 4059 0
-3417 -3429 4060 0
-3417 -3430 4061 0
-3417 -3431 4062 0
-3417 -3432 4063 0
-3417 -3433 4064 0
-3417 -3434 4065 0
-3417 -3435 4066 0
-3417 -3436 4067 0
-3418 -3423 4055 0
-3418 -3424 4056 0
-3418 -3425 4057 0
-3418 -3426 4058 0
-3418 -3427 4059 0
-3418 -3428 4060 0
-3418 -3429 4061 0
-3418 -3430 4062 0
-3418 -3431 4063 0
-3418 -3432 4064 0
-3418 -3433 4065 0
-3418 -3434 4066 0
-3418 -3435 4067 0
-3419 -3423 4056 0
-3419 -3424 4057 0
-3419 -3425 4058 0
-3419 -3426 4059 0
-3419 -3427 4060 0
-3419 -3428 4061 0
-3419 -3429 4062 0
-3419 -3430 4063 0
-3419 -3431 4064 0
-3419 -3432 4065 0
-3419 -3433 4066 0
-3419 -3434 4067 0
-3420 -3423 4057 0
-3420 -3424 4058 0
-3420 -3425 4059 0
-3420 -3426 4060 0
-3420 -3427 4061 0
-3420 -3428 4062 0
-3420 -3429 4063 0
-3420 -3430 4064 0
-3420 -3431 4065 0
-3420 -3432 4066 0
-3420 -3433 4067 0
-3421 -3423 4058 0
-3421 -3424 4059 0
-3421 -3425 4060 0
-3421 -3426 4061 0
-3421 -3427 4062 0
-3421 -3428 4063 0
-3421 -3429 4064 0
-3421 -3430 4065 0
-3421 -3431 4066 0
-3421 -3432 4067 0
-3422 -3423 4059 0
-3422 -3424 4060 0
-3422 -3425 4061 0
-3422 -3426 4062 0
-3422 -3427 4063 0
-3422 -3428 4064 0
-3422 -3429 4065 0
-3422 -3430 4066 0
-3422 -3431 4067 0
-3455 4068 0
-3456 4069 0
-3457 4070 0
-3458 4071 0
-3459 4072 0
-3460 4073 0
-3461 4074 0
-3462 4075 0
-3463 4076 0
-3464 4077 0
-3465 4078 0
-3466 4079 0
-3467 4080 0
-3468 4081 0
-3469 4082 0
-3470 4083 0
-3439 4068 0
-3440 4069 0
-3441 4070 0
-3442 4071 0
-3443 4072 0
-3444 4073 0
-3445 4074 0
-3446 4075 0
-3447 4076 0
-3448 4077 0
-3449 4078 0
-3450 4079 0
-3451 4080 0
-3452 4081 0
-3453 4082 0
-3454 4083 0
-3439 -3455 4069 0
-3439 -3456 4070 0
-3439 -3457 4071 0
-3439 -3458 4072 0
-3439 -3459 4073 0
-3439 -3460 4074 0
-3439 -3461 4075 0
-3439 -3462 4076 0
-3439 -3463 4077 0
-3439 -3464 4078 0
-3439 -3465 4079 0
-3439 -3466 4080 0
-3439 -3467 4081 0
-3439 -3468 4082 0
-3439 -3469 4083 0
-3439 -3470 4084 0
-3440 -3455 4070 0
-3440 -3456 4071 0
-3440 -3457 4072 0
-3440 -3458 4073 0
-3440 -3459 4074 0
-3440 -3460 4075 0
-3440 -3461 4076 0
-3440 -3462 4077 0
-3440 -3463 4078 0
-3440 -3464 4079 0
-3440 -3465 4080 0
-3440 -3466 4081 0
-3440 -3467 4082 0
-3440 -3468 4083 0
-3440 -3469 4084 0
-3440 -3470 4085 0
-3441 -3455 4071 0
-3441 -3456 4072 0
-3441 -3457 4073 0
-3441 -3458 4074 0
-3441 -3459 4075 0
-3441 -3460 4076 0
-3441 -3461 4077 0
-3441 -3462 4078 0
-3441 -3463 4079 0
-3441 -3464 4080 0
-3441 -3465 4081 0
-3441 -3466 4082 0
-3441 -3467 4083 0
-3441 -3468 4084 0
-3441 -3469 4085 0
-3441 -3470 4086 0
-3442 -3455 4072 0
-3442 -3456 4073 0
-3442 -3457 4074 0
-3442 -3458 4075 0
-3442 -3459 4076 0
-3442 -3460 4077 0
-3442 -3461 4078 0
-3442 -3462 4079 0
-3442 -3463 4080 0
-3442 -3464 4081 0
-3442 -3465 4082 0
-3442 -3466 4083 0
-3442 -3467 4084 0
-3442 -3468 4085 0
-3442 -3469 4086 0
-3442 -3470 4087 0
-3443 -3455 4073 0
-3443 -3456 4074 0
-3443 -3457 4075 0
-3443 -3458 4076 0
-3443 -3459 4077 0
-3443 -3460 4078 0
-3443 -3461 4079 0
-3443 -3462 4080 0
-3443 -3463 4081 0
-3443 -3464 4082 0
-3443 -3465 4083 0
-3443 -3466 4084 0
-3443 -3467 4085 0
-3443 -3468 4086 0
-3443 -3469 4087 0
-3443 -3470 4088 0
-3444 -3455 4074 0
-3444 -3456 4075 0
-3444 -3457 4076 0
-3444 -3458 4077 0
-3444 -3459 4078 0
-3444 -3460 4079 0
-3444 -3461 4080 0
-3444 -3462 4081 0
-3444 -3463 4082 0
-3444 -3464 4083 0
-3444 -3465 4084 0
-3444 -3466 4085 0
-3444 -3467 4086 0
-3444 -3468 4087 0
-3444 -3469 4088 0
-3444 -3470 4089 0
-3445 -3455 4075 0
-3445 -3456 4076 0
-3445 -3457 4077 0
-3445 -3458 4078 0
-3445 -3459 4079 0
-3445 -3460 4080 0
-3445 -3461 4081 0
-3445 -3462 4082 0
-3445 -3463 4083 0
-3445 -3464 4084 0
-3445 -3465 4085 0
-3445 -3466 4086 0
-3445 -3467 4087 0
-3445 -3468 4088 0
-3445 -3469 4089 0
-3445 -3470 4090 0
-3446 -3455 4076 0
-3446 -3456 4077 0
-3446 -3457 4078 0
-3446 -3458 4079 0
-3446 -3459 4080 0
-3446 -3460 4081 0
-3446 -3461 4082 0
-3446 -3462 4083 0
-3446 -3463 4084 0
-3446 -3464 4085 0
-3446 -3465 4086 0
-3446 -3466 4087 0
-3446 -3467 4088 0
-3446 -3468 4089 0
-3446 -3469 4090 0
-3446 -3470 4091 0
-3447 -3455 4077 0
-3447 -3456 4078 0
-3447 -3457 4079 0
-3447 -3458 4080 0
-3447 -3459 4081 0
-3447 -3460 4082 0
-3447 -3461 4083 0
-3447 -3462 4084 0
-3447 -3463 4085 0
-3447 -3464 4086 0
-3447 -3465 4087 0
-3447 -3466 4088 0
-3447 -3467 4089 0
-3447 -3468 4090 0
-3447 -3469 4091 0
-3447 -3470 4092 0
-3448 -3455 4078 0
-3448 -3456 4079 0
-3448 -3457 4080 0
-3448 -3458 4081 0
-3448 -3459 4082 0
-3448 -3460 4083 0
-3448 -3461 4084 0
-3448 -3462 4085 0
-3448 -3463 4086 0
-3448 -3464 4087 0
-3448 -3465 4088 0
-3448 -3466 4089 0
-3448 -3467 4090 0
-3448 -3468 4091 0
-3448 -3469 4092 0
-3449 -3455 4079 0
-3449 -3456 4080 0
-3449 -3457 4081 0
-3449 -3458 4082 0
-3449 -3459 4083 0
-3449 -3460 4084 0
-3449 -3461 4085 0
-3449 -3462 4086 0
-3449 -3463 4087 0
-3449 -3464 4088 0
-3449 -3465 4089 0
-3449 -3466 4090 0
-3449 -3467 4091 0
-3449 -3468 4092 0
-3450 -3455 4080 0
-3450 -3456 4081 0
-3450 -3457 4082 0
-3450 -3458 4083 0
-3450 -3459 4084 0
-3450 -3460 4085 0
-3450 -3461 4086 0
-3450 -3462 4087 0
-3450 -3463 4088 0
-3450 -3464 4089 0
-3450 -3465 4090 0
-3450 -3466 4091 0
-3450 -3467 4092 0
-3451 -3455 4081 0
-3451 -3456 4082 0
-3451 -3457 4083 0
-3451 -3458 4084 0
-3451 -3459 4085 0
-3451 -3460 4086 0
-3451 -3461 4087 0
-3451 -3462 4088 0
-3451 -3463 4089 0
-3451 -3464 4090 0
-3451 -3465 4091 0
-3451 -3466 4092 0
-3452 -3455 4082 0
-3452 -3456 4083 0
-3452 -3457 4084 0
-3452 -3458 4085 0
-3452 -3459 4086 0
-3452 -3460 4087 0
-3452 -3461 4088 0
-3452 -3462 4089 0
-3452 -3463 4090 0
-3452 -3464 4091 0
-3452 -3465 4092 0
-3453 -3455 4083 0
-3453 -3456 4084 0
-3453 -3457 4085 0
-3453 -3458 4086 0
-3453 -3459 4087 0
-3453 -3460 4088 0
-3453 -3461 4089 0
-3453 -3462 4090 0
-3453 -3463 4091 0
-3453 -3464 4092 0
-3454 -3455 4084 0
-3454 -3456 4085 0
-3454 -3457 4086 0
-3454 -3458 4087 0
-3454 -3459 4088 0
-3454 -3460 4089 0
-3454 -3461 4090 0
-3454 -3462 4091 0
-3454 -3463 4092 0
-3487 4093 0
-3488 4094 0
-3489 4095 0
-3490 4096 0
-3491 4097 0
-3492 4098 0
-3493 4099 0
-3494 4100 0
-3495 4101 0
-3496 4102 0
-3497 4103 0
-3498 4104 0
-3499 4105 0
-3500 4106 0
-3501 4107 0
-3502 4108 0
-3471 4093 0
-3472 4094 0
-3473 4095 0
-3474 4096 0
-3475 4097 0
-3476 4098 0
-3477 4099 0
-3478 4100 0
-3479 4101 0
-3480 4102 0
-3481 4103 0
-3482 4104 0
-3483 4105 0
-3484 4106 0
-3485 4107 0
-3486 4108 0
-3471 -3487 4094 0
-3471 -3488 4095 0
-3471 -3489 4096 0
-3471 -3490 4097 0
-3471 -3491 4098 0
-3471 -3492 4099 0
-3471 -3493 4100 0
-3471 -3494 4101 0
-3471 -3495 4102 0
-3471 -3496 4103 0
-3471 -3497 4104 0
-3471 -3498 4105 0
-3471 -3499 4106 0
-3471 -3500 4107 0
-3471 -3501 4108 0
-3471 -3502 4109 0
-3472 -3487 4095 0
-3472 -3488 4096 0
-3472 -3489 4097 0
-3472 -3490 4098 0
-3472 -3491 4099 0
-3472 -3492 4100 0
-3472 -3493 4101 0
-3472 -3494 4102 0
-3472 -3495 4103 0
-3472 -3496 4104 0
-3472 -3497 4105 0
-3472 -3498 4106 0
-3472 -3499 4107 0
-3472 -3500 4108 0
-3472 -3501 4109 0
-3472 -3502 4110 0
-3473 -3487 4096 0
-3473 -3488 4097 0
-3473 -3489 4098 0
-3473 -3490 4099 0
-3473 -3491 4100 0
-3473 -3492 4101 0
-3473 -3493 4102 0
-3473 -3494 4103 0
-3473 -3495 4104 0
-3473 -3496 4105 0
-3473 -3497 4106 0
-3473 -3498 4107 0
-3473 -3499 4108 0
-3473 -3500 4109 0
-3473 -3501 4110 0
-3473 -3502 4111 0
-3474 -3487 4097 0
-3474 -3488 4098 0
-3474 -3489 4099 0
-3474 -3490 4100 0
-3474 -3491 4101 0
-3474 -3492 4102 0
-3474 -3493 4103 0
-3474 -3494 4104 0
-3474 -3495 4105 0
-3474 -3496 4106 0
-3474 -3497 4107 0
-3474 -3498 4108 0
-3474 -3499 4109 0
-3474 -3500 4110 0
-3474 -3501 4111 0
-3474 -3502 4112 0
-3475 -3487 4098 0
-3475 -3488 4099 0
-3475 -3489 4100 0
-3475 -3490 4101 0
-3475 -3491 4102 0
-3475 -3492 4103 0
-3475 -3493 4104 0
-3475 -3494 4105 0
-3475 -3495 4106 0
-3475 -3496 4107 0
-3475 -3497 4108 0
-3475 -3498 4109 0
-3475 -3499 4110 0
-3475 -3500 4111 0
-3475 -3501 4112 0
-3475 -3502 4113 0
-3476 -3487 4099 0
-3476 -3488 4100 0
-3476 -3489 4101 0
-3476 -3490 4102 0
-3476 -3491 4103 0
-3476 -3492 4104 0
-3476 -3493 4105 0
-3476 -3494 4106 0
-3476 -3495 4107 0
-3476 -3496 4108 0
-3476 -3497 4109 0
-3476 -3498 4110 0
-3476 -3499 4111 0
-3476 -3500 4112 0
-3476 -3501 4113 0
-3476 -3502 4114 0
-3477 -3487 4100 0
-3477 -3488 4101 0
-3477 -3489 4102 0
-3477 -3490 4103 0
-3477 -3491 4104 0
-3477 -3492 4105 0
-3477 -3493 4106 0
-3477 -3494 4107 0
-3477 -3495 4108 0
-3477 -3496 4109 0
-3477 -3497 4110 0
-3477 -3498 4111 0
-3477 -3499 4112 0
-3477 -3500 4113 0
-3477 -3501 4114 0
-3477 -3502 4115 0
-3478 -3487 4101 0
-3478 -3488 4102 0
-3478 -3489 4103 0
-3478 -3490 4104 0
-3478 -3491 4105 0
-3478 -3492 4106 0
-3478 -3493 4107 0
-3478 -3494 4108 0
-3478 -3495 4109 0
-3478 -3496 4110 0
-3478 -3497 4111 0
-3478 -3498 4112 0
-3478 -3499 4113 0
-3478 -3500 4114 0
-3478 -3501 4115 0
-3478 -3502 4116 0
-3479 -3487 4102 0
-3479 -3488 4103 0
-3479 -3489 4104 0
-3479 -3490 4105 0
-3479 -3491 4106 0
-3479 -3492 4107 0
-3479 -3493 4108 0
-3479 -3494 4109 0
-3479 -3495 4110 0
-3479 -3496 4111 0
-3479 -3497 4112 0
-3479 -3498 4113 0
-3479 -3499 4114 0
-3479 -3500 4115 0
-3479 -3501 4116 0
-3479 -3502 4117 0
-3480 -3487 4103 0
-3480 -3488 4104 0
-3480 -3489 4105 0
-3480 -3490 4106 0
-3480 -3491 4107 0
-3480 -3492 4108 0
-3480 -3493 4109 0
-3480 -3494 4110 0
-3480 -3495 4111 0
-3480 -3496 4112 0
-3480 -3497 4113 0
-3480 -3498 4114 0
-3480 -3499 4115 0
-3480 -3500 4116 0
-3480 -3501 4117 0
-3481 -3487 4104 0
-3481 -3488 4105 0
-3481 -3489 4106 0
-3481 -3490 4107 0
-3481 -3491 4108 0
-3481 -3492 4109 0
-3481 -3493 4110 0
-3481 -3494 4111 0
-3481 -3495 4112 0
-3481 -3496 4113 0
-3481 -3497 4114 0
-3481 -3498 4115 0
-3481 -3499 4116 0
-3481 -3500 4117 0
-3482 -3487 4105 0
-3482 -3488 4106 0
-3482 -3489 4107 0
-3482 -3490 4108 0
-3482 -3491 4109 0
-3482 -3492 4110 0
-3482 -3493 4111 0
-3482 -3494 4112 0
-3482 -3495 4113 0
-3482 -3496 4114 0
-3482 -3497 4115 0
-3482 -3498 4116 0
-3482 -3499 4117 0
-3483 -3487 4106 0
-3483 -3488 4107 0
-3483 -3489 4108 0
-3483 -3490 4109 0
-3483 -3491 4110 0
-3483 -3492 4111 0
-3483 -3493 4112 0
-3483 -3494 4113 0
-3483 -3495 4114 0
-3483 -3496 4115 0
-3483 -3497 4116 0
-3483 -3498 4117 0
-3484 -3487 4107 0
-3484 -3488 4108 0
-3484 -3489 4109 0
-3484 -3490 4110 0
-3484 -3491 4111 0
-3484 -3492 4112 0
-3484 -3493 4113 0
-3484 -3494 4114 0
-3484 -3495 4115 0
-3484 -3496 4116 0
-3484 -3497 4117 0
-3485 -3487 4108 0
-3485 -3488 4109 0
-3485 -3489 4110 0
-3485 -3490 4111 0
-3485 -3491 4112 0
-3485 -3492 4113 0
-3485 -3493 4114 0
-3485 -3494 4115 0
-3485 -3495 4116 0
-3485 -3496 4117 0
-3486 -3487 4109 0
-3486 -3488 4110 0
-3486 -3489 4111 0
-3486 -3490 4112 0
-3486 -3491 4113 0
-3486 -3492 4114 0
-3486 -3493 4115 0
-3486 -3494 4116 0
-3486 -3495 4117 0
-3519 4118 0
-3520 4119 0
-3521 4120 0
-3522 4121 0
-3523 4122 0
-3524 4123 0
-3525 4124 0
-3526 4125 0
-3527 4126 0
-3528 4127 0
-3529 4128 0
-3530 4129 0
-3531 4130 0
-3532 4131 0
-3533 4132 0
-3534 4133 0
-3503 4118 0
-3504 4119 0
-3505 4120 0
-3506 4121 0
-3507 4122 0
-3508 4123 0
-3509 4124 0
-3510 4125 0
-3511 4126 0
-3512 4127 0
-3513 4128 0
-3514 4129 0
-3515 4130 0
-3516 4131 0
-3517 4132 0
-3518 4133 0
-3503 -3519 4119 0
-3503 -3520 4120 0
-3503 -3521 4121 0
-3503 -3522 4122 0
-3503 -3523 4123 0
-3503 -3524 4124 0
-3503 -3525 4125 0
-3503 -3526 4126 0
-3503 -3527 4127 0
-3503 -3528 4128 0
-3503 -3529 4129 0
-3503 -3530 4130 0
-3503 -3531 4131 0
-3503 -3532 4132 0
-3503 -3533 4133 0
-3503 -3534 4134 0
-3504 -3519 4120 0
-3504 -3520 4121 0
-3504 -3521 4122 0
-3504 -3522 4123 0
-3504 -3523 4124 0
-3504 -3524 4125 0
-3504 -3525 4126 0
-3504 -3526 4127 0
-3504 -3527 4128 0
-3504 -3528 4129 0
-3504 -3529 4130 0
-3504 -3530 4131 0
-3504 -3531 4132 0
-3504 -3532 4133 0
-3504 -3533 4134 0
-3504 -3534 4135 0
-3505 -3519 4121 0
-3505 -3520 4122 0
-3505 -3521 4123 0
-3505 -3522 4124 0
-3505 -3523 4125 0
-3505 -3524 4126 0
-3505 -3525 4127 0
-3505 -3526 4128 0
-3505 -3527 4129 0
-3505 -3528 4130 0
-3505 -3529 4131 0
-3505 -3530 4132 0
-3505 -3531 4133 0
-3505 -3532 4134 0
-3505 -3533 4135 0
-3505 -3534 4136 0
-3506 -3519 4122 0
-3506 -3520 4123 0
-3506 -3521 4124 0
-3506 -3522 4125 0
-3506 -3523 4126 0
-3506 -3524 4127 0
-3506 -3525 4128 0
-3506 -3526 4129 0
-3506 -3527 4130 0
-3506 -3528 4131 0
-3506 -3529 4132 0
-3506 -3530 4133 0
-3506 -3531 4134 0
-3506 -3532 4135 0
-3506 -3533 4136 0
-3506 -3534 4137 0
-3507 -3519 4123 0
-3507 -3520 4124 0
-3507 -3521 4125 0
-3507 -3522 4126 0
-3507 -3523 4127 0
-3507 -3524 4128 0
-3507 -3525 4129 0
-3507 -3526 4130 0
-3507 -3527 4131 0
-3507 -3528 4132 0
-3507 -3529 4133 0
-3507 -3530 4134 0
-3507 -3531 4135 0
-3507 -3532 4136 0
-3507 -3533 4137 0
-3507 -3534 4138 0
-3508 -3519 4124 0
-3508 -3520 4125 0
-3508 -3521 4126 0
-3508 -3522 4127 0
-3508 -3523 4128 0
-3508 -3524 4129 0
-3508 -3525 4130 0
-3508 -3526 4131 0
-3508 -3527 4132 0
-3508 -3528 4133 0
-3508 -3529 4134 0
-3508 -3530 4135 0
-3508 -3531 4136 0
-3508 -3532 4137 0
-3508 -3533 4138 0
-3508 -3534 4139 0
-3509 -3519 4125 0
-3509 -3520 4126 0
-3509 -3521 4127 0
-3509 -3522 4128 0
-3509 -3523 4129 0
-3509 -3524 4130 0
-3509 -3525 4131 0
-3509 -3526 4132 0
-3509 -3527 4133 0
-3509 -3528 4134 0
-3509 -3529 4135 0
-3509 -3530 4136 0
-3509 -3531 4137 0
-3509 -3532 4138 0
-3509 -3533 4139 0
-3509 -3534 4140 0
-3510 -3519 4126 0
-3510 -3520 4127 0
-3510 -3521 4128 0
-3510 -3522 4129 0
-3510 -3523 4130 0
-3510 -3524 4131 0
-3510 -3525 4132 0
-3510 -3526 4133 0
-3510 -3527 4134 0
-3510 -3528 4135 0
-3510 -3529 4136 0
-3510 -3530 4137 0
-3510 -3531 4138 0
-3510 -3532 4139 0
-3510 -3533 4140 0
-3510 -3534 4141 0
-3511 -3519 4127 0
-3511 -3520 4128 0
-3511 -3521 4129 0
-3511 -3522 4130 0
-3511 -3523 4131 0
-3511 -3524 4132 0
-3511 -3525 4133 0
-3511 -3526 4134 0
-3511 -3527 4135 0
-3511 -3528 4136 0
-3511 -3529 4137 0
-3511 -3530 4138 0
-3511 -3531 4139 0
-3511 -3532 4140 0
-3511 -3533 4141 0
-3511 -3534 4142 0
-3512 -3519 4128 0
-3512 -3520 4129 0
-3512 -3521 4130 0
-3512 -3522 4131 0
-3512 -3523 4132 0
-3512 -3524 4133 0
-3512 -3525 4134 0
-3512 -3526 4135 0
-3512 -3527 4136 0
-3512 -3528 4137 0
-3512 -3529 4138 0
-3512 -3530 4139 0
-3512 -3531 4140 0
-3512 -3532 4141 0
-3512 -3533 4142 0
-3513 -3519 4129 0
-3513 -3520 4130 0
-3513 -3521 4131 0
-3513 -3522 4132 0
-3513 -3523 4133 0
-3513 -3524 4134 0
-3513 -3525 4135 0
-3513 -3526 4136 0
-3513 -3527 4137 0
-3513 -3528 4138 0
-3513 -3529 4139 0
-3513 -3530 4140 0
-3513 -3531 4141 0
-3513 -3532 4142 0
-3514 -3519 4130 0
-3514 -3520 4131 0
-3514 -3521 4132 0
-3514 -3522 4133 0
-3514 -3523 4134 0
-3514 -3524 4135 0
-3514 -3525 4136 0
-3514 -3526 4137 0
-3514 -3527 4138 0
-3514 -3528 4139 0
-3514 -3529 4140 0
-3514 -3530 4141 0
-3514 -3531 4142 0
-3515 -3519 4131 0
-3515 -3520 4132 0
-3515 -3521 4133 0
-3515 -3522 4134 0
-3515 -3523 4135 0
-3515 -3524 4136 0
-3515 -3525 4137 0
-3515 -3526 4138 0
-3515 -3527 4139 0
-3515 -3528 4140 0
-3515 -3529 4141 0
-3515 -3530 4142 0
-3516 -3519 4132 0
-3516 -3520 4133 0
-3516 -3521 4134 0
-3516 -3522 4135 0
-3516 -3523 4136 0
-3516 -3524 4137 0
-3516 -3525 4138 0
-3516 -3526 4139 0
-3516 -3527 4140 0
-3516 -3528 4141 0
-3516 -3529 4142 0
-3517 -3519 4133 0
-3517 -3520 4134 0
-3517 -3521 4135 0
-3517 -3522 4136 0
-3517 -3523 4137 0
-3517 -3524 4138 0
-3517 -3525 4139 0
-3517 -3526 4140 0
-3517 -3527 4141 0
-3517 -3528 4142 0
-3518 -3519 4134 0
-3518 -3520 4135 0
-3518 -3521 4136 0
-3518 -3522 4137 0
-3518 -3523 4138 0
-3518 -3524 4139 0
-3518 -3525 4140 0
-3518 -3526 4141 0
-3518 -3527 4142 0
-3551 4143 0
-3552 4144 0
-3553 4145 0
-3554 4146 0
-3555 4147 0
-3556 4148 0
-3557 4149 0
-3558 4150 0
-3559 4151 0
-3560 4152 0
-3561 4153 0
-3562 4154 0
-3563 4155 0
-3564 4156 0
-3565 4157 0
-3566 4158 0
-3535 4143 0
-3536 4144 0
-3537 4145 0
-3538 4146 0
-3539 4147 0
-3540 4148 0
-3541 4149 0
-3542 4150 0
-3543 4151 0
-3544 4152 0
-3545 4153 0
-3546 4154 0
-3547 4155 0
-3548 4156 0
-3549 4157 0
-3550 4158 0
-3535 -3551 4144 0
-3535 -3552 4145 0
-3535 -3553 4146 0
-3535 -3554 4147 0
-3535 -3555 4148 0
-3535 -3556 4149 0
-3535 -3557 4150 0
-3535 -3558 4151 0
-3535 -3559 4152 0
-3535 -3560 4153 0
-3535 -3561 4154 0
-3535 -3562 4155 0
-3535 -3563 4156 0
-3535 -3564 4157 0
-3535 -3565 4158 0
-3535 -3566 4159 0
-3536 -3551 4145 0
-3536 -3552 4146 0
-3536 -3553 4147 0
-3536 -3554 4148 0
-3536 -3555 4149 0
-3536 -3556 4150 0
-3536 -3557 4151 0
-3536 -3558 4152 0
-3536 -3559 4153 0
-3536 -3560 4154 0
-3536 -3561 4155 0
-3536 -3562 4156 0
-3536 -3563 4157 0
-3536 -3564 4158 0
-3536 -3565 4159 0
-3536 -3566 4160 0
-3537 -3551 4146 0
-3537 -3552 4147 0
-3537 -3553 4148 0
-3537 -3554 4149 0
-3537 -3555 4150 0
-3537 -3556 4151 0
-3537 -3557 4152 0
-3537 -3558 4153 0
-3537 -3559 4154 0
-3537 -3560 4155 0
-3537 -3561 4156 0
-3537 -3562 4157 0
-3537 -3563 4158 0
-3537 -3564 4159 0
-3537 -3565 4160 0
-3537 -3566 4161 0
-3538 -3551 4147 0
-3538 -3552 4148 0
-3538 -3553 4149 0
-3538 -3554 4150 0
-3538 -3555 4151 0
-3538 -3556 4152 0
-3538 -3557 4153 0
-3538 -3558 4154 0
-3538 -3559 4155 0
-3538 -3560 4156 0
-3538 -3561 4157 0
-3538 -3562 4158 0
-3538 -3563 4159 0
-3538 -3564 4160 0
-3538 -3565 4161 0
-3538 -3566 4162 0
-3539 -3551 4148 0
-3539 -3552 4149 0
-3539 -3553 4150 0
-3539 -3554 4151 0
-3539 -3555 4152 0
-3539 -3556 4153 0
-3539 -3557 4154 0
-3539 -3558 4155 0
-3539 -3559 4156 0
-3539 -3560 4157 0
-3539 -3561 4158 0
-3539 -3562 4159 0
-3539 -3563 4160 0
-3539 -3564 4161 0
-3539 -3565 4162 0
-3539 -3566 4163 0
-3540 -3551 4149 0
-3540 -3552 4150 0
-3540 -3553 4151 0
-3540 -3554 4152 0
-3540 -3555 4153 0
-3540 -3556 4154 0
-3540 -3557 4155 0
-3540 -3558 4156 0
-3540 -3559 4157 0
-3540 -3560 4158 0
-3540 -3561 4159 0
-3540 -3562 4160 0
-3540 -3563 4161 0
-3540 -3564 4162 0
-3540 -3565 4163 0
-3540 -3566 4164 0
-3541 -3551 4150 0
-3541 -3552 4151 0
-3541 -3553 4152 0
-3541 -3554 4153 0
-3541 -3555 4154 0
-3541 -3556 4155 0
-3541 -3557 4156 0
-3541 -3558 4157 0
-3541 -3559 4158 0
-3541 -3560 4159 0
-3541 -3561 4160 0
-3541 -3562 4161 0
-3541 -3563 4162 0
-3541 -3564 4163 0
-3541 -3565 4164 0
-3541 -3566 4165 0
-3542 -3551 4151 0
-3542 -3552 4152 0
-3542 -3553 4153 0
-3542 -3554 4154 0
-3542 -3555 4155 0
-3542 -3556 4156 0
-3542 -3557 4157 0
-3542 -3558 4158 0
-3542 -3559 4159 0
-3542 -3560 4160 0
-3542 -3561 4161 0
-3542 -3562 4162 0
-3542 -3563 4163 0
-3542 -3564 4164 0
-3542 -3565 4165 0
-3542 -3566 4166 0
-3543 -3551 4152 0
-3543 -3552 4153 0
-3543 -3553 4154 0
-3543 -3554 4155 0
-3543 -3555 4156 0
-3543 -3556 4157 0
-3543 -3557 4158 0
-3543 -3558 4159 0
-3543 -3559 4160 0
-3543 -3560 4161 0
-3543 -3561 4162 0
-3543 -3562 4163 0
-3543 -3563 4164 0
-3543 -3564 4165 0
-3543 -3565 4166 0
-3543 -3566 4167 0
-3544 -3551 4153 0
-3544 -3552 4154 0
-3544 -3553 4155 0
-3544 -3554 4156 0
-3544 -3555 4157 0
-3544 -3556 4158 0
-3544 -3557 4159 0
-3544 -3558 4160 0
-3544 -3559 4161 0
-3544 -3560 4162 0
-3544 -3561 4163 0
-3544 -3562 4164 0
-3544 -3563 4165 0
-3544 -3564 4166 0
-3544 -3565 4167 0
-3545 -3551 4154 0
-3545 -3552 4155 0
-3545 -3553 4156 0
-3545 -3554 4157 0
-3545 -3555 4158 0
-3545 -3556 4159 0
-3545 -3557 4160 0
-3545 -3558 4161 0
-3545 -3559 4162 0
-3545 -3560 4163 0
-3545 -3561 4164 0
-3545 -3562 4165 0
-3545 -3563 4166 0
-3545 -3564 4167 0
-3546 -3551 4155 0
-3546 -3552 4156 0
-3546 -3553 4157 0
-3546 -3554 4158 0
-3546 -3555 4159 0
-3546 -3556 4160 0
-3546 -3557 4161 0
-3546 -3558 4162 0
-3546 -3559 4163 0
-3546 -3560 4164 0
-3546 -3561 4165 0
-3546 -3562 4166 0
-3546 -3563 4167 0
-3547 -3551 4156 0
-3547 -3552 4157 0
-3547 -3553 4158 0
-3547 -3554 4159 0
-3547 -3555 4160 0
-3547 -3556 4161 0
-3547 -3557 4162 0
-3547 -3558 4163 0
-3547 -3559 4164 0
-3547 -3560 4165 0
-3547 -3561 4166 0
-3547 -3562 4167 0
-3548 -3551 4157 0
-3548 -3552 4158 0
-3548 -3553 4159 0
-3548 -3554 4160 0
-3548 -3555 4161 0
-3548 -3556 4162 0
-3548 -3557 4163 0
-3548 -3558 4164 0
-3548 -3559 4165 0
-3548 -3560 4166 0
-3548 -3561 4167 0
-3549 -3551 4158 0
-3549 -3552 4159 0
-3549 -3553 4160 0
-3549 -3554 4161 0
-3549 -3555 4162 0
-3549 -3556 4163 0
-3549 -3557 4164 0
-3549 -3558 4165 0
-3549 -3559 4166 0
-3549 -3560 4167 0
-3550 -3551 4159 0
-3550 -3552 4160 0
-3550 -3553 4161 0
-3550 -3554 4162 0
-3550 -3555 4163 0
-3550 -3556 4164 0
-3550 -3557 4165 0
-3550 -3558 4166 0
-3550 -3559 4167 0
-3583 4168 0
-3584 4169 0
-3585 4170 0
-3586 4171 0
-3587 4172 0
-3588 4173 0
-3589 4174 0
-3590 4175 0
-3591 4176 0
-3592 4177 0
-3593 4178 0
-3594 4179 0
-3595 4180 0
-3596 4181 0
-3597 4182 0
-3598 4183 0
-3567 4168 0
-3568 4169 0
-3569 4170 0
-3570 4171 0
-3571 4172 0
-3572 4173 0
-3573 4174 0
-3574 4175 0
-3575 4176 0
-3576 4177 0
-3577 4178 0
-3578 4179 0
-3579 4180 0
-3580 4181 0
-3581 4182 0
-3582 4183 0
-3567 -3583 4169 0
-3567 -3584 4170 0
-3567 -3585 4171 0
-3567 -3586 4172 0
-3567 -3587 4173 0
-3567 -3588 4174 0
-3567 -3589 4175 0
-3567 -3590 4176 0
-3567 -3591 4177 0
-3567 -3592 4178 0
-3567 -3593 4179 0
-3567 -3594 4180 0
-3567 -3595 4181 0
-3567 -3596 4182 0
-3567 -3597 4183 0
-3567 -3598 4184 0
-3568 -3583 4170 0
-3568 -3584 4171 0
-3568 -3585 4172 0
-3568 -3586 4173 0
-3568 -3587 4174 0
-3568 -3588 4175 0
-3568 -3589 4176 0
-3568 -3590 4177 0
-3568 -3591 4178 0
-3568 -3592 4179 0
-3568 -3593 4180 0
-3568 -3594 4181 0
-3568 -3595 4182 0
-3568 -3596 4183 0
-3568 -3597 4184 0
-3568 -3598 4185 0
-3569 -3583 4171 0
-3569 -3584 4172 0
-3569 -3585 4173 0
-3569 -3586 4174 0
-3569 -3587 4175 0
-3569 -3588 4176 0
-3569 -3589 4177 0
-3569 -3590 4178 0
-3569 -3591 4179 0
-3569 -3592 4180 0
-3569 -3593 4181 0
-3569 -3594 4182 0
-3569 -3595 4183 0
-3569 -3596 4184 0
-3569 -3597 4185 0
-3569 -3598 4186 0
-3570 -3583 4172 0
-3570 -3584 4173 0
-3570 -3585 4174 0
-3570 -3586 4175 0
-3570 -3587 4176 0
-3570 -3588 4177 0
-3570 -3589 4178 0
-3570 -3590 4179 0
-3570 -3591 4180 0
-3570 -3592 4181 0
-3570 -3593 4182 0
-3570 -3594 4183 0
-3570 -3595 4184 0
-3570 -3596 4185 0
-3570 -3597 4186 0
-3570 -3598 4187 0
-3571 -3583 4173 0
-3571 -3584 4174 0
-3571 -3585 4175 0
-3571 -3586 4176 0
-3571 -3587 4177 0
-3571 -3588 4178 0
-3571 -3589 4179 0
-3571 -3590 4180 0
-3571 -3591 4181 0
-3571 -3592 4182 0
-3571 -3593 4183 0
-3571 -3594 4184 0
-3571 -3595 4185 0
-3571 -3596 4186 0
-3571 -3597 4187 0
-3571 -3598 4188 0
-3572 -3583 4174 0
-3572 -3584 4175 0
-3572 -3585 4176 0
-3572 -3586 4177 0
-3572 -3587 4178 0
-3572 -3588 4179 0
-3572 -3589 4180 0
-3572 -3590 4181 0
-3572 -3591 4182 0
-3572 -3592 4183 0
-3572 -3593 4184 0
-3572 -3594 4185 0
-3572 -3595 4186 0
-3572 -3596 4187 0
-3572 -3597 4188 0
-3572 -3598 4189 0
-3573 -3583 4175 0
-3573 -3584 4176 0
-3573 -3585 4177 0
-3573 -3586 4178 0
-3573 -3587 4179 0
-3573 -3588 4180 0
-3573 -3589 4181 0
-3573 -3590 4182 0
-3573 -3591 4183 0
-3573 -3592 4184 0
-3573 -3593 4185 0
-3573 -3594 4186 0
-3573 -3595 4187 0
-3573 -3596 4188 0
-3573 -3597 4189 0
-3573 -3598 4190 0
-3574 -3583 4176 0
-3574 -3584 4177 0
-3574 -3585 4178 0
-3574 -3586 4179 0
-3574 -3587 4180 0
-3574 -3588 4181 0
-3574 -3589 4182 0
-3574 -3590 4183 0
-3574 -3591 4184 0
-3574 -3592 4185 0
-3574 -3593 4186 0
-3574 -3594 4187 0
-3574 -3595 4188 0
-3574 -3596 4189 0
-3574 -3597 4190 0
-3574 -3598 4191 0
-3575 -3583 4177 0
-3575 -3584 4178 0
-3575 -3585 4179 0
-3575 -3586 4180 0
-3575 -3587 4181 0
-3575 -3588 4182 0
-3575 -3589 4183 0
-3575 -3590 4184 0
-3575 -3591 4185 0
-3575 -3592 4186 0
-3575 -3593 4187 0
-3575 -3594 4188 0
-3575 -3595 4189 0
-3575 -3596 4190 0
-3575 -3597 4191 0
-3575 -3598 4192 0
-3576 -3583 4178 0
-3576 -3584 4179 0
-3576 -3585 4180 0
-3576 -3586 4181 0
-3576 -3587 4182 0
-3576 -3588 4183 0
-3576 -3589 4184 0
-3576 -3590 4185 0
-3576 -3591 4186 0
-3576 -3592 4187 0
-3576 -3593 4188 0
-3576 -3594 4189 0
-3576 -3595 4190 0
-3576 -3596 4191 0
-3576 -3597 4192 0
-3577 -3583 4179 0
-3577 -3584 4180 0
-3577 -3585 4181 0
-3577 -3586 4182 0
-3577 -3587 4183 0
-3577 -3588 4184 0
-3577 -3589 4185 0
-3577 -3590 4186 0
-3577 -3591 4187 0
-3577 -3592 4188 0
-3577 -3593 4189 0
-3577 -3594 4190 0
-3577 -3595 4191 0
-3577 -3596 4192 0
-3578 -3583 4180 0
-3578 -3584 4181 0
-3578 -3585 4182 0
-3578 -3586 4183 0
-3578 -3587 4184 0
-3578 -3588 4185 0
-3578 -3589 4186 0
-3578 -3590 4187 0
-3578 -3591 4188 0
-3578 -3592 4189 0
-3578 -3593 4190 0
-3578 -3594 4191 0
-3578 -3595 4192 0
-3579 -3583 4181 0
-3579 -3584 4182 0
-3579 -3585 4183 0
-3579 -3586 4184 0
-3579 -3587 4185 0
-3579 -3588 4186 0
-3579 -3589 4187 0
-3579 -3590 4188 0
-3579 -3591 4189 0
-3579 -3592 4190 0
-3579 -3593 4191 0
-3579 -3594 4192 0
-3580 -3583 4182 0
-3580 -3584 4183 0
-3580 -3585 4184 0
-3580 -3586 4185 0
-3580 -3587 4186 0
-3580 -3588 4187 0
-3580 -3589 4188 0
-3580 -3590 4189 0
-3580 -3591 4190 0
-3580 -3592 4191 0
-3580 -3593 4192 0
-3581 -3583 4183 0
-3581 -3584 4184 0
-3581 -3585 4185 0
-3581 -3586 4186 0
-3581 -3587 4187 0
-3581 -3588 4188 0
-3581 -3589 4189 0
-3581 -3590 4190 0
-3581 -3591 4191 0
-3581 -3592 4192 0
-3582 -3583 4184 0
-3582 -3584 4185 0
-3582 -3585 4186 0
-3582 -3586 4187 0
-3582 -3587 4188 0
-3582 -3588 4189 0
-3582 -3589 4190 0
-3582 -3590 4191 0
-3582 -3591 4192 0
-3615 4193 0
-3616 4194 0
-3617 4195 0
-3618 4196 0
-3619 4197 0
-3620 4198 0
-3621 4199 0
-3622 4200 0
-3623 4201 0
-3624 4202 0
-3625 4203 0
-3626 4204 0
-3627 4205 0
-3628 4206 0
-3629 4207 0
-3630 4208 0
-3599 4193 0
-3600 4194 0
-3601 4195 0
-3602 4196 0
-3603 4197 0
-3604 4198 0
-3605 4199 0
-3606 4200 0
-3607 4201 0
-3608 4202 0
-3609 4203 0
-3610 4204 0
-3611 4205 0
-3612 4206 0
-3613 4207 0
-3614 4208 0
-3599 -3615 4194 0
-3599 -3616 4195 0
-3599 -3617 4196 0
-3599 -3618 4197 0
-3599 -3619 4198 0
-3599 -3620 4199 0
-3599 -3621 4200 0
-3599 -3622 4201 0
-3599 -3623 4202 0
-3599 -3624 4203 0
-3599 -3625 4204 0
-3599 -3626 4205 0
-3599 -3627 4206 0
-3599 -3628 4207 0
-3599 -3629 4208 0
-3599 -3630 4209 0
-3600 -3615 4195 0
-3600 -3616 4196 0
-3600 -3617 4197 0
-3600 -3618 4198 0
-3600 -3619 4199 0
-3600 -3620 4200 0
-3600 -3621 4201 0
-3600 -3622 4202 0
-3600 -3623 4203 0
-3600 -3624 4204 0
-3600 -3625 4205 0
-3600 -3626 4206 0
-3600 -3627 4207 0
-3600 -3628 4208 0
-3600 -3629 4209 0
-3600 -3630 4210 0
-3601 -3615 4196 0
-3601 -3616 4197 0
-3601 -3617 4198 0
-3601 -3618 4199 0
-3601 -3619 4200 0
-3601 -3620 4201 0
-3601 -3621 4202 0
-3601 -3622 4203 0
-3601 -3623 4204 0
-3601 -3624 4205 0
-3601 -3625 4206 0
-3601 -3626 4207 0
-3601 -3627 4208 0
-3601 -3628 4209 0
-3601 -3629 4210 0
-3601 -3630 4211 0
-3602 -3615 4197 0
-3602 -3616 4198 0
-3602 -3617 4199 0
-3602 -3618 4200 0
-3602 -3619 4201 0
-3602 -3620 4202 0
-3602 -3621 4203 0
-3602 -3622 4204 0
-3602 -3623 4205 0
-3602 -3624 4206 0
-3602 -3625 4207 0
-3602 -3626 4208 0
-3602 -3627 4209 0
-3602 -3628 4210 0
-3602 -3629 4211 0
-3602 -3630 4212 0
-3603 -3615 4198 0
-3603 -3616 4199 0
-3603 -3617 4200 0
-3603 -3618 4201 0
-3603 -3619 4202 0
-3603 -3620 4203 0
-3603 -3621 4204 0
-3603 -3622 4205 0
-3603 -3623 4206 0
-3603 -3624 4207 0
-3603 -3625 4208 0
-3603 -3626 4209 0
-3603 -3627 4210 0
-3603 -3628 4211 0
-3603 -3629 4212 0
-3603 -3630 4213 0
-3604 -3615 4199 0
-3604 -3616 4200 0
-3604 -3617 4201 0
-3604 -3618 4202 0
-3604 -3619 4203 0
-3604 -3620 4204 0
-3604 -3621 4205 0
-3604 -3622 4206 0
-3604 -3623 4207 0
-3604 -3624 4208 0
-3604 -3625 4209 0
-3604 -3626 4210 0
-3604 -3627 4211 0
-3604 -3628 4212 0
-3604 -3629 4213 0
-3604 -3630 4214 0
-3605 -3615 4200 0
-3605 -3616 4201 0
-3605 -3617 4202 0
-3605 -3618 4203 0
-3605 -3619 4204 0
-3605 -3620 4205 0
-3605 -3621 4206 0
-3605 -3622 4207 0
-3605 -3623 4208 0
-3605 -3624 4209 0
-3605 -3625 4210 0
-3605 -3626 4211 0
-3605 -3627 4212 0
-3605 -3628 4213 0
-3605 -3629 4214 0
-3605 -3630 4215 0
-3606 -3615 4201 0
-3606 -3616 4202 0
-3606 -3617 4203 0
-3606 -3618 4204 0
-3606 -3619 4205 0
-3606 -3620 4206 0
-3606 -3621 4207 0
-3606 -3622 4208 0
-3606 -3623 4209 0
-3606 -3624 4210 0
-3606 -3625 4211 0
-3606 -3626 4212 0
-3606 -3627 4213 0
-3606 -3628 4214 0
-3606 -3629 4215 0
-3606 -3630 4216 0
-3607 -3615 4202 0
-3607 -3616 4203 0
-3607 -3617 4204 0
-3607 -3618 4205 0
-3607 -3619 4206 0
-3607 -3620 4207 0
-3607 -3621 4208 0
-3607 -3622 4209 0
-3607 -3623 4210 0
-3607 -3624 4211 0
-3607 -3625 4212 0
-3607 -3626 4213 0
-3607 -3627 4214 0
-3607 -3628 4215 0
-3607 -3629 4216 0
-3607 -3630 4217 0
-3608 -3615 4203 0
-3608 -3616 4204 0
-3608 -3617 4205 0
-3608 -3618 4206 0
-3608 -3619 4207 0
-3608 -3620 4208 0
-3608 -3621 4209 0
-3608 -3622 4210 0
-3608 -3623 4211 0
-3608 -3624 4212 0
-3608 -3625 4213 0
-3608 -3626 4214 0
-3608 -3627 4215 0
-3608 -3628 4216 0
-3608 -3629 4217 0
-3609 -3615 4204 0
-3609 -3616 4205 0
-3609 -3617 4206 0
-3609 -3618 4207 0
-3609 -3619 4208 0
-3609 -3620 4209 0
-3609 -3621 4210 0
-3609 -3622 4211 0
-3609 -3623 4212 0
-3609 -3624 4213 0
-3609 -3625 4214 0
-3609 -3626 4215 0
-3609 -3627 4216 0
-3609 -3628 4217 0
-3610 -3615 4205 0
-3610 -3616 4206 0
-3610 -3617 4207 0
-3610 -3618 4208 0
-3610 -3619 4209 0
-3610 -3620 4210 0
-3610 -3621 4211 0
-3610 -3622 4212 0
-3610 -3623 4213 0
-3610 -3624 4214 0
-3610 -3625 4215 0
-3610 -3626 4216 0
-3610 -3627 4217 0
-3611 -3615 4206 0
-3611 -3616 4207 0
-3611 -3617 4208 0
-3611 -3618 4209 0
-3611 -3619 4210 0
-3611 -3620 4211 0
-3611 -3621 4212 0
-3611 -3622 4213 0
-3611 -3623 4214 0
-3611 -3624 4215 0
-3611 -3625 4216 0
-3611 -3626 4217 0
-3612 -3615 4207 0
-3612 -3616 4208 0
-3612 -3617 4209 0
-3612 -3618 4210 0
-3612 -3619 4211 0
-3612 -3620 4212 0
-3612 -3621 4213 0
-3612 -3622 4214 0
-3612 -3623 4215 0
-3612 -3624 4216 0
-3612 -3625 4217 0
-3613 -3615 4208 0
-3613 -3616 4209 0
-3613 -3617 4210 0
-3613 -3618 4211 0
-3613 -3619 4212 0
-3613 -3620 4213 0
-3613 -3621 4214 0
-3613 -3622 4215 0
-3613 -3623 4216 0
-3613 -3624 4217 0
-3614 -3615 4209 0
-3614 -3616 4210 0
-3614 -3617 4211 0
-3614 -3618 4212 0
-3614 -3619 4213 0
-3614 -3620 4214 0
-3614 -3621 4215 0
-3614 -3622 4216 0
-3614 -3623 4217 0
-3647 4218 0
-3648 4219 0
-3649 4220 0
-3650 4221 0
-3651 4222 0
-3652 4223 0
-3653 4224 0
-3654 4225 0
-3655 4226 0
-3656 4227 0
-3657 4228 0
-3658 4229 0
-3659 4230 0
-3660 4231 0
-3661 4232 0
-3662 4233 0
-3631 4218 0
-3632 4219 0
-3633 4220 0
-3634 4221 0
-3635 4222 0
-3636 4223 0
-3637 4224 0
-3638 4225 0
-3639 4226 0
-3640 4227 0
-3641 4228 0
-3642 4229 0
-3643 4230 0
-3644 4231 0
-3645 4232 0
-3646 4233 0
-3631 -3647 4219 0
-3631 -3648 4220 0
-3631 -3649 4221 0
-3631 -3650 4222 0
-3631 -3651 4223 0
-3631 -3652 4224 0
-3631 -3653 4225 0
-3631 -3654 4226 0
-3631 -3655 4227 0
-3631 -3656 4228 0
-3631 -3657 4229 0
-3631 -3658 4230 0
-3631 -3659 4231 0
-3631 -3660 4232 0
-3631 -3661 4233 0
-3631 -3662 4234 0
-3632 -3647 4220 0
-3632 -3648 4221 0
-3632 -3649 4222 0
-3632 -3650 4223 0
-3632 -3651 4224 0
-3632 -3652 4225 0
-3632 -3653 4226 0
-3632 -3654 4227 0
-3632 -3655 4228 0
-3632 -3656 4229 0
-3632 -3657 4230 0
-3632 -3658 4231 0
-3632 -3659 4232 0
-3632 -3660 4233 0
-3632 -3661 4234 0
-3632 -3662 4235 0
-3633 -3647 4221 0
-3633 -3648 4222 0
-3633 -3649 4223 0
-3633 -3650 4224 0
-3633 -3651 4225 0
-3633 -3652 4226 0
-3633 -3653 4227 0
-3633 -3654 4228 0
-3633 -3655 4229 0
-3633 -3656 4230 0
-3633 -3657 4231 0
-3633 -3658 4232 0
-3633 -3659 4233 0
-3633 -3660 4234 0
-3633 -3661 4235 0
-3633 -3662 4236 0
-3634 -3647 4222 0
-3634 -3648 4223 0
-3634 -3649 4224 0
-3634 -3650 4225 0
-3634 -3651 4226 0
-3634 -3652 4227 0
-3634 -3653 4228 0
-3634 -3654 4229 0
-3634 -3655 4230 0
-3634 -3656 4231 0
-3634 -3657 4232 0
-3634 -3658 4233 0
-3634 -3659 4234 0
-3634 -3660 4235 0
-3634 -3661 4236 0
-3634 -3662 4237 0
-3635 -3647 4223 0
-3635 -3648 4224 0
-3635 -3649 4225 0
-3635 -3650 4226 0
-3635 -3651 4227 0
-3635 -3652 4228 0
-3635 -3653 4229 0
-3635 -3654 4230 0
-3635 -3655 4231 0
-3635 -3656 4232 0
-3635 -3657 4233 0
-3635 -3658 4234 0
-3635 -3659 4235 0
-3635 -3660 4236 0
-3635 -3661 4237 0
-3635 -3662 4238 0
-3636 -3647 4224 0
-3636 -3648 4225 0
-3636 -3649 4226 0
-3636 -3650 4227 0
-3636 -3651 4228 0
-3636 -3652 4229 0
-3636 -3653 4230 0
-3636 -3654 4231 0
-3636 -3655 4232 0
-3636 -3656 4233 0
-3636 -3657 4234 0
-3636 -3658 4235 0
-3636 -3659 4236 0
-3636 -3660 4237 0
-3636 -3661 4238 0
-3636 -3662 4239 0
-3637 -3647 4225 0
-3637 -3648 4226 0
-3637 -3649 4227 0
-3637 -3650 4228 0
-3637 -3651 4229 0
-3637 -3652 4230 0
-3637 -3653 4231 0
-3637 -3654 4232 0
-3637 -3655 4233 0
-3637 -3656 4234 0
-3637 -3657 4235 0
-3637 -3658 4236 0
-3637 -3659 4237 0
-3637 -3660 4238 0
-3637 -3661 4239 0
-3637 -3662 4240 0
-3638 -3647 4226 0
-3638 -3648 4227 0
-3638 -3649 4228 0
-3638 -3650 4229 0
-3638 -3651 4230 0
-3638 -3652 4231 0
-3638 -3653 4232 0
-3638 -3654 4233 0
-3638 -3655 4234 0
-3638 -3656 4235 0
-3638 -3657 4236 0
-3638 -3658 4237 0
-3638 -3659 4238 0
-3638 -3660 4239 0
-3638 -3661 4240 0
-3638 -3662 4241 0
-3639 -3647 4227 0
-3639 -3648 4228 0
-3639 -3649 4229 0
-3639 -3650 4230 0
-3639 -3651 4231 0
-3639 -3652 4232 0
-3639 -3653 4233 0
-3639 -3654 4234 0
-3639 -3655 4235 0
-3639 -3656 4236 0
-3639 -3657 4237 0
-3639 -3658 4238 0
-3639 -3659 4239 0
-3639 -3660 4240 0
-3639 -3661 4241 0
-3639 -3662 4242 0
-3640 -3647 4228 0
-3640 -3648 4229 0
-3640 -3649 4230 0
-3640 -3650 4231 0
-3640 -3651 4232 0
-3640 -3652 4233 0
-3640 -3653 4234 0
-3640 -3654 4235 0
-3640 -3655 4236 0
-3640 -3656 4237 0
-3640 -3657 4238 0
-3640 -3658 4239 0
-3640 -3659 4240 0
-3640 -3660 4241 0
-3640 -3661 4242 0
-3641 -3647 4229 0
-3641 -3648 4230 0
-3641 -3649 4231 0
-3641 -3650 4232 0
-3641 -3651 4233 0
-3641 -3652 4234 0
-3641 -3653 4235 0
-3641 -3654 4236 0
-3641 -3655 4237 0
-3641 -3656 4238 0
-3641 -3657 4239 0
-3641 -3658 4240 0
-3641 -3659 4241 0
-3641 -3660 4242 0
-3642 -3647 4230 0
-3642 -3648 4231 0
-3642 -3649 4232 0
-3642 -3650 4233 0
-3642 -3651 4234 0
-3642 -3652 4235 0
-3642 -3653 4236 0
-3642 -3654 4237 0
-3642 -3655 4238 0
-3642 -3656 4239 0
-3642 -3657 4240 0
-3642 -3658 4241 0
-3642 -3659 4242 0
-3643 -3647 4231 0
-3643 -3648 4232 0
-3643 -3649 4233 0
-3643 -3650 4234 0
-3643 -3651 4235 0
-3643 -3652 4236 0
-3643 -3653 4237 0
-3643 -3654 4238 0
-3643 -3655 4239 0
-3643 -3656 4240 0
-3643 -3657 4241 0
-3643 -3658 4242 0
-3644 -3647 4232 0
-3644 -3648 4233 0
-3644 -3649 4234 0
-3644 -3650 4235 0
-3644 -3651 4236 0
-3644 -3652 4237 0
-3644 -3653 4238 0
-3644 -3654 4239 0
-3644 -3655 4240 0
-3644 -3656 4241 0
-3644 -3657 4242 0
-3645 -3647 4233 0
-3645 -3648 4234 0
-3645 -3649 4235 0
-3645 -3650 4236 0
-3645 -3651 4237 0
-3645 -3652 4238 0
-3645 -3653 4239 0
-3645 -3654 4240 0
-3645 -3655 4241 0
-3645 -3656 4242 0
-3646 -3647 4234 0
-3646 -3648 4235 0
-3646 -3649 4236 0
-3646 -3650 4237 0
-3646 -3651 4238 0
-3646 -3652 4239 0
-3646 -3653 4240 0
-3646 -3654 4241 0
-3646 -3655 4242 0
-3679 4243 0
-3680 4244 0
-3681 4245 0
-3682 4246 0
-3683 4247 0
-3684 4248 0
-3685 4249 0
-3686 4250 0
-3687 4251 0
-3688 4252 0
-3689 4253 0
-3690 4254 0
-3691 4255 0
-3692 4256 0
-3693 4257 0
-3694 4258 0
-3663 4243 0
-3664 4244 0
-3665 4245 0
-3666 4246 0
-3667 4247 0
-3668 4248 0
-3669 4249 0
-3670 4250 0
-3671 4251 0
-3672 4252 0
-3673 4253 0
-3674 4254 0
-3675 4255 0
-3676 4256 0
-3677 4257 0
-3678 4258 0
-3663 -3679 4244 0
-3663 -3680 4245 0
-3663 -3681 4246 0
-3663 -3682 4247 0
-3663 -3683 4248 0
-3663 -3684 4249 0
-3663 -3685 4250 0
-3663 -3686 4251 0
-3663 -3687 4252 0
-3663 -3688 4253 0
-3663 -3689 4254 0
-3663 -3690 4255 0
-3663 -3691 4256 0
-3663 -3692 4257 0
-3663 -3693 4258 0
-3663 -3694 4259 0
-3664 -3679 4245 0
-3664 -3680 4246 0
-3664 -3681 4247 0
-3664 -3682 4248 0
-3664 -3683 4249 0
-3664 -3684 4250 0
-3664 -3685 4251 0
-3664 -3686 4252 0
-3664 -3687 4253 0
-3664 -3688 4254 0
-3664 -3689 4255 0
-3664 -3690 4256 0
-3664 -3691 4257 0
-3664 -3692 4258 0
-3664 -3693 4259 0
-3664 -3694 4260 0
-3665 -3679 4246 0
-3665 -3680 4247 0
-3665 -3681 4248 0
-3665 -3682 4249 0
-3665 -3683 4250 0
-3665 -3684 4251 0
-3665 -3685 4252 0
-3665 -3686 4253 0
-3665 -3687 4254 0
-3665 -3688 4255 0
-3665 -3689 4256 0
-3665 -3690 4257 0
-3665 -3691 4258 0
-3665 -3692 4259 0
-3665 -3693 4260 0
-3665 -3694 4261 0
-3666 -3679 4247 0
-3666 -3680 4248 0
-3666 -3681 4249 0
-3666 -3682 4250 0
-3666 -3683 4251 0
-3666 -3684 4252 0
-3666 -3685 4253 0
-3666 -3686 4254 0
-3666 -3687 4255 0
-3666 -3688 4256 0
-3666 -3689 4257 0
-3666 -3690 4258 0
-3666 -3691 4259 0
-3666 -3692 4260 0
-3666 -3693 4261 0
-3666 -3694 4262 0
-3667 -3679 4248 0
-3667 -3680 4249 0
-3667 -3681 4250 0
-3667 -3682 4251 0
-3667 -3683 4252 0
-3667 -3684 4253 0
-3667 -3685 4254 0
-3667 -3686 4255 0
-3667 -3687 4256 0
-3667 -3688 4257 0
-3667 -3689 4258 0
-3667 -3690 4259 0
-3667 -3691 4260 0
-3667 -3692 4261 0
-3667 -3693 4262 0
-3667 -3694 4263 0
-3668 -3679 4249 0
-3668 -3680 4250 0
-3668 -3681 4251 0
-3668 -3682 4252 0
-3668 -3683 4253 0
-3668 -3684 4254 0
-3668 -3685 4255 0
-3668 -3686 4256 0
-3668 -3687 4257 0
-3668 -3688 4258 0
-3668 -3689 4259 0
-3668 -3690 4260 0
-3668 -3691 4261 0
-3668 -3692 4262 0
-3668 -3693 4263 0
-3668 -3694 4264 0
-3669 -3679 4250 0
-3669 -3680 4251 0
-3669 -3681 4252 0
-3669 -3682 4253 0
-3669 -3683 4254 0
-3669 -3684 4255 0
-3669 -3685 4256 0
-3669 -3686 4257 0
-3669 -3687 4258 0
-3669 -3688 4259 0
-3669 -3689 4260 0
-3669 -3690 4261 0
-3669 -3691 4262 0
-3669 -3692 4263 0
-3669 -3693 4264 0
-3669 -3694 4265 0
-3670 -3679 4251 0
-3670 -3680 4252 0
-3670 -3681 4253 0
-3670 -3682 4254 0
-3670 -3683 4255 0
-3670 -3684 4256 0
-3670 -3685 4257 0
-3670 -3686 4258 0
-3670 -3687 4259 0
-3670 -3688 4260 0
-3670 -3689 4261 0
-3670 -3690 4262 0
-3670 -3691 4263 0
-3670 -3692 4264 0
-3670 -3693 4265 0
-3670 -3694 4266 0
-3671 -3679 4252 0
-3671 -3680 4253 0
-3671 -3681 4254 0
-3671 -3682 4255 0
-3671 -3683 4256 0
-3671 -3684 4257 0
-3671 -3685 4258 0
-3671 -3686 4259 0
-3671 -3687 4260 0
-3671 -3688 4261 0
-3671 -3689 4262 0
-3671 -3690 4263 0
-3671 -3691 4264 0
-3671 -3692 4265 0
-3671 -3693 4266 0
-3671 -3694 4267 0
-3672 -3679 4253 0
-3672 -3680 4254 0
-3672 -3681 4255 0
-3672 -3682 4256 0
-3672 -3683 4257 0
-3672 -3684 4258 0
-3672 -3685 4259 0
-3672 -3686 4260 0
-3672 -3687 4261 0
-3672 -3688 4262 0
-3672 -3689 4263 0
-3672 -3690 4264 0
-3672 -3691 4265 0
-3672 -3692 4266 0
-3672 -3693 4267 0
-3673 -3679 4254 0
-3673 -3680 4255 0
-3673 -3681 4256 0
-3673 -3682 4257 0
-3673 -3683 4258 0
-3673 -3684 4259 0
-3673 -3685 4260 0
-3673 -3686 4261 0
-3673 -3687 4262 0
-3673 -3688 4263 0
-3673 -3689 4264 0
-3673 -3690 4265 0
-3673 -3691 4266 0
-3673 -3692 4267 0
-3674 -3679 4255 0
-3674 -3680 4256 0
-3674 -3681 4257 0
-3674 -3682 4258 0
-3674 -3683 4259 0
-3674 -3684 4260 0
-3674 -3685 4261 0
-3674 -3686 4262 0
-3674 -3687 4263 0
-3674 -3688 4264 0
-3674 -3689 4265 0
-3674 -3690 4266 0
-3674 -3691 4267 0
-3675 -3679 4256 0
-3675 -3680 4257 0
-3675 -3681 4258 0
-3675 -3682 4259 0
-3675 -3683 4260 0
-3675 -3684 4261 0
-3675 -3685 4262 0
-3675 -3686 4263 0
-3675 -3687 4264 0
-3675 -3688 4265 0
-3675 -3689 4266 0
-3675 -3690 4267 0
-3676 -3679 4257 0
-3676 -3680 4258 0
-3676 -3681 4259 0
-3676 -3682 4260 0
-3676 -3683 4261 0
-3676 -3684 4262 0
-3676 -3685 4263 0
-3676 -3686 4264 0
-3676 -3687 4265 0
-3676 -3688 4266 0
-3676 -3689 4267 0
-3677 -3679 4258 0
-3677 -3680 4259 0
-3677 -3681 4260 0
-3677 -3682 4261 0
-3677 -3683 4262 0
-3677 -3684 4263 0
-3677 -3685 4264 0
-3677 -3686 4265 0
-3677 -3687 4266 0
-3677 -3688 4267 0
-3678 -3679 4259 0
-3678 -3680 4260 0
-3678 -3681 4261 0
-3678 -3682 4262 0
-3678 -3683 4263 0
-3678 -3684 4264 0
-3678 -3685 4265 0
-3678 -3686 4266 0
-3678 -3687 4267 0
-3711 4268 0
-3712 4269 0
-3713 4270 0
-3714 4271 0
-3715 4272 0
-3716 4273 0
-3717 4274 0
-3718 4275 0
-3719 4276 0
-3720 4277 0
-3721 4278 0
-3722 4279 0
-3723 4280 0
-3724 4281 0
-3725 4282 0
-3726 4283 0
-3695 4268 0
-3696 4269 0
-3697 4270 0
-3698 4271 0
-3699 4272 0
-3700 4273 0
-3701 4274 0
-3702 4275 0
-3703 4276 0
-3704 4277 0
-3705 4278 0
-3706 4279 0
-3707 4280 0
-3708 4281 0
-3709 4282 0
-3710 4283 0
-3695 -3711 4269 0
-3695 -3712 4270 0
-3695 -3713 4271 0
-3695 -3714 4272 0
-3695 -3715 4273 0
-3695 -3716 4274 0
-3695 -3717 4275 0
-3695 -3718 4276 0
-3695 -3719 4277 0
-3695 -3720 4278 0
-3695 -3721 4279 0
-3695 -3722 4280 0
-3695 -3723 4281 0
-3695 -3724 4282 0
-3695 -3725 4283 0
-3695 -3726 4284 0
-3696 -3711 4270 0
-3696 -3712 4271 0
-3696 -3713 4272 0
-3696 -3714 4273 0
-3696 -3715 4274 0
-3696 -3716 4275 0
-3696 -3717 4276 0
-3696 -3718 4277 0
-3696 -3719 4278 0
-3696 -3720 4279 0
-3696 -3721 4280 0
-3696 -3722 4281 0
-3696 -3723 4282 0
-3696 -3724 4283 0
-3696 -3725 4284 0
-3696 -3726 4285 0
-3697 -3711 4271 0
-3697 -3712 4272 0
-3697 -3713 4273 0
-3697 -3714 4274 0
-3697 -3715 4275 0
-3697 -3716 4276 0
-3697 -3717 4277 0
-3697 -3718 4278 0
-3697 -3719 4279 0
-3697 -3720 4280 0
-3697 -3721 4281 0
-3697 -3722 4282 0
-3697 -3723 4283 0
-3697 -3724 4284 0
-3697 -3725 4285 0
-3697 -3726 4286 0
-3698 -3711 4272 0
-3698 -3712 4273 0
-3698 -3713 4274 0
-3698 -3714 4275 0
-3698 -3715 4276 0
-3698 -3716 4277 0
-3698 -3717 4278 0
-3698 -3718 4279 0
-3698 -3719 4280 0
-3698 -3720 4281 0
-3698 -3721 4282 0
-3698 -3722 4283 0
-3698 -3723 4284 0
-3698 -3724 4285 0
-3698 -3725 4286 0
-3698 -3726 4287 0
-3699 -3711 4273 0
-3699 -3712 4274 0
-3699 -3713 4275 0
-3699 -3714 4276 0
-3699 -3715 4277 0
-3699 -3716 4278 0
-3699 -3717 4279 0
-3699 -3718 4280 0
-3699 -3719 4281 0
-3699 -3720 4282 0
-3699 -3721 4283 0
-3699 -3722 4284 0
-3699 -3723 4285 0
-3699 -3724 4286 0
-3699 -3725 4287 0
-3699 -3726 4288 0
-3700 -3711 4274 0
-3700 -3712 4275 0
-3700 -3713 4276 0
-3700 -3714 4277 0
-3700 -3715 4278 0
-3700 -3716 4279 0
-3700 -3717 4280 0
-3700 -3718 4281 0
-3700 -3719 4282 0
-3700 -3720 4283 0
-3700 -3721 4284 0
-3700 -3722 4285 0
-3700 -3723 4286 0
-3700 -3724 4287 0
-3700 -3725 4288 0
-3700 -3726 4289 0
-3701 -3711 4275 0
-3701 -3712 4276 0
-3701 -3713 4277 0
-3701 -3714 4278 0
-3701 -3715 4279 0
-3701 -3716 4280 0
-3701 -3717 4281 0
-3701 -3718 4282 0
-3701 -3719 4283 0
-3701 -3720 4284 0
-3701 -3721 4285 0
-3701 -3722 4286 0
-3701 -3723 4287 0
-3701 -3724 4288 0
-3701 -3725 4289 0
-3701 -3726 4290 0
-3702 -3711 4276 0
-3702 -3712 4277 0
-3702 -3713 4278 0
-3702 -3714 4279 0
-3702 -3715 4280 0
-3702 -3716 4281 0
-3702 -3717 4282 0
-3702 -3718 4283 0
-3702 -3719 4284 0
-3702 -3720 4285 0
-3702 -3721 4286 0
-3702 -3722 4287 0
-3702 -3723 4288 0
-3702 -3724 4289 0
-3702 -3725 4290 0
-3702 -3726 4291 0
-3703 -3711 4277 0
-3703 -3712 4278 0
-3703 -3713 4279 0
-3703 -3714 4280 0
-3703 -3715 4281 0
-3703 -3716 4282 0
-3703 -3717 4283 0
-3703 -3718 4284 0
-3703 -3719 4285 0
-3703 -3720 4286 0
-3703 -3721 4287 0
-3703 -3722 4288 0
-3703 -3723 4289 0
-3703 -3724 4290 0
-3703 -3725 4291 0
-3703 -3726 4292 0
-3704 -3711 4278 0
-3704 -3712 4279 0
-3704 -3713 4280 0
-3704 -3714 4281 0
-3704 -3715 4282 0
-3704 -3716 4283 0
-3704 -3717 4284 0
-3704 -3718 4285 0
-3704 -3719 4286 0
-3704 -3720 4287 0
-3704 -3721 4288 0
-3704 -3722 4289 0
-3704 -3723 4290 0
-3704 -3724 4291 0
-3704 -3725 4292 0
-3705 -3711 4279 0
-3705 -3712 4280 0
-3705 -3713 4281 0
-3705 -3714 4282 0
-3705 -3715 4283 0
-3705 -3716 4284 0
-3705 -3717 4285 0
-3705 -3718 4286 0
-3705 -3719 4287 0
-3705 -3720 4288 0
-3705 -3721 4289 0
-3705 -3722 4290 0
-3705 -3723 4291 0
-3705 -3724 4292 0
-3706 -3711 4280 0
-3706 -3712 4281 0
-3706 -3713 4282 0
-3706 -3714 4283 0
-3706 -3715 4284 0
-3706 -3716 4285 0
-3706 -3717 4286 0
-3706 -3718 4287 0
-3706 -3719 4288 0
-3706 -3720 4289 0
-3706 -3721 4290 0
-3706 -3722 4291 0
-3706 -3723 4292 0
-3707 -3711 4281 0
-3707 -3712 4282 0
-3707 -3713 4283 0
-3707 -3714 4284 0
-3707 -3715 4285 0
-3707 -3716 4286 0
-3707 -3717 4287 0
-3707 -3718 4288 0
-3707 -3719 4289 0
-3707 -3720 4290 0
-3707 -3721 4291 0
-3707 -3722 4292 0
-3708 -3711 4282 0
-3708 -3712 4283 0
-3708 -3713 4284 0
-3708 -3714 4285 0
-3708 -3715 4286 0
-3708 -3716 4287 0
-3708 -3717 4288 0
-3708 -3718 4289 0
-3708 -3719 4290 0
-3708 -3720 4291 0
-3708 -3721 4292 0
-3709 -3711 4283 0
-3709 -3712 4284 0
-3709 -3713 4285 0
-3709 -3714 4286 0
-3709 -3715 4287 0
-3709 -3716 4288 0
-3709 -3717 4289 0
-3709 -3718 4290 0
-3709 -3719 4291 0
-3709 -3720 4292 0
-3710 -3711 4284 0
-3710 -3712 4285 0
-3710 -3713 4286 0
-3710 -3714 4287 0
-3710 -3715 4288 0
-3710 -3716 4289 0
-3710 -3717 4290 0
-3710 -3718 4291 0
-3710 -3719 4292 0
-3743 4293 0
-3744 4294 0
-3745 4295 0
-3746 4296 0
-3747 4297 0
-3748 4298 0
-3749 4299 0
-3750 4300 0
-3751 4301 0
-3752 4302 0
-3753 4303 0
-3754 4304 0
-3755 4305 0
-3756 4306 0
-3757 4307 0
-3758 4308 0
-3727 4293 0
-3728 4294 0
-3729 4295 0
-3730 4296 0
-3731 4297 0
-3732 4298 0
-3733 4299 0
-3734 4300 0
-3735 4301 0
-3736 4302 0
-3737 4303 0
-3738 4304 0
-3739 4305 0
-3740 4306 0
-3741 4307 0
-3742 4308 0
-3727 -3743 4294 0
-3727 -3744 4295 0
-3727 -3745 4296 0
-3727 -3746 4297 0
-3727 -3747 4298 0
-3727 -3748 4299 0
-3727 -3749 4300 0
-3727 -3750 4301 0
-3727 -3751 4302 0
-3727 -3752 4303 0
-3727 -3753 4304 0
-3727 -3754 4305 0
-3727 -3755 4306 0
-3727 -3756 4307 0
-3727 -3757 4308 0
-3727 -3758 4309 0
-3728 -3743 4295 0
-3728 -3744 4296 0
-3728 -3745 4297 0
-3728 -3746 4298 0
-3728 -3747 4299 0
-3728 -3748 4300 0
-3728 -3749 4301 0
-3728 -3750 4302 0
-3728 -3751 4303 0
-3728 -3752 4304 0
-3728 -3753 4305 0
-3728 -3754 4306 0
-3728 -3755 4307 0
-3728 -3756 4308 0
-3728 -3757 4309 0
-3728 -3758 4310 0
-3729 -3743 4296 0
-3729 -3744 4297 0
-3729 -3745 4298 0
-3729 -3746 4299 0
-3729 -3747 4300 0
-3729 -3748 4301 0
-3729 -3749 4302 0
-3729 -3750 4303 0
-3729 -3751 4304 0
-3729 -3752 4305 0
-3729 -3753 4306 0
-3729 -3754 4307 0
-3729 -3755 4308 0
-3729 -3756 4309 0
-3729 -3757 4310 0
-3729 -3758 4311 0
-3730 -3743 4297 0
-3730 -3744 4298 0
-3730 -3745 4299 0
-3730 -3746 4300 0
-3730 -3747 4301 0
-3730 -3748 4302 0
-3730 -3749 4303 0
-3730 -3750 4304 0
-3730 -3751 4305 0
-3730 -3752 4306 0
-3730 -3753 4307 0
-3730 -3754 4308 0
-3730 -3755 4309 0
-3730 -3756 4310 0
-3730 -3757 4311 0
-3730 -3758 4312 0
-3731 -3743 4298 0
-3731 -3744 4299 0
-3731 -3745 4300 0
-3731 -3746 4301 0
-3731 -3747 4302 0
-3731 -3748 4303 0
-3731 -3749 4304 0
-3731 -3750 4305 0
-3731 -3751 4306 0
-3731 -3752 4307 0
-3731 -3753 4308 0
-3731 -3754 4309 0
-3731 -3755 4310 0
-3731 -3756 4311 0
-3731 -3757 4312 0
-3731 -3758 4313 0
-3732 -3743 4299 0
-3732 -3744 4300 0
-3732 -3745 4301 0
-3732 -3746 4302 0
-3732 -3747 4303 0
-3732 -3748 4304 0
-3732 -3749 4305 0
-3732 -3750 4306 0
-3732 -3751 4307 0
-3732 -3752 4308 0
-3732 -3753 4309 0
-3732 -3754 4310 0
-3732 -3755 4311 0
-3732 -3756 4312 0
-3732 -3757 4313 0
-3732 -3758 4314 0
-3733 -3743 4300 0
-3733 -3744 4301 0
-3733 -3745 4302 0
-3733 -3746 4303 0
-3733 -3747 4304 0
-3733 -3748 4305 0
-3733 -3749 4306 0
-3733 -3750 4307 0
-3733 -3751 4308 0
-3733 -3752 4309 0
-3733 -3753 4310 0
-3733 -3754 4311 0
-3733 -3755 4312 0
-3733 -3756 4313 0
-3733 -3757 4314 0
-3733 -3758 4315 0
-3734 -3743 4301 0
-3734 -3744 4302 0
-3734 -3745 4303 0
-3734 -3746 4304 0
-3734 -3747 4305 0
-3734 -3748 4306 0
-3734 -3749 4307 0
-3734 -3750 4308 0
-3734 -3751 4309 0
-3734 -3752 4310 0
-3734 -3753 4311 0
-3734 -3754 4312 0
-3734 -3755 4313 0
-3734 -3756 4314 0
-3734 -3757 4315 0
-3734 -3758 4316 0
-3735 -3743 4302 0
-3735 -3744 4303 0
-3735 -3745 4304 0
-3735 -3746 4305 0
-3735 -3747 4306 0
-3735 -3748 4307 0
-3735 -3749 4308 0
-3735 -3750 4309 0
-3735 -3751 4310 0
-3735 -3752 4311 0
-3735 -3753 4312 0
-3735 -3754 4313 0
-3735 -3755 4314 0
-3735 -3756 4315 0
-3735 -3757 4316 0
-3735 -3758 4317 0
-3736 -3743 4303 0
-3736 -3744 4304 0
-3736 -3745 4305 0
-3736 -3746 4306 0
-3736 -3747 4307 0
-3736 -3748 4308 0
-3736 -3749 4309 0
-3736 -3750 4310 0
-3736 -3751 4311 0
-3736 -3752 4312 0
-3736 -3753 4313 0
-3736 -3754 4314 0
-3736 -3755 4315 0
-3736 -3756 4316 0
-3736 -3757 4317 0
-3737 -3743 4304 0
-3737 -3744 4305 0
-3737 -3745 4306 0
-3737 -3746 4307 0
-3737 -3747 4308 0
-3737 -3748 4309 0
-3737 -3749 4310 0
-3737 -3750 4311 0
-3737 -3751 4312 0
-3737 -3752 4313 0
-3737 -3753 4314 0
-3737 -3754 4315 0
-3737 -3755 4316 0
-3737 -3756 4317 0
-3738 -3743 4305 0
-3738 -3744 4306 0
-3738 -3745 4307 0
-3738 -3746 4308 0
-3738 -3747 4309 0
-3738 -3748 4310 0
-3738 -3749 4311 0
-3738 -3750 4312 0
-3738 -3751 4313 0
-3738 -3752 4314 0
-3738 -3753 4315 0
-3738 -3754 4316 0
-3738 -3755 4317 0
-3739 -3743 4306 0
-3739 -3744 4307 0
-3739 -3745 4308 0
-3739 -3746 4309 0
-3739 -3747 4310 0
-3739 -3748 4311 0
-3739 -3749 4312 0
-3739 -3750 4313 0
-3739 -3751 4314 0
-3739 -3752 4315 0
-3739 -3753 4316 0
-3739 -3754 4317 0
-3740 -3743 4307 0
-3740 -3744 4308 0
-3740 -3745 4309 0
-3740 -3746 4310 0
-3740 -3747 4311 0
-3740 -3748 4312 0
-3740 -3749 4313 0
-3740 -3750 4314 0
-3740 -3751 4315 0
-3740 -3752 4316 0
-3740 -3753 4317 0
-3741 -3743 4308 0
-3741 -3744 4309 0
-3741 -3745 4310 0
-3741 -3746 4311 0
-3741 -3747 4312 0
-3741 -3748 4313 0
-3741 -3749 4314 0
-3741 -3750 4315 0
-3741 -3751 4316 0
-3741 -3752 4317 0
-3742 -3743 4309 0
-3742 -3744 4310 0
-3742 -3745 4311 0
-3742 -3746 4312 0
-3742 -3747 4313 0
-3742 -3748 4314 0
-3742 -3749 4315 0
-3742 -3750 4316 0
-3742 -3751 4317 0
-3775 4318 0
-3776 4319 0
-3777 4320 0
-3778 4321 0
-3779 4322 0
-3780 4323 0
-3781 4324 0
-3782 4325 0
-3783 4326 0
-3784 4327 0
-3785 4328 0
-3786 4329 0
-3787 4330 0
-3788 4331 0
-3789 4332 0
-3790 4333 0
-3759 4318 0
-3760 4319 0
-3761 4320 0
-3762 4321 0
-3763 4322 0
-3764 4323 0
-3765 4324 0
-3766 4325 0
-3767 4326 0
-3768 4327 0
-3769 4328 0
-3770 4329 0
-3771 4330 0
-3772 4331 0
-3773 4332 0
-3774 4333 0
-3759 -3775 4319 0
-3759 -3776 4320 0
-3759 -3777 4321 0
-3759 -3778 4322 0
-3759 -3779 4323 0
-3759 -3780 4324 0
-3759 -3781 4325 0
-3759 -3782 4326 0
-3759 -3783 4327 0
-3759 -3784 4328 0
-3759 -3785 4329 0
-3759 -3786 4330 0
-3759 -3787 4331 0
-3759 -3788 4332 0
-3759 -3789 4333 0
-3759 -3790 4334 0
-3760 -3775 4320 0
-3760 -3776 4321 0
-3760 -3777 4322 0
-3760 -3778 4323 0
-3760 -3779 4324 0
-3760 -3780 4325 0
-3760 -3781 4326 0
-3760 -3782 4327 0
-3760 -3783 4328 0
-3760 -3784 4329 0
-3760 -3785 4330 0
-3760 -3786 4331 0
-3760 -3787 4332 0
-3760 -3788 4333 0
-3760 -3789 4334 0
-3760 -3790 4335 0
-3761 -3775 4321 0
-3761 -3776 4322 0
-3761 -3777 4323 0
-3761 -3778 4324 0
-3761 -3779 4325 0
-3761 -3780 4326 0
-3761 -3781 4327 0
-3761 -3782 4328 0
-3761 -3783 4329 0
-3761 -3784 4330 0
-3761 -3785 4331 0
-3761 -3786 4332 0
-3761 -3787 4333 0
-3761 -3788 4334 0
-3761 -3789 4335 0
-3761 -3790 4336 0
-3762 -3775 4322 0
-3762 -3776 4323 0
-3762 -3777 4324 0
-3762 -3778 4325 0
-3762 -3779 4326 0
-3762 -3780 4327 0
-3762 -3781 4328 0
-3762 -3782 4329 0
-3762 -3783 4330 0
-3762 -3784 4331 0
-3762 -3785 4332 0
-3762 -3786 4333 0
-3762 -3787 4334 0
-3762 -3788 4335 0
-3762 -3789 4336 0
-3762 -3790 4337 0
-3763 -3775 4323 0
-3763 -3776 4324 0
-3763 -3777 4325 0
-3763 -3778 4326 0
-3763 -3779 4327 0
-3763 -3780 4328 0
-3763 -3781 4329 0
-3763 -3782 4330 0
-3763 -3783 4331 0
-3763 -3784 4332 0
-3763 -3785 4333 0
-3763 -3786 4334 0
-3763 -3787 4335 0
-3763 -3788 4336 0
-3763 -3789 4337 0
-3763 -3790 4338 0
-3764 -3775 4324 0
-3764 -3776 4325 0
-3764 -3777 4326 0
-3764 -3778 4327 0
-3764 -3779 4328 0
-3764 -3780 4329 0
-3764 -3781 4330 0
-3764 -3782 4331 0
-3764 -3783 4332 0
-3764 -3784 4333 0
-3764 -3785 4334 0
-3764 -3786 4335 0
-3764 -3787 4336 0
-3764 -3788 4337 0
-3764 -3789 4338 0
-3764 -3790 4339 0
-3765 -3775 4325 0
-3765 -3776 4326 0
-3765 -3777 4327 0
-3765 -3778 4328 0
-3765 -3779 4329 0
-3765 -3780 4330 0
-3765 -3781 4331 0
-3765 -3782 4332 0
-3765 -3783 4333 0
-3765 -3784 4334 0
-3765 -3785 4335 0
-3765 -3786 4336 0
-3765 -3787 4337 0
-3765 -3788 4338 0
-3765 -3789 4339 0
-3765 -3790 4340 0
-3766 -3775 4326 0
-3766 -3776 4327 0
-3766 -3777 4328 0
-3766 -3778 4329 0
-3766 -3779 4330 0
-3766 -3780 4331 0
-3766 -3781 4332 0
-3766 -3782 4333 0
-3766 -3783 4334 0
-3766 -3784 4335 0
-3766 -3785 4336 0
-3766 -3786 4337 0
-3766 -3787 4338 0
-3766 -3788 4339 0
-3766 -3789 4340 0
-3766 -3790 4341 0
-3767 -3775 4327 0
-3767 -3776 4328 0
-3767 -3777 4329 0
-3767 -3778 4330 0
-3767 -3779 4331 0
-3767 -3780 4332 0
-3767 -3781 4333 0
-3767 -3782 4334 0
-3767 -3783 4335 0
-3767 -3784 4336 0
-3767 -3785 4337 0
-3767 -3786 4338 0
-3767 -3787 4339 0
-3767 -3788 4340 0
-3767 -3789 4341 0
-3767 -3790 4342 0
-3768 -3775 4328 0
-3768 -3776 4329 0
-3768 -3777 4330 0
-3768 -3778 4331 0
-3768 -3779 4332 0
-3768 -3780 4333 0
-3768 -3781 4334 0
-3768 -3782 4335 0
-3768 -3783 4336 0
-3768 -3784 4337 0
-3768 -3785 4338 0
-3768 -3786 4339 0
-3768 -3787 4340 0
-3768 -3788 4341 0
-3768 -3789 4342 0
-3769 -3775 4329 0
-3769 -3776 4330 0
-3769 -3777 4331 0
-3769 -3778 4332 0
-3769 -3779 4333 0
-3769 -3780 4334 0
-3769 -3781 4335 0
-3769 -3782 4336 0
-3769 -3783 4337 0
-3769 -3784 4338 0
-3769 -3785 4339 0
-3769 -3786 4340 0
-3769 -3787 4341 0
-3769 -3788 4342 0
-3770 -3775 4330 0
-3770 -3776 4331 0
-3770 -3777 4332 0
-3770 -3778 4333 0
-3770 -3779 4334 0
-3770 -3780 4335 0
-3770 -3781 4336 0
-3770 -3782 4337 0
-3770 -3783 4338 0
-3770 -3784 4339 0
-3770 -3785 4340 0
-3770 -3786 4341 0
-3770 -3787 4342 0
-3771 -3775 4331 0
-3771 -3776 4332 0
-3771 -3777 4333 0
-3771 -3778 4334 0
-3771 -3779 4335 0
-3771 -3780 4336 0
-3771 -3781 4337 0
-3771 -3782 4338 0
-3771 -3783 4339 0
-3771 -3784 4340 0
-3771 -3785 4341 0
-3771 -3786 4342 0
-3772 -3775 4332 0
-3772 -3776 4333 0
-3772 -3777 4334 0
-3772 -3778 4335 0
-3772 -3779 4336 0
-3772 -3780 4337 0
-3772 -3781 4338 0
-3772 -3782 4339 0
-3772 -3783 4340 0
-3772 -3784 4341 0
-3772 -3785 4342 0
-3773 -3775 4333 0
-3773 -3776 4334 0
-3773 -3777 4335 0
-3773 -3778 4336 0
-3773 -3779 4337 0
-3773 -3780 4338 0
-3773 -3781 4339 0
-3773 -3782 4340 0
-3773 -3783 4341 0
-3773 -3784 4342 0
-3774 -3775 4334 0
-3774 -3776 4335 0
-3774 -3777 4336 0
-3774 -3778 4337 0
-3774 -3779 4338 0
-3774 -3780 4339 0
-3774 -3781 4340 0
-3774 -3782 4341 0
-3774 -3783 4342 0
-3807 4343 0
-3808 4344 0
-3809 4345 0
-3810 4346 0
-3811 4347 0
-3812 4348 0
-3813 4349 0
-3814 4350 0
-3815 4351 0
-3816 4352 0
-3817 4353 0
-3818 4354 0
-3819 4355 0
-3820 4356 0
-3821 4357 0
-3822 4358 0
-3791 4343 0
-3792 4344 0
-3793 4345 0
-3794 4346 0
-3795 4347 0
-3796 4348 0
-3797 4349 0
-3798 4350 0
-3799 4351 0
-3800 4352 0
-3801 4353 0
-3802 4354 0
-3803 4355 0
-3804 4356 0
-3805 4357 0
-3806 4358 0
-3791 -3807 4344 0
-3791 -3808 4345 0
-3791 -3809 4346 0
-3791 -3810 4347 0
-3791 -3811 4348 0
-3791 -3812 4349 0
-3791 -3813 4350 0
-3791 -3814 4351 0
-3791 -3815 4352 0
-3791 -3816 4353 0
-3791 -3817 4354 0
-3791 -3818 4355 0
-3791 -3819 4356 0
-3791 -3820 4357 0
-3791 -3821 4358 0
-3791 -3822 4359 0
-3792 -3807 4345 0
-3792 -3808 4346 0
-3792 -3809 4347 0
-3792 -3810 4348 0
-3792 -3811 4349 0
-3792 -3812 4350 0
-3792 -3813 4351 0
-3792 -3814 4352 0
-3792 -3815 4353 0
-3792 -3816 4354 0
-3792 -3817 4355 0
-3792 -3818 4356 0
-3792 -3819 4357 0
-3792 -3820 4358 0
-3792 -3821 4359 0
-3792 -3822 4360 0
-3793 -3807 4346 0
-3793 -3808 4347 0
-3793 -3809 4348 0
-3793 -3810 4349 0
-3793 -3811 4350 0
-3793 -3812 4351 0
-3793 -3813 4352 0
-3793 -3814 4353 0
-3793 -3815 4354 0
-3793 -3816 4355 0
-3793 -3817 4356 0
-3793 -3818 4357 0
-3793 -3819 4358 0
-3793 -3820 4359 0
-3793 -3821 4360 0
-3793 -3822 4361 0
-3794 -3807 4347 0
-3794 -3808 4348 0
-3794 -3809 4349 0
-3794 -3810 4350 0
-3794 -3811 4351 0
-3794 -3812 4352 0
-3794 -3813 4353 0
-3794 -3814 4354 0
-3794 -3815 4355 0
-3794 -3816 4356 0
-3794 -3817 4357 0
-3794 -3818 4358 0
-3794 -3819 4359 0
-3794 -3820 4360 0
-3794 -3821 4361 0
-3794 -3822 4362 0
-3795 -3807 4348 0
-3795 -3808 4349 0
-3795 -3809 4350 0
-3795 -3810 4351 0
-3795 -3811 4352 0
-3795 -3812 4353 0
-3795 -3813 4354 0
-3795 -3814 4355 0
-3795 -3815 4356 0
-3795 -3816 4357 0
-3795 -3817 4358 0
-3795 -3818 4359 0
-3795 -3819 4360 0
-3795 -3820 4361 0
-3795 -3821 4362 0
-3795 -3822 4363 0
-3796 -3807 4349 0
-3796 -3808 4350 0
-3796 -3809 4351 0
-3796 -3810 4352 0
-3796 -3811 4353 0
-3796 -3812 4354 0
-3796 -3813 4355 0
-3796 -3814 4356 0
-3796 -3815 4357 0
-3796 -3816 4358 0
-3796 -3817 4359 0
-3796 -3818 4360 0
-3796 -3819 4361 0
-3796 -3820 4362 0
-3796 -3821 4363 0
-3796 -3822 4364 0
-3797 -3807 4350 0
-3797 -3808 4351 0
-3797 -3809 4352 0
-3797 -3810 4353 0
-3797 -3811 4354 0
-3797 -3812 4355 0
-3797 -3813 4356 0
-3797 -3814 4357 0
-3797 -3815 4358 0
-3797 -3816 4359 0
-3797 -3817 4360 0
-3797 -3818 4361 0
-3797 -3819 4362 0
-3797 -3820 4363 0
-3797 -3821 4364 0
-3797 -3822 4365 0
-3798 -3807 4351 0
-3798 -3808 4352 0
-3798 -3809 4353 0
-3798 -3810 4354 0
-3798 -3811 4355 0
-3798 -3812 4356 0
-3798 -3813 4357 0
-3798 -3814 4358 0
-3798 -3815 4359 0
-3798 -3816 4360 0
-3798 -3817 4361 0
-3798 -3818 4362 0
-3798 -3819 4363 0
-3798 -3820 4364 0
-3798 -3821 4365 0
-3798 -3822 4366 0
-3799 -3807 4352 0
-3799 -3808 4353 0
-3799 -3809 4354 0
-3799 -3810 4355 0
-3799 -3811 4356 0
-3799 -3812 4357 0
-3799 -3813 4358 0
-3799 -3814 4359 0
-3799 -3815 4360 0
-3799 -3816 4361 0
-3799 -3817 4362 0
-3799 -3818 4363 0
-3799 -3819 4364 0
-3799 -3820 4365 0
-3799 -3821 4366 0
-3799 -3822 4367 0
-3800 -3807 4353 0
-3800 -3808 4354 0
-3800 -3809 4355 0
-3800 -3810 4356 0
-3800 -3811 4357 0
-3800 -3812 4358 0
-3800 -3813 4359 0
-3800 -3814 4360 0
-3800 -3815 4361 0
-3800 -3816 4362 0
-3800 -3817 4363 0
-3800 -3818 4364 0
-3800 -3819 4365 0
-3800 -3820 4366 0
-3800 -3821 4367 0
-3801 -3807 4354 0
-3801 -3808 4355 0
-3801 -3809 4356 0
-3801 -3810 4357 0
-3801 -3811 4358 0
-3801 -3812 4359 0
-3801 -3813 4360 0
-3801 -3814 4361 0
-3801 -3815 4362 0
-3801 -3816 4363 0
-3801 -3817 4364 0
-3801 -3818 4365 0
-3801 -3819 4366 0
-3801 -3820 4367 0
-3802 -3807 4355 0
-3802 -3808 4356 0
-3802 -3809 4357 0
-3802 -3810 4358 0
-3802 -3811 4359 0
-3802 -3812 4360 0
-3802 -3813 4361 0
-3802 -3814 4362 0
-3802 -3815 4363 0
-3802 -3816 4364 0
-3802 -3817 4365 0
-3802 -3818 4366 0
-3802 -3819 4367 0
-3803 -3807 4356 0
-3803 -3808 4357 0
-3803 -3809 4358 0
-3803 -3810 4359 0
-3803 -3811 4360 0
-3803 -3812 4361 0
-3803 -3813 4362 0
-3803 -3814 4363 0
-3803 -3815 4364 0
-3803 -3816 4365 0
-3803 -3817 4366 0
-3803 -3818 4367 0
-3804 -3807 4357 0
-3804 -3808 4358 0
-3804 -3809 4359 0
-3804 -3810 4360 0
-3804 -3811 4361 0
-3804 -3812 4362 0
-3804 -3813 4363 0
-3804 -3814 4364 0
-3804 -3815 4365 0
-3804 -3816 4366 0
-3804 -3817 4367 0
-3805 -3807 4358 0
-3805 -3808 4359 0
-3805 -3809 4360 0
-3805 -3810 4361 0
-3805 -3811 4362 0
-3805 -3812 4363 0
-3805 -3813 4364 0
-3805 -3814 4365 0
-3805 -3815 4366 0
-3805 -3816 4367 0
-3806 -3807 4359 0
-3806 -3808 4360 0
-3806 -3809 4361 0
-3806 -3810 4362 0
-3806 -3811 4363 0
-3806 -3812 4364 0
-3806 -3813 4365 0
-3806 -3814 4366 0
-3806 -3815 4367 0
-3839 4368 0
-3840 4369 0
-3841 4370 0
-3842 4371 0
-3843 4372 0
-3844 4373 0
-3845 4374 0
-3846 4375 0
-3847 4376 0
-3848 4377 0
-3849 4378 0
-3850 4379 0
-3851 4380 0
-3852 4381 0
-3853 4382 0
-3854 4383 0
-3823 4368 0
-3824 4369 0
-3825 4370 0
-3826 4371 0
-3827 4372 0
-3828 4373 0
-3829 4374 0
-3830 4375 0
-3831 4376 0
-3832 4377 0
-3833 4378 0
-3834 4379 0
-3835 4380 0
-3836 4381 0
-3837 4382 0
-3838 4383 0
-3823 -3839 4369 0
-3823 -3840 4370 0
-3823 -3841 4371 0
-3823 -3842 4372 0
-3823 -3843 4373 0
-3823 -3844 4374 0
-3823 -3845 4375 0
-3823 -3846 4376 0
-3823 -3847 4377 0
-3823 -3848 4378 0
-3823 -3849 4379 0
-3823 -3850 4380 0
-3823 -3851 4381 0
-3823 -3852 4382 0
-3823 -3853 4383 0
-3823 -3854 4384 0
-3824 -3839 4370 0
-3824 -3840 4371 0
-3824 -3841 4372 0
-3824 -3842 4373 0
-3824 -3843 4374 0
-3824 -3844 4375 0
-3824 -3845 4376 0
-3824 -3846 4377 0
-3824 -3847 4378 0
-3824 -3848 4379 0
-3824 -3849 4380 0
-3824 -3850 4381 0
-3824 -3851 4382 0
-3824 -3852 4383 0
-3824 -3853 4384 0
-3824 -3854 4385 0
-3825 -3839 4371 0
-3825 -3840 4372 0
-3825 -3841 4373 0
-3825 -3842 4374 0
-3825 -3843 4375 0
-3825 -3844 4376 0
-3825 -3845 4377 0
-3825 -3846 4378 0
-3825 -3847 4379 0
-3825 -3848 4380 0
-3825 -3849 4381 0
-3825 -3850 4382 0
-3825 -3851 4383 0
-3825 -3852 4384 0
-3825 -3853 4385 0
-3825 -3854 4386 0
-3826 -3839 4372 0
-3826 -3840 4373 0
-3826 -3841 4374 0
-3826 -3842 4375 0
-3826 -3843 4376 0
-3826 -3844 4377 0
-3826 -3845 4378 0
-3826 -3846 4379 0
-3826 -3847 4380 0
-3826 -3848 4381 0
-3826 -3849 4382 0
-3826 -3850 4383 0
-3826 -3851 4384 0
-3826 -3852 4385 0
-3826 -3853 4386 0
-3826 -3854 4387 0
-3827 -3839 4373 0
-3827 -3840 4374 0
-3827 -3841 4375 0
-3827 -3842 4376 0
-3827 -3843 4377 0
-3827 -3844 4378 0
-3827 -3845 4379 0
-3827 -3846 4380 0
-3827 -3847 4381 0
-3827 -3848 4382 0
-3827 -3849 4383 0
-3827 -3850 4384 0
-3827 -3851 4385 0
-3827 -3852 4386 0
-3827 -3853 4387 0
-3827 -3854 4388 0
-3828 -3839 4374 0
-3828 -3840 4375 0
-3828 -3841 4376 0
-3828 -3842 4377 0
-3828 -3843 4378 0
-3828 -3844 4379 0
-3828 -3845 4380 0
-3828 -3846 4381 0
-3828 -3847 4382 0
-3828 -3848 4383 0
-3828 -3849 4384 0
-3828 -3850 4385 0
-3828 -3851 4386 0
-3828 -3852 4387 0
-3828 -3853 4388 0
-3828 -3854 4389 0
-3829 -3839 4375 0
-3829 -3840 4376 0
-3829 -3841 4377 0
-3829 -3842 4378 0
-3829 -3843 4379 0
-3829 -3844 4380 0
-3829 -3845 4381 0
-3829 -3846 4382 0
-3829 -3847 4383 0
-3829 -3848 4384 0
-3829 -3849 4385 0
-3829 -3850 4386 0
-3829 -3851 4387 0
-3829 -3852 4388 0
-3829 -3853 4389 0
-3829 -3854 4390 0
-3830 -3839 4376 0
-3830 -3840 4377 0
-3830 -3841 4378 0
-3830 -3842 4379 0
-3830 -3843 4380 0
-3830 -3844 4381 0
-3830 -3845 4382 0
-3830 -3846 4383 0
-3830 -3847 4384 0
-3830 -3848 4385 0
-3830 -3849 4386 0
-3830 -3850 4387 0
-3830 -3851 4388 0
-3830 -3852 4389 0
-3830 -3853 4390 0
-3830 -3854 4391 0
-3831 -3839 4377 0
-3831 -3840 4378 0
-3831 -3841 4379 0
-3831 -3842 4380 0
-3831 -3843 4381 0
-3831 -3844 4382 0
-3831 -3845 4383 0
-3831 -3846 4384 0
-3831 -3847 4385 0
-3831 -3848 4386 0
-3831 -3849 4387 0
-3831 -3850 4388 0
-3831 -3851 4389 0
-3831 -3852 4390 0
-3831 -3853 4391 0
-3831 -3854 4392 0
-3832 -3839 4378 0
-3832 -3840 4379 0
-3832 -3841 4380 0
-3832 -3842 4381 0
-3832 -3843 4382 0
-3832 -3844 4383 0
-3832 -3845 4384 0
-3832 -3846 4385 0
-3832 -3847 4386 0
-3832 -3848 4387 0
-3832 -3849 4388 0
-3832 -3850 4389 0
-3832 -3851 4390 0
-3832 -3852 4391 0
-3832 -3853 4392 0
-3833 -3839 4379 0
-3833 -3840 4380 0
-3833 -3841 4381 0
-3833 -3842 4382 0
-3833 -3843 4383 0
-3833 -3844 4384 0
-3833 -3845 4385 0
-3833 -3846 4386 0
-3833 -3847 4387 0
-3833 -3848 4388 0
-3833 -3849 4389 0
-3833 -3850 4390 0
-3833 -3851 4391 0
-3833 -3852 4392 0
-3834 -3839 4380 0
-3834 -3840 4381 0
-3834 -3841 4382 0
-3834 -3842 4383 0
-3834 -3843 4384 0
-3834 -3844 4385 0
-3834 -3845 4386 0
-3834 -3846 4387 0
-3834 -3847 4388 0
-3834 -3848 4389 0
-3834 -3849 4390 0
-3834 -3850 4391 0
-3834 -3851 4392 0
-3835 -3839 4381 0
-3835 -3840 4382 0
-3835 -3841 4383 0
-3835 -3842 4384 0
-3835 -3843 4385 0
-3835 -3844 4386 0
-3835 -3845 4387 0
-3835 -3846 4388 0
-3835 -3847 4389 0
-3835 -3848 4390 0
-3835 -3849 4391 0
-3835 -3850 4392 0
-3836 -3839 4382 0
-3836 -3840 4383 0
-3836 -3841 4384 0
-3836 -3842 4385 0
-3836 -3843 4386 0
-3836 -3844 4387 0
-3836 -3845 4388 0
-3836 -3846 4389 0
-3836 -3847 4390 0
-3836 -3848 4391 0
-3836 -3849 4392 0
-3837 -3839 4383 0
-3837 -3840 4384 0
-3837 -3841 4385 0
-3837 -3842 4386 0
-3837 -3843 4387 0
-3837 -3844 4388 0
-3837 -3845 4389 0
-3837 -3846 4390 0
-3837 -3847 4391 0
-3837 -3848 4392 0
-3838 -3839 4384 0
-3838 -3840 4385 0
-3838 -3841 4386 0
-3838 -3842 4387 0
-3838 -3843 4388 0
-3838 -3844 4389 0
-3838 -3845 4390 0
-3838 -3846 4391 0
-3838 -3847 4392 0
-3871 4393 0
-3872 4394 0
-3873 4395 0
-3874 4396 0
-3875 4397 0
-3876 4398 0
-3877 4399 0
-3878 4400 0
-3879 4401 0
-3880 4402 0
-3881 4403 0
-3882 4404 0
-3883 4405 0
-3884 4406 0
-3885 4407 0
-3886 4408 0
-3887 4409 0
-3888 4410 0
-3889 4411 0
-3890 4412 0
-3891 4413 0
-3892 4414 0
-3855 4393 0
-3856 4394 0
-3857 4395 0
-3858 4396 0
-3859 4397 0
-3860 4398 0
-3861 4399 0
-3862 4400 0
-3863 4401 0
-3864 4402 0
-3865 4403 0
-3866 4404 0
-3867 4405 0
-3868 4406 0
-3869 4407 0
-3870 4408 0
-3855 -3871 4394 0
-3855 -3872 4395 0
-3855 -3873 4396 0
-3855 -3874 4397 0
-3855 -3875 4398 0
-3855 -3876 4399 0
-3855 -3877 4400 0
-3855 -3878 4401 0
-3855 -3879 4402 0
-3855 -3880 4403 0
-3855 -3881 4404 0
-3855 -3882 4405 0
-3855 -3883 4406 0
-3855 -3884 4407 0
-3855 -3885 4408 0
-3855 -3886 4409 0
-3855 -3887 4410 0
-3855 -3888 4411 0
-3855 -3889 4412 0
-3855 -3890 4413 0
-3855 -3891 4414 0
-3855 -3892 4415 0
-3856 -3871 4395 0
-3856 -3872 4396 0
-3856 -3873 4397 0
-3856 -3874 4398 0
-3856 -3875 4399 0
-3856 -3876 4400 0
-3856 -3877 4401 0
-3856 -3878 4402 0
-3856 -3879 4403 0
-3856 -3880 4404 0
-3856 -3881 4405 0
-3856 -3882 4406 0
-3856 -3883 4407 0
-3856 -3884 4408 0
-3856 -3885 4409 0
-3856 -3886 4410 0
-3856 -3887 4411 0
-3856 -3888 4412 0
-3856 -3889 4413 0
-3856 -3890 4414 0
-3856 -3891 4415 0
-3856 -3892 4416 0
-3857 -3871 4396 0
-3857 -3872 4397 0
-3857 -3873 4398 0
-3857 -3874 4399 0
-3857 -3875 4400 0
-3857 -3876 4401 0
-3857 -3877 4402 0
-3857 -3878 4403 0
-3857 -3879 4404 0
-3857 -3880 4405 0
-3857 -3881 4406 0
-3857 -3882 4407 0
-3857 -3883 4408 0
-3857 -3884 4409 0
-3857 -3885 4410 0
-3857 -3886 4411 0
-3857 -3887 4412 0
-3857 -3888 4413 0
-3857 -3889 4414 0
-3857 -3890 4415 0
-3857 -3891 4416 0
-3857 -3892 4417 0
-3858 -3871 4397 0
-3858 -3872 4398 0
-3858 -3873 4399 0
-3858 -3874 4400 0
-3858 -3875 4401 0
-3858 -3876 4402 0
-3858 -3877 4403 0
-3858 -3878 4404 0
-3858 -3879 4405 0
-3858 -3880 4406 0
-3858 -3881 4407 0
-3858 -3882 4408 0
-3858 -3883 4409 0
-3858 -3884 4410 0
-3858 -3885 4411 0
-3858 -3886 4412 0
-3858 -3887 4413 0
-3858 -3888 4414 0
-3858 -3889 4415 0
-3858 -3890 4416 0
-3858 -3891 4417 0
-3859 -3871 4398 0
-3859 -3872 4399 0
-3859 -3873 4400 0
-3859 -3874 4401 0
-3859 -3875 4402 0
-3859 -3876 4403 0
-3859 -3877 4404 0
-3859 -3878 4405 0
-3859 -3879 4406 0
-3859 -3880 4407 0
-3859 -3881 4408 0
-3859 -3882 4409 0
-3859 -3883 4410 0
-3859 -3884 4411 0
-3859 -3885 4412 0
-3859 -3886 4413 0
-3859 -3887 4414 0
-3859 -3888 4415 0
-3859 -3889 4416 0
-3859 -3890 4417 0
-3860 -3871 4399 0
-3860 -3872 4400 0
-3860 -3873 4401 0
-3860 -3874 4402 0
-3860 -3875 4403 0
-3860 -3876 4404 0
-3860 -3877 4405 0
-3860 -3878 4406 0
-3860 -3879 4407 0
-3860 -3880 4408 0
-3860 -3881 4409 0
-3860 -3882 4410 0
-3860 -3883 4411 0
-3860 -3884 4412 0
-3860 -3885 4413 0
-3860 -3886 4414 0
-3860 -3887 4415 0
-3860 -3888 4416 0
-3860 -3889 4417 0
-3861 -3871 4400 0
-3861 -3872 4401 0
-3861 -3873 4402 0
-3861 -3874 4403 0
-3861 -3875 4404 0
-3861 -3876 4405 0
-3861 -3877 4406 0
-3861 -3878 4407 0
-3861 -3879 4408 0
-3861 -3880 4409 0
-3861 -3881 4410 0
-3861 -3882 4411 0
-3861 -3883 4412 0
-3861 -3884 4413 0
-3861 -3885 4414 0
-3861 -3886 4415 0
-3861 -3887 4416 0
-3861 -3888 4417 0
-3862 -3871 4401 0
-3862 -3872 4402 0
-3862 -3873 4403 0
-3862 -3874 4404 0
-3862 -3875 4405 0
-3862 -3876 4406 0
-3862 -3877 4407 0
-3862 -3878 4408 0
-3862 -3879 4409 0
-3862 -3880 4410 0
-3862 -3881 4411 0
-3862 -3882 4412 0
-3862 -3883 4413 0
-3862 -3884 4414 0
-3862 -3885 4415 0
-3862 -3886 4416 0
-3862 -3887 4417 0
-3863 -3871 4402 0
-3863 -3872 4403 0
-3863 -3873 4404 0
-3863 -3874 4405 0
-3863 -3875 4406 0
-3863 -3876 4407 0
-3863 -3877 4408 0
-3863 -3878 4409 0
-3863 -3879 4410 0
-3863 -3880 4411 0
-3863 -3881 4412 0
-3863 -3882 4413 0
-3863 -3883 4414 0
-3863 -3884 4415 0
-3863 -3885 4416 0
-3863 -3886 4417 0
-3864 -3871 4403 0
-3864 -3872 4404 0
-3864 -3873 4405 0
-3864 -3874 4406 0
-3864 -3875 4407 0
-3864 -3876 4408 0
-3864 -3877 4409 0
-3864 -3878 4410 0
-3864 -3879 4411 0
-3864 -3880 4412 0
-3864 -3881 4413 0
-3864 -3882 4414 0
-3864 -3883 4415 0
-3864 -3884 4416 0
-3864 -3885 4417 0
-3865 -3871 4404 0
-3865 -3872 4405 0
-3865 -3873 4406 0
-3865 -3874 4407 0
-3865 -3875 4408 0
-3865 -3876 4409 0
-3865 -3877 4410 0
-3865 -3878 4411 0
-3865 -3879 4412 0
-3865 -3880 4413 0
-3865 -3881 4414 0
-3865 -3882 4415 0
-3865 -3883 4416 0
-3865 -3884 4417 0
-3866 -3871 4405 0
-3866 -3872 4406 0
-3866 -3873 4407 0
-3866 -3874 4408 0
-3866 -3875 4409 0
-3866 -3876 4410 0
-3866 -3877 4411 0
-3866 -3878 4412 0
-3866 -3879 4413 0
-3866 -3880 4414 0
-3866 -3881 4415 0
-3866 -3882 4416 0
-3866 -3883 4417 0
-3867 -3871 4406 0
-3867 -3872 4407 0
-3867 -3873 4408 0
-3867 -3874 4409 0
-3867 -3875 4410 0
-3867 -3876 4411 0
-3867 -3877 4412 0
-3867 -3878 4413 0
-3867 -3879 4414 0
-3867 -3880 4415 0
-3867 -3881 4416 0
-3867 -3882 4417 0
-3868 -3871 4407 0
-3868 -3872 4408 0
-3868 -3873 4409 0
-3868 -3874 4410 0
-3868 -3875 4411 0
-3868 -3876 4412 0
-3868 -3877 4413 0
-3868 -3878 4414 0
-3868 -3879 4415 0
-3868 -3880 4416 0
-3868 -3881 4417 0
-3869 -3871 4408 0
-3869 -3872 4409 0
-3869 -3873 4410 0
-3869 -3874 4411 0
-3869 -3875 4412 0
-3869 -3876 4413 0
-3869 -3877 4414 0
-3869 -3878 4415 0
-3869 -3879 4416 0
-3869 -3880 4417 0
-3870 -3871 4409 0
-3870 -3872 4410 0
-3870 -3873 4411 0
-3870 -3874 4412 0
-3870 -3875 4413 0
-3870 -3876 4414 0
-3870 -3877 4415 0
-3870 -3878 4416 0
-3870 -3879 4417 0
-3918 4418 0
-3919 4419 0
-3920 4420 0
-3921 4421 0
-3922 4422 0
-3923 4423 0
-3924 4424 0
-3925 4425 0
-3926 4426 0
-3927 4427 0
-3928 4428 0
-3929 4429 0
-3930 4430 0
-3931 4431 0
-3932 4432 0
-3933 4433 0
-3934 4434 0
-3935 4435 0
-3936 4436 0
-3937 4437 0
-3938 4438 0
-3939 4439 0
-3940 4440 0
-3941 4441 0
-3942 4442 0
-3893 4418 0
-3894 4419 0
-3895 4420 0
-3896 4421 0
-3897 4422 0
-3898 4423 0
-3899 4424 0
-3900 4425 0
-3901 4426 0
-3902 4427 0
-3903 4428 0
-3904 4429 0
-3905 4430 0
-3906 4431 0
-3907 4432 0
-3908 4433 0
-3909 4434 0
-3910 4435 0
-3911 4436 0
-3912 4437 0
-3913 4438 0
-3914 4439 0
-3915 4440 0
-3916 4441 0
-3917 4442 0
-3893 -3918 4419 0
-3893 -3919 4420 0
-3893 -3920 4421 0
-3893 -3921 4422 0
-3893 -3922 4423 0
-3893 -3923 4424 0
-3893 -3924 4425 0
-3893 -3925 4426 0
-3893 -3926 4427 0
-3893 -3927 4428 0
-3893 -3928 4429 0
-3893 -3929 4430 0
-3893 -3930 4431 0
-3893 -3931 4432 0
-3893 -3932 4433 0
-3893 -3933 4434 0
-3893 -3934 4435 0
-3893 -3935 4436 0
-3893 -3936 4437 0
-3893 -3937 4438 0
-3893 -3938 4439 0
-3893 -3939 4440 0
-3893 -3940 4441 0
-3893 -3941 4442 0
-3894 -3918 4420 0
-3894 -3919 4421 0
-3894 -3920 4422 0
-3894 -3921 4423 0
-3894 -3922 4424 0
-3894 -3923 4425 0
-3894 -3924 4426 0
-3894 -3925 4427 0
-3894 -3926 4428 0
-3894 -3927 4429 0
-3894 -3928 4430 0
-3894 -3929 4431 0
-3894 -3930 4432 0
-3894 -3931 4433 0
-3894 -3932 4434 0
-3894 -3933 4435 0
-3894 -3934 4436 0
-3894 -3935 4437 0
-3894 -3936 4438 0
-3894 -3937 4439 0
-3894 -3938 4440 0
-3894 -3939 4441 0
-3894 -3940 4442 0
-3895 -3918 4421 0
-3895 -3919 4422 0
-3895 -3920 4423 0
-3895 -3921 4424 0
-3895 -3922 4425 0
-3895 -3923 4426 0
-3895 -3924 4427 0
-3895 -3925 4428 0
-3895 -3926 4429 0
-3895 -3927 4430 0
-3895 -3928 4431 0
-3895 -3929 4432 0
-3895 -3930 4433 0
-3895 -3931 4434 0
-3895 -3932 4435 0
-3895 -3933 4436 0
-3895 -3934 4437 0
-3895 -3935 4438 0
-3895 -3936 4439 0
-3895 -3937 4440 0
-3895 -3938 4441 0
-3895 -3939 4442 0
-3896 -3918 4422 0
-3896 -3919 4423 0
-3896 -3920 4424 0
-3896 -3921 4425 0
-3896 -3922 4426 0
-3896 -3923 4427 0
-3896 -3924 4428 0
-3896 -3925 4429 0
-3896 -3926 4430 0
-3896 -3927 4431 0
-3896 -3928 4432 0
-3896 -3929 4433 0
-3896 -3930 4434 0
-3896 -3931 4435 0
-3896 -3932 4436 0
-3896 -3933 4437 0
-3896 -3934 4438 0
-3896 -3935 4439 0
-3896 -3936 4440 0
-3896 -3937 4441 0
-3896 -3938 4442 0
-3897 -3918 4423 0
-3897 -3919 4424 0
-3897 -3920 4425 0
-3897 -3921 4426 0
-3897 -3922 4427 0
-3897 -3923 4428 0
-3897 -3924 4429 0
-3897 -3925 4430 0
-3897 -3926 4431 0
-3897 -3927 4432 0
-3897 -3928 4433 0
-3897 -3929 4434 0
-3897 -3930 4435 0
-3897 -3931 4436 0
-3897 -3932 4437 0
-3897 -3933 4438 0
-3897 -3934 4439 0
-3897 -3935 4440 0
-3897 -3936 4441 0
-3897 -3937 4442 0
-3898 -3918 4424 0
-3898 -3919 4425 0
-3898 -3920 4426 0
-3898 -3921 4427 0
-3898 -3922 4428 0
-3898 -3923 4429 0
-3898 -3924 4430 0
-3898 -3925 4431 0
-3898 -3926 4432 0
-3898 -3927 4433 0
-3898 -3928 4434 0
-3898 -3929 4435 0
-3898 -3930 4436 0
-3898 -3931 4437 0
-3898 -3932 4438 0
-3898 -3933 4439 0
-3898 -3934 4440 0
-3898 -3935 4441 0
-3898 -3936 4442 0
-3899 -3918 4425 0
-3899 -3919 4426 0
-3899 -3920 4427 0
-3899 -3921 4428 0
-3899 -3922 4429 0
-3899 -3923 4430 0
-3899 -3924 4431 0
-3899 -3925 4432 0
-3899 -3926 4433 0
-3899 -3927 4434 0
-3899 -3928 4435 0
-3899 -3929 4436 0
-3899 -3930 4437 0
-3899 -3931 4438 0
-3899 -3932 4439 0
-3899 -3933 4440 0
-3899 -3934 4441 0
-3899 -3935 4442 0
-3900 -3918 4426 0
-3900 -3919 4427 0
-3900 -3920 4428 0
-3900 -3921 4429 0
-3900 -3922 4430 0
-3900 -3923 4431 0
-3900 -3924 4432 0
-3900 -3925 4433 0
-3900 -3926 4434 0
-3900 -3927 4435 0
-3900 -3928 4436 0
-3900 -3929 4437 0
-3900 -3930 4438 0
-3900 -3931 4439 0
-3900 -3932 4440 0
-3900 -3933 4441 0
-3900 -3934 4442 0
-3901 -3918 4427 0
-3901 -3919 4428 0
-3901 -3920 4429 0
-3901 -3921 4430 0
-3901 -3922 4431 0
-3901 -3923 4432 0
-3901 -3924 4433 0
-3901 -3925 4434 0
-3901 -3926 4435 0
-3901 -3927 4436 0
-3901 -3928 4437 0
-3901 -3929 4438 0
-3901 -3930 4439 0
-3901 -3931 4440 0
-3901 -3932 4441 0
-3901 -3933 4442 0
-3902 -3918 4428 0
-3902 -3919 4429 0
-3902 -3920 4430 0
-3902 -3921 4431 0
-3902 -3922 4432 0
-3902 -3923 4433 0
-3902 -3924 4434 0
-3902 -3925 4435 0
-3902 -3926 4436 0
-3902 -3927 4437 0
-3902 -3928 4438 0
-3902 -3929 4439 0
-3902 -3930 4440 0
-3902 -3931 4441 0
-3902 -3932 4442 0
-3903 -3918 4429 0
-3903 -3919 4430 0
-3903 -3920 4431 0
-3903 -3921 4432 0
-3903 -3922 4433 0
-3903 -3923 4434 0
-3903 -3924 4435 0
-3903 -3925 4436 0
-3903 -3926 4437 0
-3903 -3927 4438 0
-3903 -3928 4439 0
-3903 -3929 4440 0
-3903 -3930 4441 0
-3903 -3931 4442 0
-3904 -3918 4430 0
-3904 -3919 4431 0
-3904 -3920 4432 0
-3904 -3921 4433 0
-3904 -3922 4434 0
-3904 -3923 4435 0
-3904 -3924 4436 0
-3904 -3925 4437 0
-3904 -3926 4438 0
-3904 -3927 4439 0
-3904 -3928 4440 0
-3904 -3929 4441 0
-3904 -3930 4442 0
-3905 -3918 4431 0
-3905 -3919 4432 0
-3905 -3920 4433 0
-3905 -3921 4434 0
-3905 -3922 4435 0
-3905 -3923 4436 0
-3905 -3924 4437 0
-3905 -3925 4438 0
-3905 -3926 4439 0
-3905 -3927 4440 0
-3905 -3928 4441 0
-3905 -3929 4442 0
-3906 -3918 4432 0
-3906 -3919 4433 0
-3906 -3920 4434 0
-3906 -3921 4435 0
-3906 -3922 4436 0
-3906 -3923 4437 0
-3906 -3924 4438 0
-3906 -3925 4439 0
-3906 -3926 4440 0
-3906 -3927 4441 0
-3906 -3928 4442 0
-3907 -3918 4433 0
-3907 -3919 4434 0
-3907 -3920 4435 0
-3907 -3921 4436 0
-3907 -3922 4437 0
-3907 -3923 4438 0
-3907 -3924 4439 0
-3907 -3925 4440 0
-3907 -3926 4441 0
-3907 -3927 4442 0
-3908 -3918 4434 0
-3908 -3919 4435 0
-3908 -3920 4436 0
-3908 -3921 4437 0
-3908 -3922 4438 0
-3908 -3923 4439 0
-3908 -3924 4440 0
-3908 -3925 4441 0
-3908 -3926 4442 0
-3909 -3918 4435 0
-3909 -3919 4436 0
-3909 -3920 4437 0
-3909 -3921 4438 0
-3909 -3922 4439 0
-3909 -3923 4440 0
-3909 -3924 4441 0
-3909 -3925 4442 0
-3910 -3918 4436 0
-3910 -3919 4437 0
-3910 -3920 4438 0
-3910 -3921 4439 0
-3910 -3922 4440 0
-3910 -3923 4441 0
-3910 -3924 4442 0
-3911 -3918 4437 0
-3911 -3919 4438 0
-3911 -3920 4439 0
-3911 -3921 4440 0
-3911 -3922 4441 0
-3911 -3923 4442 0
-3912 -3918 4438 0
-3912 -3919 4439 0
-3912 -3920 4440 0
-3912 -3921 4441 0
-3912 -3922 4442 0
-3913 -3918 4439 0
-3913 -3919 4440 0
-3913 -3920 4441 0
-3913 -3921 4442 0
-3914 -3918 4440 0
-3914 -3919 4441 0
-3914 -3920 4442 0
-3915 -3918 4441 0
-3915 -3919 4442 0
-3916 -3918 4442 0
-3968 4443 0
-3969 4444 0
-3970 4445 0
-3971 4446 0
-3972 4447 0
-3973 4448 0
-3974 4449 0
-3975 4450 0
-3976 4451 0
-3977 4452 0
-3978 4453 0
-3979 4454 0
-3980 4455 0
-3981 4456 0
-3982 4457 0
-3983 4458 0
-3984 4459 0
-3985 4460 0
-3986 4461 0
-3987 4462 0
-3988 4463 0
-3989 4464 0
-3990 4465 0
-3991 4466 0
-3992 4467 0
-3943 4443 0
-3944 4444 0
-3945 4445 0
-3946 4446 0
-3947 4447 0
-3948 4448 0
-3949 4449 0
-3950 4450 0
-3951 4451 0
-3952 4452 0
-3953 4453 0
-3954 4454 0
-3955 4455 0
-3956 4456 0
-3957 4457 0
-3958 4458 0
-3959 4459 0
-3960 4460 0
-3961 4461 0
-3962 4462 0
-3963 4463 0
-3964 4464 0
-3965 4465 0
-3966 4466 0
-3967 4467 0
-3943 -3968 4444 0
-3943 -3969 4445 0
-3943 -3970 4446 0
-3943 -3971 4447 0
-3943 -3972 4448 0
-3943 -3973 4449 0
-3943 -3974 4450 0
-3943 -3975 4451 0
-3943 -3976 4452 0
-3943 -3977 4453 0
-3943 -3978 4454 0
-3943 -3979 4455 0
-3943 -3980 4456 0
-3943 -3981 4457 0
-3943 -3982 4458 0
-3943 -3983 4459 0
-3943 -3984 4460 0
-3943 -3985 4461 0
-3943 -3986 4462 0
-3943 -3987 4463 0
-3943 -3988 4464 0
-3943 -3989 4465 0
-3943 -3990 4466 0
-3943 -3991 4467 0
-3944 -3968 4445 0
-3944 -3969 4446 0
-3944 -3970 4447 0
-3944 -3971 4448 0
-3944 -3972 4449 0
-3944 -3973 4450 0
-3944 -3974 4451 0
-3944 -3975 4452 0
-3944 -3976 4453 0
-3944 -3977 4454 0
-3944 -3978 4455 0
-3944 -3979 4456 0
-3944 -3980 4457 0
-3944 -3981 4458 0
-3944 -3982 4459 0
-3944 -3983 4460 0
-3944 -3984 4461 0
-3944 -3985 4462 0
-3944 -3986 4463 0
-3944 -3987 4464 0
-3944 -3988 4465 0
-3944 -3989 4466 0
-3944 -3990 4467 0
-3945 -3968 4446 0
-3945 -3969 4447 0
-3945 -3970 4448 0
-3945 -3971 4449 0
-3945 -3972 4450 0
-3945 -3973 4451 0
-3945 -3974 4452 0
-3945 -3975 4453 0
-3945 -3976 4454 0
-3945 -3977 4455 0
-3945 -3978 4456 0
-3945 -3979 4457 0
-3945 -3980 4458 0
-3945 -3981 4459 0
-3945 -3982 4460 0
-3945 -3983 4461 0
-3945 -3984 4462 0
-3945 -3985 4463 0
-3945 -3986 4464 0
-3945 -3987 4465 0
-3945 -3988 4466 0
-3945 -3989 4467 0
-3946 -3968 4447 0
-3946 -3969 4448 0
-3946 -3970 4449 0
-3946 -3971 4450 0
-3946 -3972 4451 0
-3946 -3973 4452 0
-3946 -3974 4453 0
-3946 -3975 4454 0
-3946 -3976 4455 0
-3946 -3977 4456 0
-3946 -3978 4457 0
-3946 -3979 4458 0
-3946 -3980 4459 0
-3946 -3981 4460 0
-3946 -3982 4461 0
-3946 -3983 4462 0
-3946 -3984 4463 0
-3946 -3985 4464 0
-3946 -3986 4465 0
-3946 -3987 4466 0
-3946 -3988 4467 0
-3947 -3968 4448 0
-3947 -3969 4449 0
-3947 -3970 4450 0
-3947 -3971 4451 0
-3947 -3972 4452 0
-3947 -3973 4453 0
-3947 -3974 4454 0
-3947 -3975 4455 0
-3947 -3976 4456 0
-3947 -3977 4457 0
-3947 -3978 4458 0
-3947 -3979 4459 0
-3947 -3980 4460 0
-3947 -3981 4461 0
-3947 -3982 4462 0
-3947 -3983 4463 0
-3947 -3984 4464 0
-3947 -3985 4465 0
-3947 -3986 4466 0
-3947 -3987 4467 0
-3948 -3968 4449 0
-3948 -3969 4450 0
-3948 -3970 4451 0
-3948 -3971 4452 0
-3948 -3972 4453 0
-3948 -3973 4454 0
-3948 -3974 4455 0
-3948 -3975 4456 0
-3948 -3976 4457 0
-3948 -3977 4458 0
-3948 -3978 4459 0
-3948 -3979 4460 0
-3948 -3980 4461 0
-3948 -3981 4462 0
-3948 -3982 4463 0
-3948 -3983 4464 0
-3948 -3984 4465 0
-3948 -3985 4466 0
-3948 -3986 4467 0
-3949 -3968 4450 0
-3949 -3969 4451 0
-3949 -3970 4452 0
-3949 -3971 4453 0
-3949 -3972 4454 0
-3949 -3973 4455 0
-3949 -3974 4456 0
-3949 -3975 4457 0
-3949 -3976 4458 0
-3949 -3977 4459 0
-3949 -3978 4460 0
-3949 -3979 4461 0
-3949 -3980 4462 0
-3949 -3981 4463 0
-3949 -3982 4464 0
-3949 -3983 4465 0
-3949 -3984 4466 0
-3949 -3985 4467 0
-3950 -3968 4451 0
-3950 -3969 4452 0
-3950 -3970 4453 0
-3950 -3971 4454 0
-3950 -3972 4455 0
-3950 -3973 4456 0
-3950 -3974 4457 0
-3950 -3975 4458 0
-3950 -3976 4459 0
-3950 -3977 4460 0
-3950 -3978 4461 0
-3950 -3979 4462 0
-3950 -3980 4463 0
-3950 -3981 4464 0
-3950 -3982 4465 0
-3950 -3983 4466 0
-3950 -3984 4467 0
-3951 -3968 4452 0
-3951 -3969 4453 0
-3951 -3970 4454 0
-3951 -3971 4455 0
-3951 -3972 4456 0
-3951 -3973 4457 0
-3951 -3974 4458 0
-3951 -3975 4459 0
-3951 -3976 4460 0
-3951 -3977 4461 0
-3951 -3978 4462 0
-3951 -3979 4463 0
-3951 -3980 4464 0
-3951 -3981 4465 0
-3951 -3982 4466 0
-3951 -3983 4467 0
-3952 -3968 4453 0
-3952 -3969 4454 0
-3952 -3970 4455 0
-3952 -3971 4456 0
-3952 -3972 4457 0
-3952 -3973 4458 0
-3952 -3974 4459 0
-3952 -3975 4460 0
-3952 -3976 4461 0
-3952 -3977 4462 0
-3952 -3978 4463 0
-3952 -3979 4464 0
-3952 -3980 4465 0
-3952 -3981 4466 0
-3952 -3982 4467 0
-3953 -3968 4454 0
-3953 -3969 4455 0
-3953 -3970 4456 0
-3953 -3971 4457 0
-3953 -3972 4458 0
-3953 -3973 4459 0
-3953 -3974 4460 0
-3953 -3975 4461 0
-3953 -3976 4462 0
-3953 -3977 4463 0
-3953 -3978 4464 0
-3953 -3979 4465 0
-3953 -3980 4466 0
-3953 -3981 4467 0
-3954 -3968 4455 0
-3954 -3969 4456 0
-3954 -3970 4457 0
-3954 -3971 4458 0
-3954 -3972 4459 0
-3954 -3973 4460 0
-3954 -3974 4461 0
-3954 -3975 4462 0
-3954 -3976 4463 0
-3954 -3977 4464 0
-3954 -3978 4465 0
-3954 -3979 4466 0
-3954 -3980 4467 0
-3955 -3968 4456 0
-3955 -3969 4457 0
-3955 -3970 4458 0
-3955 -3971 4459 0
-3955 -3972 4460 0
-3955 -3973 4461 0
-3955 -3974 4462 0
-3955 -3975 4463 0
-3955 -3976 4464 0
-3955 -3977 4465 0
-3955 -3978 4466 0
-3955 -3979 4467 0
-3956 -3968 4457 0
-3956 -3969 4458 0
-3956 -3970 4459 0
-3956 -3971 4460 0
-3956 -3972 4461 0
-3956 -3973 4462 0
-3956 -3974 4463 0
-3956 -3975 4464 0
-3956 -3976 4465 0
-3956 -3977 4466 0
-3956 -3978 4467 0
-3957 -3968 4458 0
-3957 -3969 4459 0
-3957 -3970 4460 0
-3957 -3971 4461 0
-3957 -3972 4462 0
-3957 -3973 4463 0
-3957 -3974 4464 0
-3957 -3975 4465 0
-3957 -3976 4466 0
-3957 -3977 4467 0
-3958 -3968 4459 0
-3958 -3969 4460 0
-3958 -3970 4461 0
-3958 -3971 4462 0
-3958 -3972 4463 0
-3958 -3973 4464 0
-3958 -3974 4465 0
-3958 -3975 4466 0
-3958 -3976 4467 0
-3959 -3968 4460 0
-3959 -3969 4461 0
-3959 -3970 4462 0
-3959 -3971 4463 0
-3959 -3972 4464 0
-3959 -3973 4465 0
-3959 -3974 4466 0
-3959 -3975 4467 0
-3960 -3968 4461 0
-3960 -3969 4462 0
-3960 -3970 4463 0
-3960 -3971 4464 0
-3960 -3972 4465 0
-3960 -3973 4466 0
-3960 -3974 4467 0
-3961 -3968 4462 0
-3961 -3969 4463 0
-3961 -3970 4464 0
-3961 -3971 4465 0
-3961 -3972 4466 0
-3961 -3973 4467 0
-3962 -3968 4463 0
-3962 -3969 4464 0
-3962 -3970 4465 0
-3962 -3971 4466 0
-3962 -3972 4467 0
-3963 -3968 4464 0
-3963 -3969 4465 0
-3963 -3970 4466 0
-3963 -3971 4467 0
-3964 -3968 4465 0
-3964 -3969 4466 0
-3964 -3970 4467 0
-3965 -3968 4466 0
-3965 -3969 4467 0
-3966 -3968 4467 0
-4018 4468 0
-4019 4469 0
-4020 4470 0
-4021 4471 0
-4022 4472 0
-4023 4473 0
-4024 4474 0
-4025 4475 0
-4026 4476 0
-4027 4477 0
-4028 4478 0
-4029 4479 0
-4030 4480 0
-4031 4481 0
-4032 4482 0
-4033 4483 0
-4034 4484 0
-4035 4485 0
-4036 4486 0
-4037 4487 0
-4038 4488 0
-4039 4489 0
-4040 4490 0
-4041 4491 0
-4042 4492 0
-3993 4468 0
-3994 4469 0
-3995 4470 0
-3996 4471 0
-3997 4472 0
-3998 4473 0
-3999 4474 0
-4000 4475 0
-4001 4476 0
-4002 4477 0
-4003 4478 0
-4004 4479 0
-4005 4480 0
-4006 4481 0
-4007 4482 0
-4008 4483 0
-4009 4484 0
-4010 4485 0
-4011 4486 0
-4012 4487 0
-4013 4488 0
-4014 4489 0
-4015 4490 0
-4016 4491 0
-4017 4492 0
-3993 -4018 4469 0
-3993 -4019 4470 0
-3993 -4020 4471 0
-3993 -4021 4472 0
-3993 -4022 4473 0
-3993 -4023 4474 0
-3993 -4024 4475 0
-3993 -4025 4476 0
-3993 -4026 4477 0
-3993 -4027 4478 0
-3993 -4028 4479 0
-3993 -4029 4480 0
-3993 -4030 4481 0
-3993 -4031 4482 0
-3993 -4032 4483 0
-3993 -4033 4484 0
-3993 -4034 4485 0
-3993 -4035 4486 0
-3993 -4036 4487 0
-3993 -4037 4488 0
-3993 -4038 4489 0
-3993 -4039 4490 0
-3993 -4040 4491 0
-3993 -4041 4492 0
-3994 -4018 4470 0
-3994 -4019 4471 0
-3994 -4020 4472 0
-3994 -4021 4473 0
-3994 -4022 4474 0
-3994 -4023 4475 0
-3994 -4024 4476 0
-3994 -4025 4477 0
-3994 -4026 4478 0
-3994 -4027 4479 0
-3994 -4028 4480 0
-3994 -4029 4481 0
-3994 -4030 4482 0
-3994 -4031 4483 0
-3994 -4032 4484 0
-3994 -4033 4485 0
-3994 -4034 4486 0
-3994 -4035 4487 0
-3994 -4036 4488 0
-3994 -4037 4489 0
-3994 -4038 4490 0
-3994 -4039 4491 0
-3994 -4040 4492 0
-3995 -4018 4471 0
-3995 -4019 4472 0
-3995 -4020 4473 0
-3995 -4021 4474 0
-3995 -4022 4475 0
-3995 -4023 4476 0
-3995 -4024 4477 0
-3995 -4025 4478 0
-3995 -4026 4479 0
-3995 -4027 4480 0
-3995 -4028 4481 0
-3995 -4029 4482 0
-3995 -4030 4483 0
-3995 -4031 4484 0
-3995 -4032 4485 0
-3995 -4033 4486 0
-3995 -4034 4487 0
-3995 -4035 4488 0
-3995 -4036 4489 0
-3995 -4037 4490 0
-3995 -4038 4491 0
-3995 -4039 4492 0
-3996 -4018 4472 0
-3996 -4019 4473 0
-3996 -4020 4474 0
-3996 -4021 4475 0
-3996 -4022 4476 0
-3996 -4023 4477 0
-3996 -4024 4478 0
-3996 -4025 4479 0
-3996 -4026 4480 0
-3996 -4027 4481 0
-3996 -4028 4482 0
-3996 -4029 4483 0
-3996 -4030 4484 0
-3996 -4031 4485 0
-3996 -4032 4486 0
-3996 -4033 4487 0
-3996 -4034 4488 0
-3996 -4035 4489 0
-3996 -4036 4490 0
-3996 -4037 4491 0
-3996 -4038 4492 0
-3997 -4018 4473 0
-3997 -4019 4474 0
-3997 -4020 4475 0
-3997 -4021 4476 0
-3997 -4022 4477 0
-3997 -4023 4478 0
-3997 -4024 4479 0
-3997 -4025 4480 0
-3997 -4026 4481 0
-3997 -4027 4482 0
-3997 -4028 4483 0
-3997 -4029 4484 0
-3997 -4030 4485 0
-3997 -4031 4486 0
-3997 -4032 4487 0
-3997 -4033 4488 0
-3997 -4034 4489 0
-3997 -4035 4490 0
-3997 -4036 4491 0
-3997 -4037 4492 0
-3998 -4018 4474 0
-3998 -4019 4475 0
-3998 -4020 4476 0
-3998 -4021 4477 0
-3998 -4022 4478 0
-3998 -4023 4479 0
-3998 -4024 4480 0
-3998 -4025 4481 0
-3998 -4026 4482 0
-3998 -4027 4483 0
-3998 -4028 4484 0
-3998 -4029 4485 0
-3998 -4030 4486 0
-3998 -4031 4487 0
-3998 -4032 4488 0
-3998 -4033 4489 0
-3998 -4034 4490 0
-3998 -4035 4491 0
-3998 -4036 4492 0
-3999 -4018 4475 0
-3999 -4019 4476 0
-3999 -4020 4477 0
-3999 -4021 4478 0
-3999 -4022 4479 0
-3999 -4023 4480 0
-3999 -4024 4481 0
-3999 -4025 4482 0
-3999 -4026 4483 0
-3999 -4027 4484 0
-3999 -4028 4485 0
-3999 -4029 4486 0
-3999 -4030 4487 0
-3999 -4031 4488 0
-3999 -4032 4489 0
-3999 -4033 4490 0
-3999 -4034 4491 0
-3999 -4035 4492 0
-4000 -4018 4476 0
-4000 -4019 4477 0
-4000 -4020 4478 0
-4000 -4021 4479 0
-4000 -4022 4480 0
-4000 -4023 4481 0
-4000 -4024 4482 0
-4000 -4025 4483 0
-4000 -4026 4484 0
-4000 -4027 4485 0
-4000 -4028 4486 0
-4000 -4029 4487 0
-4000 -4030 4488 0
-4000 -4031 4489 0
-4000 -4032 4490 0
-4000 -4033 4491 0
-4000 -4034 4492 0
-4001 -4018 4477 0
-4001 -4019 4478 0
-4001 -4020 4479 0
-4001 -4021 4480 0
-4001 -4022 4481 0
-4001 -4023 4482 0
-4001 -4024 4483 0
-4001 -4025 4484 0
-4001 -4026 4485 0
-4001 -4027 4486 0
-4001 -4028 4487 0
-4001 -4029 4488 0
-4001 -4030 4489 0
-4001 -4031 4490 0
-4001 -4032 4491 0
-4001 -4033 4492 0
-4002 -4018 4478 0
-4002 -4019 4479 0
-4002 -4020 4480 0
-4002 -4021 4481 0
-4002 -4022 4482 0
-4002 -4023 4483 0
-4002 -4024 4484 0
-4002 -4025 4485 0
-4002 -4026 4486 0
-4002 -4027 4487 0
-4002 -4028 4488 0
-4002 -4029 4489 0
-4002 -4030 4490 0
-4002 -4031 4491 0
-4002 -4032 4492 0
-4003 -4018 4479 0
-4003 -4019 4480 0
-4003 -4020 4481 0
-4003 -4021 4482 0
-4003 -4022 4483 0
-4003 -4023 4484 0
-4003 -4024 4485 0
-4003 -4025 4486 0
-4003 -4026 4487 0
-4003 -4027 4488 0
-4003 -4028 4489 0
-4003 -4029 4490 0
-4003 -4030 4491 0
-4003 -4031 4492 0
-4004 -4018 4480 0
-4004 -4019 4481 0
-4004 -4020 4482 0
-4004 -4021 4483 0
-4004 -4022 4484 0
-4004 -4023 4485 0
-4004 -4024 4486 0
-4004 -4025 4487 0
-4004 -4026 4488 0
-4004 -4027 4489 0
-4004 -4028 4490 0
-4004 -4029 4491 0
-4004 -4030 4492 0
-4005 -4018 4481 0
-4005 -4019 4482 0
-4005 -4020 4483 0
-4005 -4021 4484 0
-4005 -4022 4485 0
-4005 -4023 4486 0
-4005 -4024 4487 0
-4005 -4025 4488 0
-4005 -4026 4489 0
-4005 -4027 4490 0
-4005 -4028 4491 0
-4005 -4029 4492 0
-4006 -4018 4482 0
-4006 -4019 4483 0
-4006 -4020 4484 0
-4006 -4021 4485 0
-4006 -4022 4486 0
-4006 -4023 4487 0
-4006 -4024 4488 0
-4006 -4025 4489 0
-4006 -4026 4490 0
-4006 -4027 4491 0
-4006 -4028 4492 0
-4007 -4018 4483 0
-4007 -4019 4484 0
-4007 -4020 4485 0
-4007 -4021 4486 0
-4007 -4022 4487 0
-4007 -4023 4488 0
-4007 -4024 4489 0
-4007 -4025 4490 0
-4007 -4026 4491 0
-4007 -4027 4492 0
-4008 -4018 4484 0
-4008 -4019 4485 0
-4008 -4020 4486 0
-4008 -4021 4487 0
-4008 -4022 4488 0
-4008 -4023 4489 0
-4008 -4024 4490 0
-4008 -4025 4491 0
-4008 -4026 4492 0
-4009 -4018 4485 0
-4009 -4019 4486 0
-4009 -4020 4487 0
-4009 -4021 4488 0
-4009 -4022 4489 0
-4009 -4023 4490 0
-4009 -4024 4491 0
-4009 -4025 4492 0
-4010 -4018 4486 0
-4010 -4019 4487 0
-4010 -4020 4488 0
-4010 -4021 4489 0
-4010 -4022 4490 0
-4010 -4023 4491 0
-4010 -4024 4492 0
-4011 -4018 4487 0
-4011 -4019 4488 0
-4011 -4020 4489 0
-4011 -4021 4490 0
-4011 -4022 4491 0
-4011 -4023 4492 0
-4012 -4018 4488 0
-4012 -4019 4489 0
-4012 -4020 4490 0
-4012 -4021 4491 0
-4012 -4022 4492 0
-4013 -4018 4489 0
-4013 -4019 4490 0
-4013 -4020 4491 0
-4013 -4021 4492 0
-4014 -4018 4490 0
-4014 -4019 4491 0
-4014 -4020 4492 0
-4015 -4018 4491 0
-4015 -4019 4492 0
-4016 -4018 4492 0
-4068 4493 0
-4069 4494 0
-4070 4495 0
-4071 4496 0
-4072 4497 0
-4073 4498 0
-4074 4499 0
-4075 4500 0
-4076 4501 0
-4077 4502 0
-4078 4503 0
-4079 4504 0
-4080 4505 0
-4081 4506 0
-4082 4507 0
-4083 4508 0
-4084 4509 0
-4085 4510 0
-4086 4511 0
-4087 4512 0
-4088 4513 0
-4089 4514 0
-4090 4515 0
-4091 4516 0
-4092 4517 0
-4043 4493 0
-4044 4494 0
-4045 4495 0
-4046 4496 0
-4047 4497 0
-4048 4498 0
-4049 4499 0
-4050 4500 0
-4051 4501 0
-4052 4502 0
-4053 4503 0
-4054 4504 0
-4055 4505 0
-4056 4506 0
-4057 4507 0
-4058 4508 0
-4059 4509 0
-4060 4510 0
-4061 4511 0
-4062 4512 0
-4063 4513 0
-4064 4514 0
-4065 4515 0
-4066 4516 0
-4067 4517 0
-4043 -4068 4494 0
-4043 -4069 4495 0
-4043 -4070 4496 0
-4043 -4071 4497 0
-4043 -4072 4498 0
-4043 -4073 4499 0
-4043 -4074 4500 0
-4043 -4075 4501 0
-4043 -4076 4502 0
-4043 -4077 4503 0
-4043 -4078 4504 0
-4043 -4079 4505 0
-4043 -4080 4506 0
-4043 -4081 4507 0
-4043 -4082 4508 0
-4043 -4083 4509 0
-4043 -4084 4510 0
-4043 -4085 4511 0
-4043 -4086 4512 0
-4043 -4087 4513 0
-4043 -4088 4514 0
-4043 -4089 4515 0
-4043 -4090 4516 0
-4043 -4091 4517 0
-4044 -4068 4495 0
-4044 -4069 4496 0
-4044 -4070 4497 0
-4044 -4071 4498 0
-4044 -4072 4499 0
-4044 -4073 4500 0
-4044 -4074 4501 0
-4044 -4075 4502 0
-4044 -4076 4503 0
-4044 -4077 4504 0
-4044 -4078 4505 0
-4044 -4079 4506 0
-4044 -4080 4507 0
-4044 -4081 4508 0
-4044 -4082 4509 0
-4044 -4083 4510 0
-4044 -4084 4511 0
-4044 -4085 4512 0
-4044 -4086 4513 0
-4044 -4087 4514 0
-4044 -4088 4515 0
-4044 -4089 4516 0
-4044 -4090 4517 0
-4045 -4068 4496 0
-4045 -4069 4497 0
-4045 -4070 4498 0
-4045 -4071 4499 0
-4045 -4072 4500 0
-4045 -4073 4501 0
-4045 -4074 4502 0
-4045 -4075 4503 0
-4045 -4076 4504 0
-4045 -4077 4505 0
-4045 -4078 4506 0
-4045 -4079 4507 0
-4045 -4080 4508 0
-4045 -4081 4509 0
-4045 -4082 4510 0
-4045 -4083 4511 0
-4045 -4084 4512 0
-4045 -4085 4513 0
-4045 -4086 4514 0
-4045 -4087 4515 0
-4045 -4088 4516 0
-4045 -4089 4517 0
-4046 -4068 4497 0
-4046 -4069 4498 0
-4046 -4070 4499 0
-4046 -4071 4500 0
-4046 -4072 4501 0
-4046 -4073 4502 0
-4046 -4074 4503 0
-4046 -4075 4504 0
-4046 -4076 4505 0
-4046 -4077 4506 0
-4046 -4078 4507 0
-4046 -4079 4508 0
-4046 -4080 4509 0
-4046 -4081 4510 0
-4046 -4082 4511 0
-4046 -4083 4512 0
-4046 -4084 4513 0
-4046 -4085 4514 0
-4046 -4086 4515 0
-4046 -4087 4516 0
-4046 -4088 4517 0
-4047 -4068 4498 0
-4047 -4069 4499 0
-4047 -4070 4500 0
-4047 -4071 4501 0
-4047 -4072 4502 0
-4047 -4073 4503 0
-4047 -4074 4504 0
-4047 -4075 4505 0
-4047 -4076 4506 0
-4047 -4077 4507 0
-4047 -4078 4508 0
-4047 -4079 4509 0
-4047 -4080 4510 0
-4047 -4081 4511 0
-4047 -4082 4512 0
-4047 -4083 4513 0
-4047 -4084 4514 0
-4047 -4085 4515 0
-4047 -4086 4516 0
-4047 -4087 4517 0
-4048 -4068 4499 0
-4048 -4069 4500 0
-4048 -4070 4501 0
-4048 -4071 4502 0
-4048 -4072 4503 0
-4048 -4073 4504 0
-4048 -4074 4505 0
-4048 -4075 4506 0
-4048 -4076 4507 0
-4048 -4077 4508 0
-4048 -4078 4509 0
-4048 -4079 4510 0
-4048 -4080 4511 0
-4048 -4081 4512 0
-4048 -4082 4513 0
-4048 -4083 4514 0
-4048 -4084 4515 0
-4048 -4085 4516 0
-4048 -4086 4517 0
-4049 -4068 4500 0
-4049 -4069 4501 0
-4049 -4070 4502 0
-4049 -4071 4503 0
-4049 -4072 4504 0
-4049 -4073 4505 0
-4049 -4074 4506 0
-4049 -4075 4507 0
-4049 -4076 4508 0
-4049 -4077 4509 0
-4049 -4078 4510 0
-4049 -4079 4511 0
-4049 -4080 4512 0
-4049 -4081 4513 0
-4049 -4082 4514 0
-4049 -4083 4515 0
-4049 -4084 4516 0
-4049 -4085 4517 0
-4050 -4068 4501 0
-4050 -4069 4502 0
-4050 -4070 4503 0
-4050 -4071 4504 0
-4050 -4072 4505 0
-4050 -4073 4506 0
-4050 -4074 4507 0
-4050 -4075 4508 0
-4050 -4076 4509 0
-4050 -4077 4510 0
-4050 -4078 4511 0
-4050 -4079 4512 0
-4050 -4080 4513 0
-4050 -4081 4514 0
-4050 -4082 4515 0
-4050 -4083 4516 0
-4050 -4084 4517 0
-4051 -4068 4502 0
-4051 -4069 4503 0
-4051 -4070 4504 0
-4051 -4071 4505 0
-4051 -4072 4506 0
-4051 -4073 4507 0
-4051 -4074 4508 0
-4051 -4075 4509 0
-4051 -4076 4510 0
-4051 -4077 4511 0
-4051 -4078 4512 0
-4051 -4079 4513 0
-4051 -4080 4514 0
-4051 -4081 4515 0
-4051 -4082 4516 0
-4051 -4083 4517 0
-4052 -4068 4503 0
-4052 -4069 4504 0
-4052 -4070 4505 0
-4052 -4071 4506 0
-4052 -4072 4507 0
-4052 -4073 4508 0
-4052 -4074 4509 0
-4052 -4075 4510 0
-4052 -4076 4511 0
-4052 -4077 4512 0
-4052 -4078 4513 0
-4052 -4079 4514 0
-4052 -4080 4515 0
-4052 -4081 4516 0
-4052 -4082 4517 0
-4053 -4068 4504 0
-4053 -4069 4505 0
-4053 -4070 4506 0
-4053 -4071 4507 0
-4053 -4072 4508 0
-4053 -4073 4509 0
-4053 -4074 4510 0
-4053 -4075 4511 0
-4053 -4076 4512 0
-4053 -4077 4513 0
-4053 -4078 4514 0
-4053 -4079 4515 0
-4053 -4080 4516 0
-4053 -4081 4517 0
-4054 -4068 4505 0
-4054 -4069 4506 0
-4054 -4070 4507 0
-4054 -4071 4508 0
-4054 -4072 4509 0
-4054 -4073 4510 0
-4054 -4074 4511 0
-4054 -4075 4512 0
-4054 -4076 4513 0
-4054 -4077 4514 0
-4054 -4078 4515 0
-4054 -4079 4516 0
-4054 -4080 4517 0
-4055 -4068 4506 0
-4055 -4069 4507 0
-4055 -4070 4508 0
-4055 -4071 4509 0
-4055 -4072 4510 0
-4055 -4073 4511 0
-4055 -4074 4512 0
-4055 -4075 4513 0
-4055 -4076 4514 0
-4055 -4077 4515 0
-4055 -4078 4516 0
-4055 -4079 4517 0
-4056 -4068 4507 0
-4056 -4069 4508 0
-4056 -4070 4509 0
-4056 -4071 4510 0
-4056 -4072 4511 0
-4056 -4073 4512 0
-4056 -4074 4513 0
-4056 -4075 4514 0
-4056 -4076 4515 0
-4056 -4077 4516 0
-4056 -4078 4517 0
-4057 -4068 4508 0
-4057 -4069 4509 0
-4057 -4070 4510 0
-4057 -4071 4511 0
-4057 -4072 4512 0
-4057 -4073 4513 0
-4057 -4074 4514 0
-4057 -4075 4515 0
-4057 -4076 4516 0
-4057 -4077 4517 0
-4058 -4068 4509 0
-4058 -4069 4510 0
-4058 -4070 4511 0
-4058 -4071 4512 0
-4058 -4072 4513 0
-4058 -4073 4514 0
-4058 -4074 4515 0
-4058 -4075 4516 0
-4058 -4076 4517 0
-4059 -4068 4510 0
-4059 -4069 4511 0
-4059 -4070 4512 0
-4059 -4071 4513 0
-4059 -4072 4514 0
-4059 -4073 4515 0
-4059 -4074 4516 0
-4059 -4075 4517 0
-4060 -4068 4511 0
-4060 -4069 4512 0
-4060 -4070 4513 0
-4060 -4071 4514 0
-4060 -4072 4515 0
-4060 -4073 4516 0
-4060 -4074 4517 0
-4061 -4068 4512 0
-4061 -4069 4513 0
-4061 -4070 4514 0
-4061 -4071 4515 0
-4061 -4072 4516 0
-4061 -4073 4517 0
-4062 -4068 4513 0
-4062 -4069 4514 0
-4062 -4070 4515 0
-4062 -4071 4516 0
-4062 -4072 4517 0
-4063 -4068 4514 0
-4063 -4069 4515 0
-4063 -4070 4516 0
-4063 -4071 4517 0
-4064 -4068 4515 0
-4064 -4069 4516 0
-4064 -4070 4517 0
-4065 -4068 4516 0
-4065 -4069 4517 0
-4066 -4068 4517 0
-4118 4518 0
-4119 4519 0
-4120 4520 0
-4121 4521 0
-4122 4522 0
-4123 4523 0
-4124 4524 0
-4125 4525 0
-4126 4526 0
-4127 4527 0
-4128 4528 0
-4129 4529 0
-4130 4530 0
-4131 4531 0
-4132 4532 0
-4133 4533 0
-4134 4534 0
-4135 4535 0
-4136 4536 0
-4137 4537 0
-4138 4538 0
-4139 4539 0
-4140 4540 0
-4141 4541 0
-4142 4542 0
-4093 4518 0
-4094 4519 0
-4095 4520 0
-4096 4521 0
-4097 4522 0
-4098 4523 0
-4099 4524 0
-4100 4525 0
-4101 4526 0
-4102 4527 0
-4103 4528 0
-4104 4529 0
-4105 4530 0
-4106 4531 0
-4107 4532 0
-4108 4533 0
-4109 4534 0
-4110 4535 0
-4111 4536 0
-4112 4537 0
-4113 4538 0
-4114 4539 0
-4115 4540 0
-4116 4541 0
-4117 4542 0
-4093 -4118 4519 0
-4093 -4119 4520 0
-4093 -4120 4521 0
-4093 -4121 4522 0
-4093 -4122 4523 0
-4093 -4123 4524 0
-4093 -4124 4525 0
-4093 -4125 4526 0
-4093 -4126 4527 0
-4093 -4127 4528 0
-4093 -4128 4529 0
-4093 -4129 4530 0
-4093 -4130 4531 0
-4093 -4131 4532 0
-4093 -4132 4533 0
-4093 -4133 4534 0
-4093 -4134 4535 0
-4093 -4135 4536 0
-4093 -4136 4537 0
-4093 -4137 4538 0
-4093 -4138 4539 0
-4093 -4139 4540 0
-4093 -4140 4541 0
-4093 -4141 4542 0
-4094 -4118 4520 0
-4094 -4119 4521 0
-4094 -4120 4522 0
-4094 -4121 4523 0
-4094 -4122 4524 0
-4094 -4123 4525 0
-4094 -4124 4526 0
-4094 -4125 4527 0
-4094 -4126 4528 0
-4094 -4127 4529 0
-4094 -4128 4530 0
-4094 -4129 4531 0
-4094 -4130 4532 0
-4094 -4131 4533 0
-4094 -4132 4534 0
-4094 -4133 4535 0
-4094 -4134 4536 0
-4094 -4135 4537 0
-4094 -4136 4538 0
-4094 -4137 4539 0
-4094 -4138 4540 0
-4094 -4139 4541 0
-4094 -4140 4542 0
-4095 -4118 4521 0
-4095 -4119 4522 0
-4095 -4120 4523 0
-4095 -4121 4524 0
-4095 -4122 4525 0
-4095 -4123 4526 0
-4095 -4124 4527 0
-4095 -4125 4528 0
-4095 -4126 4529 0
-4095 -4127 4530 0
-4095 -4128 4531 0
-4095 -4129 4532 0
-4095 -4130 4533 0
-4095 -4131 4534 0
-4095 -4132 4535 0
-4095 -4133 4536 0
-4095 -4134 4537 0
-4095 -4135 4538 0
-4095 -4136 4539 0
-4095 -4137 4540 0
-4095 -4138 4541 0
-4095 -4139 4542 0
-4096 -4118 4522 0
-4096 -4119 4523 0
-4096 -4120 4524 0
-4096 -4121 4525 0
-4096 -4122 4526 0
-4096 -4123 4527 0
-4096 -4124 4528 0
-4096 -4125 4529 0
-4096 -4126 4530 0
-4096 -4127 4531 0
-4096 -4128 4532 0
-4096 -4129 4533 0
-4096 -4130 4534 0
-4096 -4131 4535 0
-4096 -4132 4536 0
-4096 -4133 4537 0
-4096 -4134 4538 0
-4096 -4135 4539 0
-4096 -4136 4540 0
-4096 -4137 4541 0
-4096 -4138 4542 0
-4097 -4118 4523 0
-4097 -4119 4524 0
-4097 -4120 4525 0
-4097 -4121 4526 0
-4097 -4122 4527 0
-4097 -4123 4528 0
-4097 -4124 4529 0
-4097 -4125 4530 0
-4097 -4126 4531 0
-4097 -4127 4532 0
-4097 -4128 4533 0
-4097 -4129 4534 0
-4097 -4130 4535 0
-4097 -4131 4536 0
-4097 -4132 4537 0
-4097 -4133 4538 0
-4097 -4134 4539 0
-4097 -4135 4540 0
-4097 -4136 4541 0
-4097 -4137 4542 0
-4098 -4118 4524 0
-4098 -4119 4525 0
-4098 -4120 4526 0
-4098 -4121 4527 0
-4098 -4122 4528 0
-4098 -4123 4529 0
-4098 -4124 4530 0
-4098 -4125 4531 0
-4098 -4126 4532 0
-4098 -4127 4533 0
-4098 -4128 4534 0
-4098 -4129 4535 0
-4098 -4130 4536 0
-4098 -4131 4537 0
-4098 -4132 4538 0
-4098 -4133 4539 0
-4098 -4134 4540 0
-4098 -4135 4541 0
-4098 -4136 4542 0
-4099 -4118 4525 0
-4099 -4119 4526 0
-4099 -4120 4527 0
-4099 -4121 4528 0
-4099 -4122 4529 0
-4099 -4123 4530 0
-4099 -4124 4531 0
-4099 -4125 4532 0
-4099 -4126 4533 0
-4099 -4127 4534 0
-4099 -4128 4535 0
-4099 -4129 4536 0
-4099 -4130 4537 0
-4099 -4131 4538 0
-4099 -4132 4539 0
-4099 -4133 4540 0
-4099 -4134 4541 0
-4099 -4135 4542 0
-4100 -4118 4526 0
-4100 -4119 4527 0
-4100 -4120 4528 0
-4100 -4121 4529 0
-4100 -4122 4530 0
-4100 -4123 4531 0
-4100 -4124 4532 0
-4100 -4125 4533 0
-4100 -4126 4534 0
-4100 -4127 4535 0
-4100 -4128 4536 0
-4100 -4129 4537 0
-4100 -4130 4538 0
-4100 -4131 4539 0
-4100 -4132 4540 0
-4100 -4133 4541 0
-4100 -4134 4542 0
-4101 -4118 4527 0
-4101 -4119 4528 0
-4101 -4120 4529 0
-4101 -4121 4530 0
-4101 -4122 4531 0
-4101 -4123 4532 0
-4101 -4124 4533 0
-4101 -4125 4534 0
-4101 -4126 4535 0
-4101 -4127 4536 0
-4101 -4128 4537 0
-4101 -4129 4538 0
-4101 -4130 4539 0
-4101 -4131 4540 0
-4101 -4132 4541 0
-4101 -4133 4542 0
-4102 -4118 4528 0
-4102 -4119 4529 0
-4102 -4120 4530 0
-4102 -4121 4531 0
-4102 -4122 4532 0
-4102 -4123 4533 0
-4102 -4124 4534 0
-4102 -4125 4535 0
-4102 -4126 4536 0
-4102 -4127 4537 0
-4102 -4128 4538 0
-4102 -4129 4539 0
-4102 -4130 4540 0
-4102 -4131 4541 0
-4102 -4132 4542 0
-4103 -4118 4529 0
-4103 -4119 4530 0
-4103 -4120 4531 0
-4103 -4121 4532 0
-4103 -4122 4533 0
-4103 -4123 4534 0
-4103 -4124 4535 0
-4103 -4125 4536 0
-4103 -4126 4537 0
-4103 -4127 4538 0
-4103 -4128 4539 0
-4103 -4129 4540 0
-4103 -4130 4541 0
-4103 -4131 4542 0
-4104 -4118 4530 0
-4104 -4119 4531 0
-4104 -4120 4532 0
-4104 -4121 4533 0
-4104 -4122 4534 0
-4104 -4123 4535 0
-4104 -4124 4536 0
-4104 -4125 4537 0
-4104 -4126 4538 0
-4104 -4127 4539 0
-4104 -4128 4540 0
-4104 -4129 4541 0
-4104 -4130 4542 0
-4105 -4118 4531 0
-4105 -4119 4532 0
-4105 -4120 4533 0
-4105 -4121 4534 0
-4105 -4122 4535 0
-4105 -4123 4536 0
-4105 -4124 4537 0
-4105 -4125 4538 0
-4105 -4126 4539 0
-4105 -4127 4540 0
-4105 -4128 4541 0
-4105 -4129 4542 0
-4106 -4118 4532 0
-4106 -4119 4533 0
-4106 -4120 4534 0
-4106 -4121 4535 0
-4106 -4122 4536 0
-4106 -4123 4537 0
-4106 -4124 4538 0
-4106 -4125 4539 0
-4106 -4126 4540 0
-4106 -4127 4541 0
-4106 -4128 4542 0
-4107 -4118 4533 0
-4107 -4119 4534 0
-4107 -4120 4535 0
-4107 -4121 4536 0
-4107 -4122 4537 0
-4107 -4123 4538 0
-4107 -4124 4539 0
-4107 -4125 4540 0
-4107 -4126 4541 0
-4107 -4127 4542 0
-4108 -4118 4534 0
-4108 -4119 4535 0
-4108 -4120 4536 0
-4108 -4121 4537 0
-4108 -4122 4538 0
-4108 -4123 4539 0
-4108 -4124 4540 0
-4108 -4125 4541 0
-4108 -4126 4542 0
-4109 -4118 4535 0
-4109 -4119 4536 0
-4109 -4120 4537 0
-4109 -4121 4538 0
-4109 -4122 4539 0
-4109 -4123 4540 0
-4109 -4124 4541 0
-4109 -4125 4542 0
-4110 -4118 4536 0
-4110 -4119 4537 0
-4110 -4120 4538 0
-4110 -4121 4539 0
-4110 -4122 4540 0
-4110 -4123 4541 0
-4110 -4124 4542 0
-4111 -4118 4537 0
-4111 -4119 4538 0
-4111 -4120 4539 0
-4111 -4121 4540 0
-4111 -4122 4541 0
-4111 -4123 4542 0
-4112 -4118 4538 0
-4112 -4119 4539 0
-4112 -4120 4540 0
-4112 -4121 4541 0
-4112 -4122 4542 0
-4113 -4118 4539 0
-4113 -4119 4540 0
-4113 -4120 4541 0
-4113 -4121 4542 0
-4114 -4118 4540 0
-4114 -4119 4541 0
-4114 -4120 4542 0
-4115 -4118 4541 0
-4115 -4119 4542 0
-4116 -4118 4542 0
-4168 4543 0
-4169 4544 0
-4170 4545 0
-4171 4546 0
-4172 4547 0
-4173 4548 0
-4174 4549 0
-4175 4550 0
-4176 4551 0
-4177 4552 0
-4178 4553 0
-4179 4554 0
-4180 4555 0
-4181 4556 0
-4182 4557 0
-4183 4558 0
-4184 4559 0
-4185 4560 0
-4186 4561 0
-4187 4562 0
-4188 4563 0
-4189 4564 0
-4190 4565 0
-4191 4566 0
-4192 4567 0
-4143 4543 0
-4144 4544 0
-4145 4545 0
-4146 4546 0
-4147 4547 0
-4148 4548 0
-4149 4549 0
-4150 4550 0
-4151 4551 0
-4152 4552 0
-4153 4553 0
-4154 4554 0
-4155 4555 0
-4156 4556 0
-4157 4557 0
-4158 4558 0
-4159 4559 0
-4160 4560 0
-4161 4561 0
-4162 4562 0
-4163 4563 0
-4164 4564 0
-4165 4565 0
-4166 4566 0
-4167 4567 0
-4143 -4168 4544 0
-4143 -4169 4545 0
-4143 -4170 4546 0
-4143 -4171 4547 0
-4143 -4172 4548 0
-4143 -4173 4549 0
-4143 -4174 4550 0
-4143 -4175 4551 0
-4143 -4176 4552 0
-4143 -4177 4553 0
-4143 -4178 4554 0
-4143 -4179 4555 0
-4143 -4180 4556 0
-4143 -4181 4557 0
-4143 -4182 4558 0
-4143 -4183 4559 0
-4143 -4184 4560 0
-4143 -4185 4561 0
-4143 -4186 4562 0
-4143 -4187 4563 0
-4143 -4188 4564 0
-4143 -4189 4565 0
-4143 -4190 4566 0
-4143 -4191 4567 0
-4144 -4168 4545 0
-4144 -4169 4546 0
-4144 -4170 4547 0
-4144 -4171 4548 0
-4144 -4172 4549 0
-4144 -4173 4550 0
-4144 -4174 4551 0
-4144 -4175 4552 0
-4144 -4176 4553 0
-4144 -4177 4554 0
-4144 -4178 4555 0
-4144 -4179 4556 0
-4144 -4180 4557 0
-4144 -4181 4558 0
-4144 -4182 4559 0
-4144 -4183 4560 0
-4144 -4184 4561 0
-4144 -4185 4562 0
-4144 -4186 4563 0
-4144 -4187 4564 0
-4144 -4188 4565 0
-4144 -4189 4566 0
-4144 -4190 4567 0
-4145 -4168 4546 0
-4145 -4169 4547 0
-4145 -4170 4548 0
-4145 -4171 4549 0
-4145 -4172 4550 0
-4145 -4173 4551 0
-4145 -4174 4552 0
-4145 -4175 4553 0
-4145 -4176 4554 0
-4145 -4177 4555 0
-4145 -4178 4556 0
-4145 -4179 4557 0
-4145 -4180 4558 0
-4145 -4181 4559 0
-4145 -4182 4560 0
-4145 -4183 4561 0
-4145 -4184 4562 0
-4145 -4185 4563 0
-4145 -4186 4564 0
-4145 -4187 4565 0
-4145 -4188 4566 0
-4145 -4189 4567 0
-4146 -4168 4547 0
-4146 -4169 4548 0
-4146 -4170 4549 0
-4146 -4171 4550 0
-4146 -4172 4551 0
-4146 -4173 4552 0
-4146 -4174 4553 0
-4146 -4175 4554 0
-4146 -4176 4555 0
-4146 -4177 4556 0
-4146 -4178 4557 0
-4146 -4179 4558 0
-4146 -4180 4559 0
-4146 -4181 4560 0
-4146 -4182 4561 0
-4146 -4183 4562 0
-4146 -4184 4563 0
-4146 -4185 4564 0
-4146 -4186 4565 0
-4146 -4187 4566 0
-4146 -4188 4567 0
-4147 -4168 4548 0
-4147 -4169 4549 0
-4147 -4170 4550 0
-4147 -4171 4551 0
-4147 -4172 4552 0
-4147 -4173 4553 0
-4147 -4174 4554 0
-4147 -4175 4555 0
-4147 -4176 4556 0
-4147 -4177 4557 0
-4147 -4178 4558 0
-4147 -4179 4559 0
-4147 -4180 4560 0
-4147 -4181 4561 0
-4147 -4182 4562 0
-4147 -4183 4563 0
-4147 -4184 4564 0
-4147 -4185 4565 0
-4147 -4186 4566 0
-4147 -4187 4567 0
-4148 -4168 4549 0
-4148 -4169 4550 0
-4148 -4170 4551 0
-4148 -4171 4552 0
-4148 -4172 4553 0
-4148 -4173 4554 0
-4148 -4174 4555 0
-4148 -4175 4556 0
-4148 -4176 4557 0
-4148 -4177 4558 0
-4148 -4178 4559 0
-4148 -4179 4560 0
-4148 -4180 4561 0
-4148 -4181 4562 0
-4148 -4182 4563 0
-4148 -4183 4564 0
-4148 -4184 4565 0
-4148 -4185 4566 0
-4148 -4186 4567 0
-4149 -4168 4550 0
-4149 -4169 4551 0
-4149 -4170 4552 0
-4149 -4171 4553 0
-4149 -4172 4554 0
-4149 -4173 4555 0
-4149 -4174 4556 0
-4149 -4175 4557 0
-4149 -4176 4558 0
-4149 -4177 4559 0
-4149 -4178 4560 0
-4149 -4179 4561 0
-4149 -4180 4562 0
-4149 -4181 4563 0
-4149 -4182 4564 0
-4149 -4183 4565 0
-4149 -4184 4566 0
-4149 -4185 4567 0
-4150 -4168 4551 0
-4150 -4169 4552 0
-4150 -4170 4553 0
-4150 -4171 4554 0
-4150 -4172 4555 0
-4150 -4173 4556 0
-4150 -4174 4557 0
-4150 -4175 4558 0
-4150 -4176 4559 0
-4150 -4177 4560 0
-4150 -4178 4561 0
-4150 -4179 4562 0
-4150 -4180 4563 0
-4150 -4181 4564 0
-4150 -4182 4565 0
-4150 -4183 4566 0
-4150 -4184 4567 0
-4151 -4168 4552 0
-4151 -4169 4553 0
-4151 -4170 4554 0
-4151 -4171 4555 0
-4151 -4172 4556 0
-4151 -4173 4557 0
-4151 -4174 4558 0
-4151 -4175 4559 0
-4151 -4176 4560 0
-4151 -4177 4561 0
-4151 -4178 4562 0
-4151 -4179 4563 0
-4151 -4180 4564 0
-4151 -4181 4565 0
-4151 -4182 4566 0
-4151 -4183 4567 0
-4152 -4168 4553 0
-4152 -4169 4554 0
-4152 -4170 4555 0
-4152 -4171 4556 0
-4152 -4172 4557 0
-4152 -4173 4558 0
-4152 -4174 4559 0
-4152 -4175 4560 0
-4152 -4176 4561 0
-4152 -4177 4562 0
-4152 -4178 4563 0
-4152 -4179 4564 0
-4152 -4180 4565 0
-4152 -4181 4566 0
-4152 -4182 4567 0
-4153 -4168 4554 0
-4153 -4169 4555 0
-4153 -4170 4556 0
-4153 -4171 4557 0
-4153 -4172 4558 0
-4153 -4173 4559 0
-4153 -4174 4560 0
-4153 -4175 4561 0
-4153 -4176 4562 0
-4153 -4177 4563 0
-4153 -4178 4564 0
-4153 -4179 4565 0
-4153 -4180 4566 0
-4153 -4181 4567 0
-4154 -4168 4555 0
-4154 -4169 4556 0
-4154 -4170 4557 0
-4154 -4171 4558 0
-4154 -4172 4559 0
-4154 -4173 4560 0
-4154 -4174 4561 0
-4154 -4175 4562 0
-4154 -4176 4563 0
-4154 -4177 4564 0
-4154 -4178 4565 0
-4154 -4179 4566 0
-4154 -4180 4567 0
-4155 -4168 4556 0
-4155 -4169 4557 0
-4155 -4170 4558 0
-4155 -4171 4559 0
-4155 -4172 4560 0
-4155 -4173 4561 0
-4155 -4174 4562 0
-4155 -4175 4563 0
-4155 -4176 4564 0
-4155 -4177 4565 0
-4155 -4178 4566 0
-4155 -4179 4567 0
-4156 -4168 4557 0
-4156 -4169 4558 0
-4156 -4170 4559 0
-4156 -4171 4560 0
-4156 -4172 4561 0
-4156 -4173 4562 0
-4156 -4174 4563 0
-4156 -4175 4564 0
-4156 -4176 4565 0
-4156 -4177 4566 0
-4156 -4178 4567 0
-4157 -4168 4558 0
-4157 -4169 4559 0
-4157 -4170 4560 0
-4157 -4171 4561 0
-4157 -4172 4562 0
-4157 -4173 4563 0
-4157 -4174 4564 0
-4157 -4175 4565 0
-4157 -4176 4566 0
-4157 -4177 4567 0
-4158 -4168 4559 0
-4158 -4169 4560 0
-4158 -4170 4561 0
-4158 -4171 4562 0
-4158 -4172 4563 0
-4158 -4173 4564 0
-4158 -4174 4565 0
-4158 -4175 4566 0
-4158 -4176 4567 0
-4159 -4168 4560 0
-4159 -4169 4561 0
-4159 -4170 4562 0
-4159 -4171 4563 0
-4159 -4172 4564 0
-4159 -4173 4565 0
-4159 -4174 4566 0
-4159 -4175 4567 0
-4160 -4168 4561 0
-4160 -4169 4562 0
-4160 -4170 4563 0
-4160 -4171 4564 0
-4160 -4172 4565 0
-4160 -4173 4566 0
-4160 -4174 4567 0
-4161 -4168 4562 0
-4161 -4169 4563 0
-4161 -4170 4564 0
-4161 -4171 4565 0
-4161 -4172 4566 0
-4161 -4173 4567 0
-4162 -4168 4563 0
-4162 -4169 4564 0
-4162 -4170 4565 0
-4162 -4171 4566 0
-4162 -4172 4567 0
-4163 -4168 4564 0
-4163 -4169 4565 0
-4163 -4170 4566 0
-4163 -4171 4567 0
-4164 -4168 4565 0
-4164 -4169 4566 0
-4164 -4170 4567 0
-4165 -4168 4566 0
-4165 -4169 4567 0
-4166 -4168 4567 0
-4218 4568 0
-4219 4569 0
-4220 4570 0
-4221 4571 0
-4222 4572 0
-4223 4573 0
-4224 4574 0
-4225 4575 0
-4226 4576 0
-4227 4577 0
-4228 4578 0
-4229 4579 0
-4230 4580 0
-4231 4581 0
-4232 4582 0
-4233 4583 0
-4234 4584 0
-4235 4585 0
-4236 4586 0
-4237 4587 0
-4238 4588 0
-4239 4589 0
-4240 4590 0
-4241 4591 0
-4242 4592 0
-4193 4568 0
-4194 4569 0
-4195 4570 0
-4196 4571 0
-4197 4572 0
-4198 4573 0
-4199 4574 0
-4200 4575 0
-4201 4576 0
-4202 4577 0
-4203 4578 0
-4204 4579 0
-4205 4580 0
-4206 4581 0
-4207 4582 0
-4208 4583 0
-4209 4584 0
-4210 4585 0
-4211 4586 0
-4212 4587 0
-4213 4588 0
-4214 4589 0
-4215 4590 0
-4216 4591 0
-4217 4592 0
-4193 -4218 4569 0
-4193 -4219 4570 0
-4193 -4220 4571 0
-4193 -4221 4572 0
-4193 -4222 4573 0
-4193 -4223 4574 0
-4193 -4224 4575 0
-4193 -4225 4576 0
-4193 -4226 4577 0
-4193 -4227 4578 0
-4193 -4228 4579 0
-4193 -4229 4580 0
-4193 -4230 4581 0
-4193 -4231 4582 0
-4193 -4232 4583 0
-4193 -4233 4584 0
-4193 -4234 4585 0
-4193 -4235 4586 0
-4193 -4236 4587 0
-4193 -4237 4588 0
-4193 -4238 4589 0
-4193 -4239 4590 0
-4193 -4240 4591 0
-4193 -4241 4592 0
-4194 -4218 4570 0
-4194 -4219 4571 0
-4194 -4220 4572 0
-4194 -4221 4573 0
-4194 -4222 4574 0
-4194 -4223 4575 0
-4194 -4224 4576 0
-4194 -4225 4577 0
-4194 -4226 4578 0
-4194 -4227 4579 0
-4194 -4228 4580 0
-4194 -4229 4581 0
-4194 -4230 4582 0
-4194 -4231 4583 0
-4194 -4232 4584 0
-4194 -4233 4585 0
-4194 -4234 4586 0
-4194 -4235 4587 0
-4194 -4236 4588 0
-4194 -4237 4589 0
-4194 -4238 4590 0
-4194 -4239 4591 0
-4194 -4240 4592 0
-4195 -4218 4571 0
-4195 -4219 4572 0
-4195 -4220 4573 0
-4195 -4221 4574 0
-4195 -4222 4575 0
-4195 -4223 4576 0
-4195 -4224 4577 0
-4195 -4225 4578 0
-4195 -4226 4579 0
-4195 -4227 4580 0
-4195 -4228 4581 0
-4195 -4229 4582 0
-4195 -4230 4583 0
-4195 -4231 4584 0
-4195 -4232 4585 0
-4195 -4233 4586 0
-4195 -4234 4587 0
-4195 -4235 4588 0
-4195 -4236 4589 0
-4195 -4237 4590 0
-4195 -4238 4591 0
-4195 -4239 4592 0
-4196 -4218 4572 0
-4196 -4219 4573 0
-4196 -4220 4574 0
-4196 -4221 4575 0
-4196 -4222 4576 0
-4196 -4223 4577 0
-4196 -4224 4578 0
-4196 -4225 4579 0
-4196 -4226 4580 0
-4196 -4227 4581 0
-4196 -4228 4582 0
-4196 -4229 4583 0
-4196 -4230 4584 0
-4196 -4231 4585 0
-4196 -4232 4586 0
-4196 -4233 4587 0
-4196 -4234 4588 0
-4196 -4235 4589 0
-4196 -4236 4590 0
-4196 -4237 4591 0
-4196 -4238 4592 0
-4197 -4218 4573 0
-4197 -4219 4574 0
-4197 -4220 4575 0
-4197 -4221 4576 0
-4197 -4222 4577 0
-4197 -4223 4578 0
-4197 -4224 4579 0
-4197 -4225 4580 0
-4197 -4226 4581 0
-4197 -4227 4582 0
-4197 -4228 4583 0
-4197 -4229 4584 0
-4197 -4230 4585 0
-4197 -4231 4586 0
-4197 -4232 4587 0
-4197 -4233 4588 0
-4197 -4234 4589 0
-4197 -4235 4590 0
-4197 -4236 4591 0
-4197 -4237 4592 0
-4198 -4218 4574 0
-4198 -4219 4575 0
-4198 -4220 4576 0
-4198 -4221 4577 0
-4198 -4222 4578 0
-4198 -4223 4579 0
-4198 -4224 4580 0
-4198 -4225 4581 0
-4198 -4226 4582 0
-4198 -4227 4583 0
-4198 -4228 4584 0
-4198 -4229 4585 0
-4198 -4230 4586 0
-4198 -4231 4587 0
-4198 -4232 4588 0
-4198 -4233 4589 0
-4198 -4234 4590 0
-4198 -4235 4591 0
-4198 -4236 4592 0
-4199 -4218 4575 0
-4199 -4219 4576 0
-4199 -4220 4577 0
-4199 -4221 4578 0
-4199 -4222 4579 0
-4199 -4223 4580 0
-4199 -4224 4581 0
-4199 -4225 4582 0
-4199 -4226 4583 0
-4199 -4227 4584 0
-4199 -4228 4585 0
-4199 -4229 4586 0
-4199 -4230 4587 0
-4199 -4231 4588 0
-4199 -4232 4589 0
-4199 -4233 4590 0
-4199 -4234 4591 0
-4199 -4235 4592 0
-4200 -4218 4576 0
-4200 -4219 4577 0
-4200 -4220 4578 0
-4200 -4221 4579 0
-4200 -4222 4580 0
-4200 -4223 4581 0
-4200 -4224 4582 0
-4200 -4225 4583 0
-4200 -4226 4584 0
-4200 -4227 4585 0
-4200 -4228 4586 0
-4200 -4229 4587 0
-4200 -4230 4588 0
-4200 -4231 4589 0
-4200 -4232 4590 0
-4200 -4233 4591 0
-4200 -4234 4592 0
-4201 -4218 4577 0
-4201 -4219 4578 0
-4201 -4220 4579 0
-4201 -4221 4580 0
-4201 -4222 4581 0
-4201 -4223 4582 0
-4201 -4224 4583 0
-4201 -4225 4584 0
-4201 -4226 4585 0
-4201 -4227 4586 0
-4201 -4228 4587 0
-4201 -4229 4588 0
-4201 -4230 4589 0
-4201 -4231 4590 0
-4201 -4232 4591 0
-4201 -4233 4592 0
-4202 -4218 4578 0
-4202 -4219 4579 0
-4202 -4220 4580 0
-4202 -4221 4581 0
-4202 -4222 4582 0
-4202 -4223 4583 0
-4202 -4224 4584 0
-4202 -4225 4585 0
-4202 -4226 4586 0
-4202 -4227 4587 0
-4202 -4228 4588 0
-4202 -4229 4589 0
-4202 -4230 4590 0
-4202 -4231 4591 0
-4202 -4232 4592 0
-4203 -4218 4579 0
-4203 -4219 4580 0
-4203 -4220 4581 0
-4203 -4221 4582 0
-4203 -4222 4583 0
-4203 -4223 4584 0
-4203 -4224 4585 0
-4203 -4225 4586 0
-4203 -4226 4587 0
-4203 -4227 4588 0
-4203 -4228 4589 0
-4203 -4229 4590 0
-4203 -4230 4591 0
-4203 -4231 4592 0
-4204 -4218 4580 0
-4204 -4219 4581 0
-4204 -4220 4582 0
-4204 -4221 4583 0
-4204 -4222 4584 0
-4204 -4223 4585 0
-4204 -4224 4586 0
-4204 -4225 4587 0
-4204 -4226 4588 0
-4204 -4227 4589 0
-4204 -4228 4590 0
-4204 -4229 4591 0
-4204 -4230 4592 0
-4205 -4218 4581 0
-4205 -4219 4582 0
-4205 -4220 4583 0
-4205 -4221 4584 0
-4205 -4222 4585 0
-4205 -4223 4586 0
-4205 -4224 4587 0
-4205 -4225 4588 0
-4205 -4226 4589 0
-4205 -4227 4590 0
-4205 -4228 4591 0
-4205 -4229 4592 0
-4206 -4218 4582 0
-4206 -4219 4583 0
-4206 -4220 4584 0
-4206 -4221 4585 0
-4206 -4222 4586 0
-4206 -4223 4587 0
-4206 -4224 4588 0
-4206 -4225 4589 0
-4206 -4226 4590 0
-4206 -4227 4591 0
-4206 -4228 4592 0
-4207 -4218 4583 0
-4207 -4219 4584 0
-4207 -4220 4585 0
-4207 -4221 4586 0
-4207 -4222 4587 0
-4207 -4223 4588 0
-4207 -4224 4589 0
-4207 -4225 4590 0
-4207 -4226 4591 0
-4207 -4227 4592 0
-4208 -4218 4584 0
-4208 -4219 4585 0
-4208 -4220 4586 0
-4208 -4221 4587 0
-4208 -4222 4588 0
-4208 -4223 4589 0
-4208 -4224 4590 0
-4208 -4225 4591 0
-4208 -4226 4592 0
-4209 -4218 4585 0
-4209 -4219 4586 0
-4209 -4220 4587 0
-4209 -4221 4588 0
-4209 -4222 4589 0
-4209 -4223 4590 0
-4209 -4224 4591 0
-4209 -4225 4592 0
-4210 -4218 4586 0
-4210 -4219 4587 0
-4210 -4220 4588 0
-4210 -4221 4589 0
-4210 -4222 4590 0
-4210 -4223 4591 0
-4210 -4224 4592 0
-4211 -4218 4587 0
-4211 -4219 4588 0
-4211 -4220 4589 0
-4211 -4221 4590 0
-4211 -4222 4591 0
-4211 -4223 4592 0
-4212 -4218 4588 0
-4212 -4219 4589 0
-4212 -4220 4590 0
-4212 -4221 4591 0
-4212 -4222 4592 0
-4213 -4218 4589 0
-4213 -4219 4590 0
-4213 -4220 4591 0
-4213 -4221 4592 0
-4214 -4218 4590 0
-4214 -4219 4591 0
-4214 -4220 4592 0
-4215 -4218 4591 0
-4215 -4219 4592 0
-4216 -4218 4592 0
-4268 4593 0
-4269 4594 0
-4270 4595 0
-4271 4596 0
-4272 4597 0
-4273 4598 0
-4274 4599 0
-4275 4600 0
-4276 4601 0
-4277 4602 0
-4278 4603 0
-4279 4604 0
-4280 4605 0
-4281 4606 0
-4282 4607 0
-4283 4608 0
-4284 4609 0
-4285 4610 0
-4286 4611 0
-4287 4612 0
-4288 4613 0
-4289 4614 0
-4290 4615 0
-4291 4616 0
-4292 4617 0
-4243 4593 0
-4244 4594 0
-4245 4595 0
-4246 4596 0
-4247 4597 0
-4248 4598 0
-4249 4599 0
-4250 4600 0
-4251 4601 0
-4252 4602 0
-4253 4603 0
-4254 4604 0
-4255 4605 0
-4256 4606 0
-4257 4607 0
-4258 4608 0
-4259 4609 0
-4260 4610 0
-4261 4611 0
-4262 4612 0
-4263 4613 0
-4264 4614 0
-4265 4615 0
-4266 4616 0
-4267 4617 0
-4243 -4268 4594 0
-4243 -4269 4595 0
-4243 -4270 4596 0
-4243 -4271 4597 0
-4243 -4272 4598 0
-4243 -4273 4599 0
-4243 -4274 4600 0
-4243 -4275 4601 0
-4243 -4276 4602 0
-4243 -4277 4603 0
-4243 -4278 4604 0
-4243 -4279 4605 0
-4243 -4280 4606 0
-4243 -4281 4607 0
-4243 -4282 4608 0
-4243 -4283 4609 0
-4243 -4284 4610 0
-4243 -4285 4611 0
-4243 -4286 4612 0
-4243 -4287 4613 0
-4243 -4288 4614 0
-4243 -4289 4615 0
-4243 -4290 4616 0
-4243 -4291 4617 0
-4244 -4268 4595 0
-4244 -4269 4596 0
-4244 -4270 4597 0
-4244 -4271 4598 0
-4244 -4272 4599 0
-4244 -4273 4600 0
-4244 -4274 4601 0
-4244 -4275 4602 0
-4244 -4276 4603 0
-4244 -4277 4604 0
-4244 -4278 4605 0
-4244 -4279 4606 0
-4244 -4280 4607 0
-4244 -4281 4608 0
-4244 -4282 4609 0
-4244 -4283 4610 0
-4244 -4284 4611 0
-4244 -4285 4612 0
-4244 -4286 4613 0
-4244 -4287 4614 0
-4244 -4288 4615 0
-4244 -4289 4616 0
-4244 -4290 4617 0
-4245 -4268 4596 0
-4245 -4269 4597 0
-4245 -4270 4598 0
-4245 -4271 4599 0
-4245 -4272 4600 0
-4245 -4273 4601 0
-4245 -4274 4602 0
-4245 -4275 4603 0
-4245 -4276 4604 0
-4245 -4277 4605 0
-4245 -4278 4606 0
-4245 -4279 4607 0
-4245 -4280 4608 0
-4245 -4281 4609 0
-4245 -4282 4610 0
-4245 -4283 4611 0
-4245 -4284 4612 0
-4245 -4285 4613 0
-4245 -4286 4614 0
-4245 -4287 4615 0
-4245 -4288 4616 0
-4245 -4289 4617 0
-4246 -4268 4597 0
-4246 -4269 4598 0
-4246 -4270 4599 0
-4246 -4271 4600 0
-4246 -4272 4601 0
-4246 -4273 4602 0
-4246 -4274 4603 0
-4246 -4275 4604 0
-4246 -4276 4605 0
-4246 -4277 4606 0
-4246 -4278 4607 0
-4246 -4279 4608 0
-4246 -4280 4609 0
-4246 -4281 4610 0
-4246 -4282 4611 0
-4246 -4283 4612 0
-4246 -4284 4613 0
-4246 -4285 4614 0
-4246 -4286 4615 0
-4246 -4287 4616 0
-4246 -4288 4617 0
-4247 -4268 4598 0
-4247 -4269 4599 0
-4247 -4270 4600 0
-4247 -4271 4601 0
-4247 -4272 4602 0
-4247 -4273 4603 0
-4247 -4274 4604 0
-4247 -4275 4605 0
-4247 -4276 4606 0
-4247 -4277 4607 0
-4247 -4278 4608 0
-4247 -4279 4609 0
-4247 -4280 4610 0
-4247 -4281 4611 0
-4247 -4282 4612 0
-4247 -4283 4613 0
-4247 -4284 4614 0
-4247 -4285 4615 0
-4247 -4286 4616 0
-4247 -4287 4617 0
-4248 -4268 4599 0
-4248 -4269 4600 0
-4248 -4270 4601 0
-4248 -4271 4602 0
-4248 -4272 4603 0
-4248 -4273 4604 0
-4248 -4274 4605 0
-4248 -4275 4606 0
-4248 -4276 4607 0
-4248 -4277 4608 0
-4248 -4278 4609 0
-4248 -4279 4610 0
-4248 -4280 4611 0
-4248 -4281 4612 0
-4248 -4282 4613 0
-4248 -4283 4614 0
-4248 -4284 4615 0
-4248 -4285 4616 0
-4248 -4286 4617 0
-4249 -4268 4600 0
-4249 -4269 4601 0
-4249 -4270 4602 0
-4249 -4271 4603 0
-4249 -4272 4604 0
-4249 -4273 4605 0
-4249 -4274 4606 0
-4249 -4275 4607 0
-4249 -4276 4608 0
-4249 -4277 4609 0
-4249 -4278 4610 0
-4249 -4279 4611 0
-4249 -4280 4612 0
-4249 -4281 4613 0
-4249 -4282 4614 0
-4249 -4283 4615 0
-4249 -4284 4616 0
-4249 -4285 4617 0
-4250 -4268 4601 0
-4250 -4269 4602 0
-4250 -4270 4603 0
-4250 -4271 4604 0
-4250 -4272 4605 0
-4250 -4273 4606 0
-4250 -4274 4607 0
-4250 -4275 4608 0
-4250 -4276 4609 0
-4250 -4277 4610 0
-4250 -4278 4611 0
-4250 -4279 4612 0
-4250 -4280 4613 0
-4250 -4281 4614 0
-4250 -4282 4615 0
-4250 -4283 4616 0
-4250 -4284 4617 0
-4251 -4268 4602 0
-4251 -4269 4603 0
-4251 -4270 4604 0
-4251 -4271 4605 0
-4251 -4272 4606 0
-4251 -4273 4607 0
-4251 -4274 4608 0
-4251 -4275 4609 0
-4251 -4276 4610 0
-4251 -4277 4611 0
-4251 -4278 4612 0
-4251 -4279 4613 0
-4251 -4280 4614 0
-4251 -4281 4615 0
-4251 -4282 4616 0
-4251 -4283 4617 0
-4252 -4268 4603 0
-4252 -4269 4604 0
-4252 -4270 4605 0
-4252 -4271 4606 0
-4252 -4272 4607 0
-4252 -4273 4608 0
-4252 -4274 4609 0
-4252 -4275 4610 0
-4252 -4276 4611 0
-4252 -4277 4612 0
-4252 -4278 4613 0
-4252 -4279 4614 0
-4252 -4280 4615 0
-4252 -4281 4616 0
-4252 -4282 4617 0
-4253 -4268 4604 0
-4253 -4269 4605 0
-4253 -4270 4606 0
-4253 -4271 4607 0
-4253 -4272 4608 0
-4253 -4273 4609 0
-4253 -4274 4610 0
-4253 -4275 4611 0
-4253 -4276 4612 0
-4253 -4277 4613 0
-4253 -4278 4614 0
-4253 -4279 4615 0
-4253 -4280 4616 0
-4253 -4281 4617 0
-4254 -4268 4605 0
-4254 -4269 4606 0
-4254 -4270 4607 0
-4254 -4271 4608 0
-4254 -4272 4609 0
-4254 -4273 4610 0
-4254 -4274 4611 0
-4254 -4275 4612 0
-4254 -4276 4613 0
-4254 -4277 4614 0
-4254 -4278 4615 0
-4254 -4279 4616 0
-4254 -4280 4617 0
-4255 -4268 4606 0
-4255 -4269 4607 0
-4255 -4270 4608 0
-4255 -4271 4609 0
-4255 -4272 4610 0
-4255 -4273 4611 0
-4255 -4274 4612 0
-4255 -4275 4613 0
-4255 -4276 4614 0
-4255 -4277 4615 0
-4255 -4278 4616 0
-4255 -4279 4617 0
-4256 -4268 4607 0
-4256 -4269 4608 0
-4256 -4270 4609 0
-4256 -4271 4610 0
-4256 -4272 4611 0
-4256 -4273 4612 0
-4256 -4274 4613 0
-4256 -4275 4614 0
-4256 -4276 4615 0
-4256 -4277 4616 0
-4256 -4278 4617 0
-4257 -4268 4608 0
-4257 -4269 4609 0
-4257 -4270 4610 0
-4257 -4271 4611 0
-4257 -4272 4612 0
-4257 -4273 4613 0
-4257 -4274 4614 0
-4257 -4275 4615 0
-4257 -4276 4616 0
-4257 -4277 4617 0
-4258 -4268 4609 0
-4258 -4269 4610 0
-4258 -4270 4611 0
-4258 -4271 4612 0
-4258 -4272 4613 0
-4258 -4273 4614 0
-4258 -4274 4615 0
-4258 -4275 4616 0
-4258 -4276 4617 0
-4259 -4268 4610 0
-4259 -4269 4611 0
-4259 -4270 4612 0
-4259 -4271 4613 0
-4259 -4272 4614 0
-4259 -4273 4615 0
-4259 -4274 4616 0
-4259 -4275 4617 0
-4260 -4268 4611 0
-4260 -4269 4612 0
-4260 -4270 4613 0
-4260 -4271 4614 0
-4260 -4272 4615 0
-4260 -4273 4616 0
-4260 -4274 4617 0
-4261 -4268 4612 0
-4261 -4269 4613 0
-4261 -4270 4614 0
-4261 -4271 4615 0
-4261 -4272 4616 0
-4261 -4273 4617 0
-4262 -4268 4613 0
-4262 -4269 4614 0
-4262 -4270 4615 0
-4262 -4271 4616 0
-4262 -4272 4617 0
-4263 -4268 4614 0
-4263 -4269 4615 0
-4263 -4270 4616 0
-4263 -4271 4617 0
-4264 -4268 4615 0
-4264 -4269 4616 0
-4264 -4270 4617 0
-4265 -4268 4616 0
-4265 -4269 4617 0
-4266 -4268 4617 0
-4318 4618 0
-4319 4619 0
-4320 4620 0
-4321 4621 0
-4322 4622 0
-4323 4623 0
-4324 4624 0
-4325 4625 0
-4326 4626 0
-4327 4627 0
-4328 4628 0
-4329 4629 0
-4330 4630 0
-4331 4631 0
-4332 4632 0
-4333 4633 0
-4334 4634 0
-4335 4635 0
-4336 4636 0
-4337 4637 0
-4338 4638 0
-4339 4639 0
-4340 4640 0
-4341 4641 0
-4342 4642 0
-4293 4618 0
-4294 4619 0
-4295 4620 0
-4296 4621 0
-4297 4622 0
-4298 4623 0
-4299 4624 0
-4300 4625 0
-4301 4626 0
-4302 4627 0
-4303 4628 0
-4304 4629 0
-4305 4630 0
-4306 4631 0
-4307 4632 0
-4308 4633 0
-4309 4634 0
-4310 4635 0
-4311 4636 0
-4312 4637 0
-4313 4638 0
-4314 4639 0
-4315 4640 0
-4316 4641 0
-4317 4642 0
-4293 -4318 4619 0
-4293 -4319 4620 0
-4293 -4320 4621 0
-4293 -4321 4622 0
-4293 -4322 4623 0
-4293 -4323 4624 0
-4293 -4324 4625 0
-4293 -4325 4626 0
-4293 -4326 4627 0
-4293 -4327 4628 0
-4293 -4328 4629 0
-4293 -4329 4630 0
-4293 -4330 4631 0
-4293 -4331 4632 0
-4293 -4332 4633 0
-4293 -4333 4634 0
-4293 -4334 4635 0
-4293 -4335 4636 0
-4293 -4336 4637 0
-4293 -4337 4638 0
-4293 -4338 4639 0
-4293 -4339 4640 0
-4293 -4340 4641 0
-4293 -4341 4642 0
-4294 -4318 4620 0
-4294 -4319 4621 0
-4294 -4320 4622 0
-4294 -4321 4623 0
-4294 -4322 4624 0
-4294 -4323 4625 0
-4294 -4324 4626 0
-4294 -4325 4627 0
-4294 -4326 4628 0
-4294 -4327 4629 0
-4294 -4328 4630 0
-4294 -4329 4631 0
-4294 -4330 4632 0
-4294 -4331 4633 0
-4294 -4332 4634 0
-4294 -4333 4635 0
-4294 -4334 4636 0
-4294 -4335 4637 0
-4294 -4336 4638 0
-4294 -4337 4639 0
-4294 -4338 4640 0
-4294 -4339 4641 0
-4294 -4340 4642 0
-4295 -4318 4621 0
-4295 -4319 4622 0
-4295 -4320 4623 0
-4295 -4321 4624 0
-4295 -4322 4625 0
-4295 -4323 4626 0
-4295 -4324 4627 0
-4295 -4325 4628 0
-4295 -4326 4629 0
-4295 -4327 4630 0
-4295 -4328 4631 0
-4295 -4329 4632 0
-4295 -4330 4633 0
-4295 -4331 4634 0
-4295 -4332 4635 0
-4295 -4333 4636 0
-4295 -4334 4637 0
-4295 -4335 4638 0
-4295 -4336 4639 0
-4295 -4337 4640 0
-4295 -4338 4641 0
-4295 -4339 4642 0
-4296 -4318 4622 0
-4296 -4319 4623 0
-4296 -4320 4624 0
-4296 -4321 4625 0
-4296 -4322 4626 0
-4296 -4323 4627 0
-4296 -4324 4628 0
-4296 -4325 4629 0
-4296 -4326 4630 0
-4296 -4327 4631 0
-4296 -4328 4632 0
-4296 -4329 4633 0
-4296 -4330 4634 0
-4296 -4331 4635 0
-4296 -4332 4636 0
-4296 -4333 4637 0
-4296 -4334 4638 0
-4296 -4335 4639 0
-4296 -4336 4640 0
-4296 -4337 4641 0
-4296 -4338 4642 0
-4297 -4318 4623 0
-4297 -4319 4624 0
-4297 -4320 4625 0
-4297 -4321 4626 0
-4297 -4322 4627 0
-4297 -4323 4628 0
-4297 -4324 4629 0
-4297 -4325 4630 0
-4297 -4326 4631 0
-4297 -4327 4632 0
-4297 -4328 4633 0
-4297 -4329 4634 0
-4297 -4330 4635 0
-4297 -4331 4636 0
-4297 -4332 4637 0
-4297 -4333 4638 0
-4297 -4334 4639 0
-4297 -4335 4640 0
-4297 -4336 4641 0
-4297 -4337 4642 0
-4298 -4318 4624 0
-4298 -4319 4625 0
-4298 -4320 4626 0
-4298 -4321 4627 0
-4298 -4322 4628 0
-4298 -4323 4629 0
-4298 -4324 4630 0
-4298 -4325 4631 0
-4298 -4326 4632 0
-4298 -4327 4633 0
-4298 -4328 4634 0
-4298 -4329 4635 0
-4298 -4330 4636 0
-4298 -4331 4637 0
-4298 -4332 4638 0
-4298 -4333 4639 0
-4298 -4334 4640 0
-4298 -4335 4641 0
-4298 -4336 4642 0
-4299 -4318 4625 0
-4299 -4319 4626 0
-4299 -4320 4627 0
-4299 -4321 4628 0
-4299 -4322 4629 0
-4299 -4323 4630 0
-4299 -4324 4631 0
-4299 -4325 4632 0
-4299 -4326 4633 0
-4299 -4327 4634 0
-4299 -4328 4635 0
-4299 -4329 4636 0
-4299 -4330 4637 0
-4299 -4331 4638 0
-4299 -4332 4639 0
-4299 -4333 4640 0
-4299 -4334 4641 0
-4299 -4335 4642 0
-4300 -4318 4626 0
-4300 -4319 4627 0
-4300 -4320 4628 0
-4300 -4321 4629 0
-4300 -4322 4630 0
-4300 -4323 4631 0
-4300 -4324 4632 0
-4300 -4325 4633 0
-4300 -4326 4634 0
-4300 -4327 4635 0
-4300 -4328 4636 0
-4300 -4329 4637 0
-4300 -4330 4638 0
-4300 -4331 4639 0
-4300 -4332 4640 0
-4300 -4333 4641 0
-4300 -4334 4642 0
-4301 -4318 4627 0
-4301 -4319 4628 0
-4301 -4320 4629 0
-4301 -4321 4630 0
-4301 -4322 4631 0
-4301 -4323 4632 0
-4301 -4324 4633 0
-4301 -4325 4634 0
-4301 -4326 4635 0
-4301 -4327 4636 0
-4301 -4328 4637 0
-4301 -4329 4638 0
-4301 -4330 4639 0
-4301 -4331 4640 0
-4301 -4332 4641 0
-4301 -4333 4642 0
-4302 -4318 4628 0
-4302 -4319 4629 0
-4302 -4320 4630 0
-4302 -4321 4631 0
-4302 -4322 4632 0
-4302 -4323 4633 0
-4302 -4324 4634 0
-4302 -4325 4635 0
-4302 -4326 4636 0
-4302 -4327 4637 0
-4302 -4328 4638 0
-4302 -4329 4639 0
-4302 -4330 4640 0
-4302 -4331 4641 0
-4302 -4332 4642 0
-4303 -4318 4629 0
-4303 -4319 4630 0
-4303 -4320 4631 0
-4303 -4321 4632 0
-4303 -4322 4633 0
-4303 -4323 4634 0
-4303 -4324 4635 0
-4303 -4325 4636 0
-4303 -4326 4637 0
-4303 -4327 4638 0
-4303 -4328 4639 0
-4303 -4329 4640 0
-4303 -4330 4641 0
-4303 -4331 4642 0
-4304 -4318 4630 0
-4304 -4319 4631 0
-4304 -4320 4632 0
-4304 -4321 4633 0
-4304 -4322 4634 0
-4304 -4323 4635 0
-4304 -4324 4636 0
-4304 -4325 4637 0
-4304 -4326 4638 0
-4304 -4327 4639 0
-4304 -4328 4640 0
-4304 -4329 4641 0
-4304 -4330 4642 0
-4305 -4318 4631 0
-4305 -4319 4632 0
-4305 -4320 4633 0
-4305 -4321 4634 0
-4305 -4322 4635 0
-4305 -4323 4636 0
-4305 -4324 4637 0
-4305 -4325 4638 0
-4305 -4326 4639 0
-4305 -4327 4640 0
-4305 -4328 4641 0
-4305 -4329 4642 0
-4306 -4318 4632 0
-4306 -4319 4633 0
-4306 -4320 4634 0
-4306 -4321 4635 0
-4306 -4322 4636 0
-4306 -4323 4637 0
-4306 -4324 4638 0
-4306 -4325 4639 0
-4306 -4326 4640 0
-4306 -4327 4641 0
-4306 -4328 4642 0
-4307 -4318 4633 0
-4307 -4319 4634 0
-4307 -4320 4635 0
-4307 -4321 4636 0
-4307 -4322 4637 0
-4307 -4323 4638 0
-4307 -4324 4639 0
-4307 -4325 4640 0
-4307 -4326 4641 0
-4307 -4327 4642 0
-4308 -4318 4634 0
-4308 -4319 4635 0
-4308 -4320 4636 0
-4308 -4321 4637 0
-4308 -4322 4638 0
-4308 -4323 4639 0
-4308 -4324 4640 0
-4308 -4325 4641 0
-4308 -4326 4642 0
-4309 -4318 4635 0
-4309 -4319 4636 0
-4309 -4320 4637 0
-4309 -4321 4638 0
-4309 -4322 4639 0
-4309 -4323 4640 0
-4309 -4324 4641 0
-4309 -4325 4642 0
-4310 -4318 4636 0
-4310 -4319 4637 0
-4310 -4320 4638 0
-4310 -4321 4639 0
-4310 -4322 4640 0
-4310 -4323 4641 0
-4310 -4324 4642 0
-4311 -4318 4637 0
-4311 -4319 4638 0
-4311 -4320 4639 0
-4311 -4321 4640 0
-4311 -4322 4641 0
-4311 -4323 4642 0
-4312 -4318 4638 0
-4312 -4319 4639 0
-4312 -4320 4640 0
-4312 -4321 4641 0
-4312 -4322 4642 0
-4313 -4318 4639 0
-4313 -4319 4640 0
-4313 -4320 4641 0
-4313 -4321 4642 0
-4314 -4318 4640 0
-4314 -4319 4641 0
-4314 -4320 4642 0
-4315 -4318 4641 0
-4315 -4319 4642 0
-4316 -4318 4642 0
-4368 4643 0
-4369 4644 0
-4370 4645 0
-4371 4646 0
-4372 4647 0
-4373 4648 0
-4374 4649 0
-4375 4650 0
-4376 4651 0
-4377 4652 0
-4378 4653 0
-4379 4654 0
-4380 4655 0
-4381 4656 0
-4382 4657 0
-4383 4658 0
-4384 4659 0
-4385 4660 0
-4386 4661 0
-4387 4662 0
-4388 4663 0
-4389 4664 0
-4390 4665 0
-4391 4666 0
-4392 4667 0
-4343 4643 0
-4344 4644 0
-4345 4645 0
-4346 4646 0
-4347 4647 0
-4348 4648 0
-4349 4649 0
-4350 4650 0
-4351 4651 0
-4352 4652 0
-4353 4653 0
-4354 4654 0
-4355 4655 0
-4356 4656 0
-4357 4657 0
-4358 4658 0
-4359 4659 0
-4360 4660 0
-4361 4661 0
-4362 4662 0
-4363 4663 0
-4364 4664 0
-4365 4665 0
-4366 4666 0
-4367 4667 0
-4343 -4368 4644 0
-4343 -4369 4645 0
-4343 -4370 4646 0
-4343 -4371 4647 0
-4343 -4372 4648 0
-4343 -4373 4649 0
-4343 -4374 4650 0
-4343 -4375 4651 0
-4343 -4376 4652 0
-4343 -4377 4653 0
-4343 -4378 4654 0
-4343 -4379 4655 0
-4343 -4380 4656 0
-4343 -4381 4657 0
-4343 -4382 4658 0
-4343 -4383 4659 0
-4343 -4384 4660 0
-4343 -4385 4661 0
-4343 -4386 4662 0
-4343 -4387 4663 0
-4343 -4388 4664 0
-4343 -4389 4665 0
-4343 -4390 4666 0
-4343 -4391 4667 0
-4344 -4368 4645 0
-4344 -4369 4646 0
-4344 -4370 4647 0
-4344 -4371 4648 0
-4344 -4372 4649 0
-4344 -4373 4650 0
-4344 -4374 4651 0
-4344 -4375 4652 0
-4344 -4376 4653 0
-4344 -4377 4654 0
-4344 -4378 4655 0
-4344 -4379 4656 0
-4344 -4380 4657 0
-4344 -4381 4658 0
-4344 -4382 4659 0
-4344 -4383 4660 0
-4344 -4384 4661 0
-4344 -4385 4662 0
-4344 -4386 4663 0
-4344 -4387 4664 0
-4344 -4388 4665 0
-4344 -4389 4666 0
-4344 -4390 4667 0
-4345 -4368 4646 0
-4345 -4369 4647 0
-4345 -4370 4648 0
-4345 -4371 4649 0
-4345 -4372 4650 0
-4345 -4373 4651 0
-4345 -4374 4652 0
-4345 -4375 4653 0
-4345 -4376 4654 0
-4345 -4377 4655 0
-4345 -4378 4656 0
-4345 -4379 4657 0
-4345 -4380 4658 0
-4345 -4381 4659 0
-4345 -4382 4660 0
-4345 -4383 4661 0
-4345 -4384 4662 0
-4345 -4385 4663 0
-4345 -4386 4664 0
-4345 -4387 4665 0
-4345 -4388 4666 0
-4345 -4389 4667 0
-4346 -4368 4647 0
-4346 -4369 4648 0
-4346 -4370 4649 0
-4346 -4371 4650 0
-4346 -4372 4651 0
-4346 -4373 4652 0
-4346 -4374 4653 0
-4346 -4375 4654 0
-4346 -4376 4655 0
-4346 -4377 4656 0
-4346 -4378 4657 0
-4346 -4379 4658 0
-4346 -4380 4659 0
-4346 -4381 4660 0
-4346 -4382 4661 0
-4346 -4383 4662 0
-4346 -4384 4663 0
-4346 -4385 4664 0
-4346 -4386 4665 0
-4346 -4387 4666 0
-4346 -4388 4667 0
-4347 -4368 4648 0
-4347 -4369 4649 0
-4347 -4370 4650 0
-4347 -4371 4651 0
-4347 -4372 4652 0
-4347 -4373 4653 0
-4347 -4374 4654 0
-4347 -4375 4655 0
-4347 -4376 4656 0
-4347 -4377 4657 0
-4347 -4378 4658 0
-4347 -4379 4659 0
-4347 -4380 4660 0
-4347 -4381 4661 0
-4347 -4382 4662 0
-4347 -4383 4663 0
-4347 -4384 4664 0
-4347 -4385 4665 0
-4347 -4386 4666 0
-4347 -4387 4667 0
-4348 -4368 4649 0
-4348 -4369 4650 0
-4348 -4370 4651 0
-4348 -4371 4652 0
-4348 -4372 4653 0
-4348 -4373 4654 0
-4348 -4374 4655 0
-4348 -4375 4656 0
-4348 -4376 4657 0
-4348 -4377 4658 0
-4348 -4378 4659 0
-4348 -4379 4660 0
-4348 -4380 4661 0
-4348 -4381 4662 0
-4348 -4382 4663 0
-4348 -4383 4664 0
-4348 -4384 4665 0
-4348 -4385 4666 0
-4348 -4386 4667 0
-4349 -4368 4650 0
-4349 -4369 4651 0
-4349 -4370 4652 0
-4349 -4371 4653 0
-4349 -4372 4654 0
-4349 -4373 4655 0
-4349 -4374 4656 0
-4349 -4375 4657 0
-4349 -4376 4658 0
-4349 -4377 4659 0
-4349 -4378 4660 0
-4349 -4379 4661 0
-4349 -4380 4662 0
-4349 -4381 4663 0
-4349 -4382 4664 0
-4349 -4383 4665 0
-4349 -4384 4666 0
-4349 -4385 4667 0
-4350 -4368 4651 0
-4350 -4369 4652 0
-4350 -4370 4653 0
-4350 -4371 4654 0
-4350 -4372 4655 0
-4350 -4373 4656 0
-4350 -4374 4657 0
-4350 -4375 4658 0
-4350 -4376 4659 0
-4350 -4377 4660 0
-4350 -4378 4661 0
-4350 -4379 4662 0
-4350 -4380 4663 0
-4350 -4381 4664 0
-4350 -4382 4665 0
-4350 -4383 4666 0
-4350 -4384 4667 0
-4351 -4368 4652 0
-4351 -4369 4653 0
-4351 -4370 4654 0
-4351 -4371 4655 0
-4351 -4372 4656 0
-4351 -4373 4657 0
-4351 -4374 4658 0
-4351 -4375 4659 0
-4351 -4376 4660 0
-4351 -4377 4661 0
-4351 -4378 4662 0
-4351 -4379 4663 0
-4351 -4380 4664 0
-4351 -4381 4665 0
-4351 -4382 4666 0
-4351 -4383 4667 0
-4352 -4368 4653 0
-4352 -4369 4654 0
-4352 -4370 4655 0
-4352 -4371 4656 0
-4352 -4372 4657 0
-4352 -4373 4658 0
-4352 -4374 4659 0
-4352 -4375 4660 0
-4352 -4376 4661 0
-4352 -4377 4662 0
-4352 -4378 4663 0
-4352 -4379 4664 0
-4352 -4380 4665 0
-4352 -4381 4666 0
-4352 -4382 4667 0
-4353 -4368 4654 0
-4353 -4369 4655 0
-4353 -4370 4656 0
-4353 -4371 4657 0
-4353 -4372 4658 0
-4353 -4373 4659 0
-4353 -4374 4660 0
-4353 -4375 4661 0
-4353 -4376 4662 0
-4353 -4377 4663 0
-4353 -4378 4664 0
-4353 -4379 4665 0
-4353 -4380 4666 0
-4353 -4381 4667 0
-4354 -4368 4655 0
-4354 -4369 4656 0
-4354 -4370 4657 0
-4354 -4371 4658 0
-4354 -4372 4659 0
-4354 -4373 4660 0
-4354 -4374 4661 0
-4354 -4375 4662 0
-4354 -4376 4663 0
-4354 -4377 4664 0
-4354 -4378 4665 0
-4354 -4379 4666 0
-4354 -4380 4667 0
-4355 -4368 4656 0
-4355 -4369 4657 0
-4355 -4370 4658 0
-4355 -4371 4659 0
-4355 -4372 4660 0
-4355 -4373 4661 0
-4355 -4374 4662 0
-4355 -4375 4663 0
-4355 -4376 4664 0
-4355 -4377 4665 0
-4355 -4378 4666 0
-4355 -4379 4667 0
-4356 -4368 4657 0
-4356 -4369 4658 0
-4356 -4370 4659 0
-4356 -4371 4660 0
-4356 -4372 4661 0
-4356 -4373 4662 0
-4356 -4374 4663 0
-4356 -4375 4664 0
-4356 -4376 4665 0
-4356 -4377 4666 0
-4356 -4378 4667 0
-4357 -4368 4658 0
-4357 -4369 4659 0
-4357 -4370 4660 0
-4357 -4371 4661 0
-4357 -4372 4662 0
-4357 -4373 4663 0
-4357 -4374 4664 0
-4357 -4375 4665 0
-4357 -4376 4666 0
-4357 -4377 4667 0
-4358 -4368 4659 0
-4358 -4369 4660 0
-4358 -4370 4661 0
-4358 -4371 4662 0
-4358 -4372 4663 0
-4358 -4373 4664 0
-4358 -4374 4665 0
-4358 -4375 4666 0
-4358 -4376 4667 0
-4359 -4368 4660 0
-4359 -4369 4661 0
-4359 -4370 4662 0
-4359 -4371 4663 0
-4359 -4372 4664 0
-4359 -4373 4665 0
-4359 -4374 4666 0
-4359 -4375 4667 0
-4360 -4368 4661 0
-4360 -4369 4662 0
-4360 -4370 4663 0
-4360 -4371 4664 0
-4360 -4372 4665 0
-4360 -4373 4666 0
-4360 -4374 4667 0
-4361 -4368 4662 0
-4361 -4369 4663 0
-4361 -4370 4664 0
-4361 -4371 4665 0
-4361 -4372 4666 0
-4361 -4373 4667 0
-4362 -4368 4663 0
-4362 -4369 4664 0
-4362 -4370 4665 0
-4362 -4371 4666 0
-4362 -4372 4667 0
-4363 -4368 4664 0
-4363 -4369 4665 0
-4363 -4370 4666 0
-4363 -4371 4667 0
-4364 -4368 4665 0
-4364 -4369 4666 0
-4364 -4370 4667 0
-4365 -4368 4666 0
-4365 -4369 4667 0
-4366 -4368 4667 0
-4418 4668 0
-4419 4669 0
-4420 4670 0
-4421 4671 0
-4422 4672 0
-4423 4673 0
-4424 4674 0
-4425 4675 0
-4426 4676 0
-4427 4677 0
-4428 4678 0
-4429 4679 0
-4430 4680 0
-4431 4681 0
-4432 4682 0
-4433 4683 0
-4434 4684 0
-4435 4685 0
-4436 4686 0
-4437 4687 0
-4438 4688 0
-4439 4689 0
-4440 4690 0
-4441 4691 0
-4442 4692 0
-4393 4668 0
-4394 4669 0
-4395 4670 0
-4396 4671 0
-4397 4672 0
-4398 4673 0
-4399 4674 0
-4400 4675 0
-4401 4676 0
-4402 4677 0
-4403 4678 0
-4404 4679 0
-4405 4680 0
-4406 4681 0
-4407 4682 0
-4408 4683 0
-4409 4684 0
-4410 4685 0
-4411 4686 0
-4412 4687 0
-4413 4688 0
-4414 4689 0
-4415 4690 0
-4416 4691 0
-4417 4692 0
-4393 -4418 4669 0
-4393 -4419 4670 0
-4393 -4420 4671 0
-4393 -4421 4672 0
-4393 -4422 4673 0
-4393 -4423 4674 0
-4393 -4424 4675 0
-4393 -4425 4676 0
-4393 -4426 4677 0
-4393 -4427 4678 0
-4393 -4428 4679 0
-4393 -4429 4680 0
-4393 -4430 4681 0
-4393 -4431 4682 0
-4393 -4432 4683 0
-4393 -4433 4684 0
-4393 -4434 4685 0
-4393 -4435 4686 0
-4393 -4436 4687 0
-4393 -4437 4688 0
-4393 -4438 4689 0
-4393 -4439 4690 0
-4393 -4440 4691 0
-4393 -4441 4692 0
-4394 -4418 4670 0
-4394 -4419 4671 0
-4394 -4420 4672 0
-4394 -4421 4673 0
-4394 -4422 4674 0
-4394 -4423 4675 0
-4394 -4424 4676 0
-4394 -4425 4677 0
-4394 -4426 4678 0
-4394 -4427 4679 0
-4394 -4428 4680 0
-4394 -4429 4681 0
-4394 -4430 4682 0
-4394 -4431 4683 0
-4394 -4432 4684 0
-4394 -4433 4685 0
-4394 -4434 4686 0
-4394 -4435 4687 0
-4394 -4436 4688 0
-4394 -4437 4689 0
-4394 -4438 4690 0
-4394 -4439 4691 0
-4394 -4440 4692 0
-4395 -4418 4671 0
-4395 -4419 4672 0
-4395 -4420 4673 0
-4395 -4421 4674 0
-4395 -4422 4675 0
-4395 -4423 4676 0
-4395 -4424 4677 0
-4395 -4425 4678 0
-4395 -4426 4679 0
-4395 -4427 4680 0
-4395 -4428 4681 0
-4395 -4429 4682 0
-4395 -4430 4683 0
-4395 -4431 4684 0
-4395 -4432 4685 0
-4395 -4433 4686 0
-4395 -4434 4687 0
-4395 -4435 4688 0
-4395 -4436 4689 0
-4395 -4437 4690 0
-4395 -4438 4691 0
-4395 -4439 4692 0
-4396 -4418 4672 0
-4396 -4419 4673 0
-4396 -4420 4674 0
-4396 -4421 4675 0
-4396 -4422 4676 0
-4396 -4423 4677 0
-4396 -4424 4678 0
-4396 -4425 4679 0
-4396 -4426 4680 0
-4396 -4427 4681 0
-4396 -4428 4682 0
-4396 -4429 4683 0
-4396 -4430 4684 0
-4396 -4431 4685 0
-4396 -4432 4686 0
-4396 -4433 4687 0
-4396 -4434 4688 0
-4396 -4435 4689 0
-4396 -4436 4690 0
-4396 -4437 4691 0
-4396 -4438 4692 0
-4397 -4418 4673 0
-4397 -4419 4674 0
-4397 -4420 4675 0
-4397 -4421 4676 0
-4397 -4422 4677 0
-4397 -4423 4678 0
-4397 -4424 4679 0
-4397 -4425 4680 0
-4397 -4426 4681 0
-4397 -4427 4682 0
-4397 -4428 4683 0
-4397 -4429 4684 0
-4397 -4430 4685 0
-4397 -4431 4686 0
-4397 -4432 4687 0
-4397 -4433 4688 0
-4397 -4434 4689 0
-4397 -4435 4690 0
-4397 -4436 4691 0
-4397 -4437 4692 0
-4398 -4418 4674 0
-4398 -4419 4675 0
-4398 -4420 4676 0
-4398 -4421 4677 0
-4398 -4422 4678 0
-4398 -4423 4679 0
-4398 -4424 4680 0
-4398 -4425 4681 0
-4398 -4426 4682 0
-4398 -4427 4683 0
-4398 -4428 4684 0
-4398 -4429 4685 0
-4398 -4430 4686 0
-4398 -4431 4687 0
-4398 -4432 4688 0
-4398 -4433 4689 0
-4398 -4434 4690 0
-4398 -4435 4691 0
-4398 -4436 4692 0
-4399 -4418 4675 0
-4399 -4419 4676 0
-4399 -4420 4677 0
-4399 -4421 4678 0
-4399 -4422 4679 0
-4399 -4423 4680 0
-4399 -4424 4681 0
-4399 -4425 4682 0
-4399 -4426 4683 0
-4399 -4427 4684 0
-4399 -4428 4685 0
-4399 -4429 4686 0
-4399 -4430 4687 0
-4399 -4431 4688 0
-4399 -4432 4689 0
-4399 -4433 4690 0
-4399 -4434 4691 0
-4399 -4435 4692 0
-4400 -4418 4676 0
-4400 -4419 4677 0
-4400 -4420 4678 0
-4400 -4421 4679 0
-4400 -4422 4680 0
-4400 -4423 4681 0
-4400 -4424 4682 0
-4400 -4425 4683 0
-4400 -4426 4684 0
-4400 -4427 4685 0
-4400 -4428 4686 0
-4400 -4429 4687 0
-4400 -4430 4688 0
-4400 -4431 4689 0
-4400 -4432 4690 0
-4400 -4433 4691 0
-4400 -4434 4692 0
-4401 -4418 4677 0
-4401 -4419 4678 0
-4401 -4420 4679 0
-4401 -4421 4680 0
-4401 -4422 4681 0
-4401 -4423 4682 0
-4401 -4424 4683 0
-4401 -4425 4684 0
-4401 -4426 4685 0
-4401 -4427 4686 0
-4401 -4428 4687 0
-4401 -4429 4688 0
-4401 -4430 4689 0
-4401 -4431 4690 0
-4401 -4432 4691 0
-4401 -4433 4692 0
-4402 -4418 4678 0
-4402 -4419 4679 0
-4402 -4420 4680 0
-4402 -4421 4681 0
-4402 -4422 4682 0
-4402 -4423 4683 0
-4402 -4424 4684 0
-4402 -4425 4685 0
-4402 -4426 4686 0
-4402 -4427 4687 0
-4402 -4428 4688 0
-4402 -4429 4689 0
-4402 -4430 4690 0
-4402 -4431 4691 0
-4402 -4432 4692 0
-4403 -4418 4679 0
-4403 -4419 4680 0
-4403 -4420 4681 0
-4403 -4421 4682 0
-4403 -4422 4683 0
-4403 -4423 4684 0
-4403 -4424 4685 0
-4403 -4425 4686 0
-4403 -4426 4687 0
-4403 -4427 4688 0
-4403 -4428 4689 0
-4403 -4429 4690 0
-4403 -4430 4691 0
-4403 -4431 4692 0
-4404 -4418 4680 0
-4404 -4419 4681 0
-4404 -4420 4682 0
-4404 -4421 4683 0
-4404 -4422 4684 0
-4404 -4423 4685 0
-4404 -4424 4686 0
-4404 -4425 4687 0
-4404 -4426 4688 0
-4404 -4427 4689 0
-4404 -4428 4690 0
-4404 -4429 4691 0
-4404 -4430 4692 0
-4405 -4418 4681 0
-4405 -4419 4682 0
-4405 -4420 4683 0
-4405 -4421 4684 0
-4405 -4422 4685 0
-4405 -4423 4686 0
-4405 -4424 4687 0
-4405 -4425 4688 0
-4405 -4426 4689 0
-4405 -4427 4690 0
-4405 -4428 4691 0
-4405 -4429 4692 0
-4406 -4418 4682 0
-4406 -4419 4683 0
-4406 -4420 4684 0
-4406 -4421 4685 0
-4406 -4422 4686 0
-4406 -4423 4687 0
-4406 -4424 4688 0
-4406 -4425 4689 0
-4406 -4426 4690 0
-4406 -4427 4691 0
-4406 -4428 4692 0
-4407 -4418 4683 0
-4407 -4419 4684 0
-4407 -4420 4685 0
-4407 -4421 4686 0
-4407 -4422 4687 0
-4407 -4423 4688 0
-4407 -4424 4689 0
-4407 -4425 4690 0
-4407 -4426 4691 0
-4407 -4427 4692 0
-4408 -4418 4684 0
-4408 -4419 4685 0
-4408 -4420 4686 0
-4408 -4421 4687 0
-4408 -4422 4688 0
-4408 -4423 4689 0
-4408 -4424 4690 0
-4408 -4425 4691 0
-4408 -4426 4692 0
-4409 -4418 4685 0
-4409 -4419 4686 0
-4409 -4420 4687 0
-4409 -4421 4688 0
-4409 -4422 4689 0
-4409 -4423 4690 0
-4409 -4424 4691 0
-4409 -4425 4692 0
-4410 -4418 4686 0
-4410 -4419 4687 0
-4410 -4420 4688 0
-4410 -4421 4689 0
-4410 -4422 4690 0
-4410 -4423 4691 0
-4410 -4424 4692 0
-4411 -4418 4687 0
-4411 -4419 4688 0
-4411 -4420 4689 0
-4411 -4421 4690 0
-4411 -4422 4691 0
-4411 -4423 4692 0
-4412 -4418 4688 0
-4412 -4419 4689 0
-4412 -4420 4690 0
-4412 -4421 4691 0
-4412 -4422 4692 0
-4413 -4418 4689 0
-4413 -4419 4690 0
-4413 -4420 4691 0
-4413 -4421 4692 0
-4414 -4418 4690 0
-4414 -4419 4691 0
-4414 -4420 4692 0
-4415 -4418 4691 0
-4415 -4419 4692 0
-4416 -4418 4692 0
-4468 4693 0
-4469 4694 0
-4470 4695 0
-4471 4696 0
-4472 4697 0
-4473 4698 0
-4474 4699 0
-4475 4700 0
-4476 4701 0
-4477 4702 0
-4478 4703 0
-4479 4704 0
-4480 4705 0
-4481 4706 0
-4482 4707 0
-4483 4708 0
-4484 4709 0
-4485 4710 0
-4486 4711 0
-4487 4712 0
-4488 4713 0
-4489 4714 0
-4490 4715 0
-4491 4716 0
-4492 4717 0
-4443 4693 0
-4444 4694 0
-4445 4695 0
-4446 4696 0
-4447 4697 0
-4448 4698 0
-4449 4699 0
-4450 4700 0
-4451 4701 0
-4452 4702 0
-4453 4703 0
-4454 4704 0
-4455 4705 0
-4456 4706 0
-4457 4707 0
-4458 4708 0
-4459 4709 0
-4460 4710 0
-4461 4711 0
-4462 4712 0
-4463 4713 0
-4464 4714 0
-4465 4715 0
-4466 4716 0
-4467 4717 0
-4443 -4468 4694 0
-4443 -4469 4695 0
-4443 -4470 4696 0
-4443 -4471 4697 0
-4443 -4472 4698 0
-4443 -4473 4699 0
-4443 -4474 4700 0
-4443 -4475 4701 0
-4443 -4476 4702 0
-4443 -4477 4703 0
-4443 -4478 4704 0
-4443 -4479 4705 0
-4443 -4480 4706 0
-4443 -4481 4707 0
-4443 -4482 4708 0
-4443 -4483 4709 0
-4443 -4484 4710 0
-4443 -4485 4711 0
-4443 -4486 4712 0
-4443 -4487 4713 0
-4443 -4488 4714 0
-4443 -4489 4715 0
-4443 -4490 4716 0
-4443 -4491 4717 0
-4444 -4468 4695 0
-4444 -4469 4696 0
-4444 -4470 4697 0
-4444 -4471 4698 0
-4444 -4472 4699 0
-4444 -4473 4700 0
-4444 -4474 4701 0
-4444 -4475 4702 0
-4444 -4476 4703 0
-4444 -4477 4704 0
-4444 -4478 4705 0
-4444 -4479 4706 0
-4444 -4480 4707 0
-4444 -4481 4708 0
-4444 -4482 4709 0
-4444 -4483 4710 0
-4444 -4484 4711 0
-4444 -4485 4712 0
-4444 -4486 4713 0
-4444 -4487 4714 0
-4444 -4488 4715 0
-4444 -4489 4716 0
-4444 -4490 4717 0
-4445 -4468 4696 0
-4445 -4469 4697 0
-4445 -4470 4698 0
-4445 -4471 4699 0
-4445 -4472 4700 0
-4445 -4473 4701 0
-4445 -4474 4702 0
-4445 -4475 4703 0
-4445 -4476 4704 0
-4445 -4477 4705 0
-4445 -4478 4706 0
-4445 -4479 4707 0
-4445 -4480 4708 0
-4445 -4481 4709 0
-4445 -4482 4710 0
-4445 -4483 4711 0
-4445 -4484 4712 0
-4445 -4485 4713 0
-4445 -4486 4714 0
-4445 -4487 4715 0
-4445 -4488 4716 0
-4445 -4489 4717 0
-4446 -4468 4697 0
-4446 -4469 4698 0
-4446 -4470 4699 0
-4446 -4471 4700 0
-4446 -4472 4701 0
-4446 -4473 4702 0
-4446 -4474 4703 0
-4446 -4475 4704 0
-4446 -4476 4705 0
-4446 -4477 4706 0
-4446 -4478 4707 0
-4446 -4479 4708 0
-4446 -4480 4709 0
-4446 -4481 4710 0
-4446 -4482 4711 0
-4446 -4483 4712 0
-4446 -4484 4713 0
-4446 -4485 4714 0
-4446 -4486 4715 0
-4446 -4487 4716 0
-4446 -4488 4717 0
-4447 -4468 4698 0
-4447 -4469 4699 0
-4447 -4470 4700 0
-4447 -4471 4701 0
-4447 -4472 4702 0
-4447 -4473 4703 0
-4447 -4474 4704 0
-4447 -4475 4705 0
-4447 -4476 4706 0
-4447 -4477 4707 0
-4447 -4478 4708 0
-4447 -4479 4709 0
-4447 -4480 4710 0
-4447 -4481 4711 0
-4447 -4482 4712 0
-4447 -4483 4713 0
-4447 -4484 4714 0
-4447 -4485 4715 0
-4447 -4486 4716 0
-4447 -4487 4717 0
-4448 -4468 4699 0
-4448 -4469 4700 0
-4448 -4470 4701 0
-4448 -4471 4702 0
-4448 -4472 4703 0
-4448 -4473 4704 0
-4448 -4474 4705 0
-4448 -4475 4706 0
-4448 -4476 4707 0
-4448 -4477 4708 0
-4448 -4478 4709 0
-4448 -4479 4710 0
-4448 -4480 4711 0
-4448 -4481 4712 0
-4448 -4482 4713 0
-4448 -4483 4714 0
-4448 -4484 4715 0
-4448 -4485 4716 0
-4448 -4486 4717 0
-4449 -4468 4700 0
-4449 -4469 4701 0
-4449 -4470 4702 0
-4449 -4471 4703 0
-4449 -4472 4704 0
-4449 -4473 4705 0
-4449 -4474 4706 0
-4449 -4475 4707 0
-4449 -4476 4708 0
-4449 -4477 4709 0
-4449 -4478 4710 0
-4449 -4479 4711 0
-4449 -4480 4712 0
-4449 -4481 4713 0
-4449 -4482 4714 0
-4449 -4483 4715 0
-4449 -4484 4716 0
-4449 -4485 4717 0
-4450 -4468 4701 0
-4450 -4469 4702 0
-4450 -4470 4703 0
-4450 -4471 4704 0
-4450 -4472 4705 0
-4450 -4473 4706 0
-4450 -4474 4707 0
-4450 -4475 4708 0
-4450 -4476 4709 0
-4450 -4477 4710 0
-4450 -4478 4711 0
-4450 -4479 4712 0
-4450 -4480 4713 0
-4450 -4481 4714 0
-4450 -4482 4715 0
-4450 -4483 4716 0
-4450 -4484 4717 0
-4451 -4468 4702 0
-4451 -4469 4703 0
-4451 -4470 4704 0
-4451 -4471 4705 0
-4451 -4472 4706 0
-4451 -4473 4707 0
-4451 -4474 4708 0
-4451 -4475 4709 0
-4451 -4476 4710 0
-4451 -4477 4711 0
-4451 -4478 4712 0
-4451 -4479 4713 0
-4451 -4480 4714 0
-4451 -4481 4715 0
-4451 -4482 4716 0
-4451 -4483 4717 0
-4452 -4468 4703 0
-4452 -4469 4704 0
-4452 -4470 4705 0
-4452 -4471 4706 0
-4452 -4472 4707 0
-4452 -4473 4708 0
-4452 -4474 4709 0
-4452 -4475 4710 0
-4452 -4476 4711 0
-4452 -4477 4712 0
-4452 -4478 4713 0
-4452 -4479 4714 0
-4452 -4480 4715 0
-4452 -4481 4716 0
-4452 -4482 4717 0
-4453 -4468 4704 0
-4453 -4469 4705 0
-4453 -4470 4706 0
-4453 -4471 4707 0
-4453 -4472 4708 0
-4453 -4473 4709 0
-4453 -4474 4710 0
-4453 -4475 4711 0
-4453 -4476 4712 0
-4453 -4477 4713 0
-4453 -4478 4714 0
-4453 -4479 4715 0
-4453 -4480 4716 0
-4453 -4481 4717 0
-4454 -4468 4705 0
-4454 -4469 4706 0
-4454 -4470 4707 0
-4454 -4471 4708 0
-4454 -4472 4709 0
-4454 -4473 4710 0
-4454 -4474 4711 0
-4454 -4475 4712 0
-4454 -4476 4713 0
-4454 -4477 4714 0
-4454 -4478 4715 0
-4454 -4479 4716 0
-4454 -4480 4717 0
-4455 -4468 4706 0
-4455 -4469 4707 0
-4455 -4470 4708 0
-4455 -4471 4709 0
-4455 -4472 4710 0
-4455 -4473 4711 0
-4455 -4474 4712 0
-4455 -4475 4713 0
-4455 -4476 4714 0
-4455 -4477 4715 0
-4455 -4478 4716 0
-4455 -4479 4717 0
-4456 -4468 4707 0
-4456 -4469 4708 0
-4456 -4470 4709 0
-4456 -4471 4710 0
-4456 -4472 4711 0
-4456 -4473 4712 0
-4456 -4474 4713 0
-4456 -4475 4714 0
-4456 -4476 4715 0
-4456 -4477 4716 0
-4456 -4478 4717 0
-4457 -4468 4708 0
-4457 -4469 4709 0
-4457 -4470 4710 0
-4457 -4471 4711 0
-4457 -4472 4712 0
-4457 -4473 4713 0
-4457 -4474 4714 0
-4457 -4475 4715 0
-4457 -4476 4716 0
-4457 -4477 4717 0
-4458 -4468 4709 0
-4458 -4469 4710 0
-4458 -4470 4711 0
-4458 -4471 4712 0
-4458 -4472 4713 0
-4458 -4473 4714 0
-4458 -4474 4715 0
-4458 -4475 4716 0
-4458 -4476 4717 0
-4459 -4468 4710 0
-4459 -4469 4711 0
-4459 -4470 4712 0
-4459 -4471 4713 0
-4459 -4472 4714 0
-4459 -4473 4715 0
-4459 -4474 4716 0
-4459 -4475 4717 0
-4460 -4468 4711 0
-4460 -4469 4712 0
-4460 -4470 4713 0
-4460 -4471 4714 0
-4460 -4472 4715 0
-4460 -4473 4716 0
-4460 -4474 4717 0
-4461 -4468 4712 0
-4461 -4469 4713 0
-4461 -4470 4714 0
-4461 -4471 4715 0
-4461 -4472 4716 0
-4461 -4473 4717 0
-4462 -4468 4713 0
-4462 -4469 4714 0
-4462 -4470 4715 0
-4462 -4471 4716 0
-4462 -4472 4717 0
-4463 -4468 4714 0
-4463 -4469 4715 0
-4463 -4470 4716 0
-4463 -4471 4717 0
-4464 -4468 4715 0
-4464 -4469 4716 0
-4464 -4470 4717 0
-4465 -4468 4716 0
-4465 -4469 4717 0
-4466 -4468 4717 0
-4518 4718 0
-4519 4719 0
-4520 4720 0
-4521 4721 0
-4522 4722 0
-4523 4723 0
-4524 4724 0
-4525 4725 0
-4526 4726 0
-4527 4727 0
-4528 4728 0
-4529 4729 0
-4530 4730 0
-4531 4731 0
-4532 4732 0
-4533 4733 0
-4534 4734 0
-4535 4735 0
-4536 4736 0
-4537 4737 0
-4538 4738 0
-4539 4739 0
-4540 4740 0
-4541 4741 0
-4542 4742 0
-4493 4718 0
-4494 4719 0
-4495 4720 0
-4496 4721 0
-4497 4722 0
-4498 4723 0
-4499 4724 0
-4500 4725 0
-4501 4726 0
-4502 4727 0
-4503 4728 0
-4504 4729 0
-4505 4730 0
-4506 4731 0
-4507 4732 0
-4508 4733 0
-4509 4734 0
-4510 4735 0
-4511 4736 0
-4512 4737 0
-4513 4738 0
-4514 4739 0
-4515 4740 0
-4516 4741 0
-4517 4742 0
-4493 -4518 4719 0
-4493 -4519 4720 0
-4493 -4520 4721 0
-4493 -4521 4722 0
-4493 -4522 4723 0
-4493 -4523 4724 0
-4493 -4524 4725 0
-4493 -4525 4726 0
-4493 -4526 4727 0
-4493 -4527 4728 0
-4493 -4528 4729 0
-4493 -4529 4730 0
-4493 -4530 4731 0
-4493 -4531 4732 0
-4493 -4532 4733 0
-4493 -4533 4734 0
-4493 -4534 4735 0
-4493 -4535 4736 0
-4493 -4536 4737 0
-4493 -4537 4738 0
-4493 -4538 4739 0
-4493 -4539 4740 0
-4493 -4540 4741 0
-4493 -4541 4742 0
-4494 -4518 4720 0
-4494 -4519 4721 0
-4494 -4520 4722 0
-4494 -4521 4723 0
-4494 -4522 4724 0
-4494 -4523 4725 0
-4494 -4524 4726 0
-4494 -4525 4727 0
-4494 -4526 4728 0
-4494 -4527 4729 0
-4494 -4528 4730 0
-4494 -4529 4731 0
-4494 -4530 4732 0
-4494 -4531 4733 0
-4494 -4532 4734 0
-4494 -4533 4735 0
-4494 -4534 4736 0
-4494 -4535 4737 0
-4494 -4536 4738 0
-4494 -4537 4739 0
-4494 -4538 4740 0
-4494 -4539 4741 0
-4494 -4540 4742 0
-4495 -4518 4721 0
-4495 -4519 4722 0
-4495 -4520 4723 0
-4495 -4521 4724 0
-4495 -4522 4725 0
-4495 -4523 4726 0
-4495 -4524 4727 0
-4495 -4525 4728 0
-4495 -4526 4729 0
-4495 -4527 4730 0
-4495 -4528 4731 0
-4495 -4529 4732 0
-4495 -4530 4733 0
-4495 -4531 4734 0
-4495 -4532 4735 0
-4495 -4533 4736 0
-4495 -4534 4737 0
-4495 -4535 4738 0
-4495 -4536 4739 0
-4495 -4537 4740 0
-4495 -4538 4741 0
-4495 -4539 4742 0
-4496 -4518 4722 0
-4496 -4519 4723 0
-4496 -4520 4724 0
-4496 -4521 4725 0
-4496 -4522 4726 0
-4496 -4523 4727 0
-4496 -4524 4728 0
-4496 -4525 4729 0
-4496 -4526 4730 0
-4496 -4527 4731 0
-4496 -4528 4732 0
-4496 -4529 4733 0
-4496 -4530 4734 0
-4496 -4531 4735 0
-4496 -4532 4736 0
-4496 -4533 4737 0
-4496 -4534 4738 0
-4496 -4535 4739 0
-4496 -4536 4740 0
-4496 -4537 4741 0
-4496 -4538 4742 0
-4497 -4518 4723 0
-4497 -4519 4724 0
-4497 -4520 4725 0
-4497 -4521 4726 0
-4497 -4522 4727 0
-4497 -4523 4728 0
-4497 -4524 4729 0
-4497 -4525 4730 0
-4497 -4526 4731 0
-4497 -4527 4732 0
-4497 -4528 4733 0
-4497 -4529 4734 0
-4497 -4530 4735 0
-4497 -4531 4736 0
-4497 -4532 4737 0
-4497 -4533 4738 0
-4497 -4534 4739 0
-4497 -4535 4740 0
-4497 -4536 4741 0
-4497 -4537 4742 0
-4498 -4518 4724 0
-4498 -4519 4725 0
-4498 -4520 4726 0
-4498 -4521 4727 0
-4498 -4522 4728 0
-4498 -4523 4729 0
-4498 -4524 4730 0
-4498 -4525 4731 0
-4498 -4526 4732 0
-4498 -4527 4733 0
-4498 -4528 4734 0
-4498 -4529 4735 0
-4498 -4530 4736 0
-4498 -4531 4737 0
-4498 -4532 4738 0
-4498 -4533 4739 0
-4498 -4534 4740 0
-4498 -4535 4741 0
-4498 -4536 4742 0
-4499 -4518 4725 0
-4499 -4519 4726 0
-4499 -4520 4727 0
-4499 -4521 4728 0
-4499 -4522 4729 0
-4499 -4523 4730 0
-4499 -4524 4731 0
-4499 -4525 4732 0
-4499 -4526 4733 0
-4499 -4527 4734 0
-4499 -4528 4735 0
-4499 -4529 4736 0
-4499 -4530 4737 0
-4499 -4531 4738 0
-4499 -4532 4739 0
-4499 -4533 4740 0
-4499 -4534 4741 0
-4499 -4535 4742 0
-4500 -4518 4726 0
-4500 -4519 4727 0
-4500 -4520 4728 0
-4500 -4521 4729 0
-4500 -4522 4730 0
-4500 -4523 4731 0
-4500 -4524 4732 0
-4500 -4525 4733 0
-4500 -4526 4734 0
-4500 -4527 4735 0
-4500 -4528 4736 0
-4500 -4529 4737 0
-4500 -4530 4738 0
-4500 -4531 4739 0
-4500 -4532 4740 0
-4500 -4533 4741 0
-4500 -4534 4742 0
-4501 -4518 4727 0
-4501 -4519 4728 0
-4501 -4520 4729 0
-4501 -4521 4730 0
-4501 -4522 4731 0
-4501 -4523 4732 0
-4501 -4524 4733 0
-4501 -4525 4734 0
-4501 -4526 4735 0
-4501 -4527 4736 0
-4501 -4528 4737 0
-4501 -4529 4738 0
-4501 -4530 4739 0
-4501 -4531 4740 0
-4501 -4532 4741 0
-4501 -4533 4742 0
-4502 -4518 4728 0
-4502 -4519 4729 0
-4502 -4520 4730 0
-4502 -4521 4731 0
-4502 -4522 4732 0
-4502 -4523 4733 0
-4502 -4524 4734 0
-4502 -4525 4735 0
-4502 -4526 4736 0
-4502 -4527 4737 0
-4502 -4528 4738 0
-4502 -4529 4739 0
-4502 -4530 4740 0
-4502 -4531 4741 0
-4502 -4532 4742 0
-4503 -4518 4729 0
-4503 -4519 4730 0
-4503 -4520 4731 0
-4503 -4521 4732 0
-4503 -4522 4733 0
-4503 -4523 4734 0
-4503 -4524 4735 0
-4503 -4525 4736 0
-4503 -4526 4737 0
-4503 -4527 4738 0
-4503 -4528 4739 0
-4503 -4529 4740 0
-4503 -4530 4741 0
-4503 -4531 4742 0
-4504 -4518 4730 0
-4504 -4519 4731 0
-4504 -4520 4732 0
-4504 -4521 4733 0
-4504 -4522 4734 0
-4504 -4523 4735 0
-4504 -4524 4736 0
-4504 -4525 4737 0
-4504 -4526 4738 0
-4504 -4527 4739 0
-4504 -4528 4740 0
-4504 -4529 4741 0
-4504 -4530 4742 0
-4505 -4518 4731 0
-4505 -4519 4732 0
-4505 -4520 4733 0
-4505 -4521 4734 0
-4505 -4522 4735 0
-4505 -4523 4736 0
-4505 -4524 4737 0
-4505 -4525 4738 0
-4505 -4526 4739 0
-4505 -4527 4740 0
-4505 -4528 4741 0
-4505 -4529 4742 0
-4506 -4518 4732 0
-4506 -4519 4733 0
-4506 -4520 4734 0
-4506 -4521 4735 0
-4506 -4522 4736 0
-4506 -4523 4737 0
-4506 -4524 4738 0
-4506 -4525 4739 0
-4506 -4526 4740 0
-4506 -4527 4741 0
-4506 -4528 4742 0
-4507 -4518 4733 0
-4507 -4519 4734 0
-4507 -4520 4735 0
-4507 -4521 4736 0
-4507 -4522 4737 0
-4507 -4523 4738 0
-4507 -4524 4739 0
-4507 -4525 4740 0
-4507 -4526 4741 0
-4507 -4527 4742 0
-4508 -4518 4734 0
-4508 -4519 4735 0
-4508 -4520 4736 0
-4508 -4521 4737 0
-4508 -4522 4738 0
-4508 -4523 4739 0
-4508 -4524 4740 0
-4508 -4525 4741 0
-4508 -4526 4742 0
-4509 -4518 4735 0
-4509 -4519 4736 0
-4509 -4520 4737 0
-4509 -4521 4738 0
-4509 -4522 4739 0
-4509 -4523 4740 0
-4509 -4524 4741 0
-4509 -4525 4742 0
-4510 -4518 4736 0
-4510 -4519 4737 0
-4510 -4520 4738 0
-4510 -4521 4739 0
-4510 -4522 4740 0
-4510 -4523 4741 0
-4510 -4524 4742 0
-4511 -4518 4737 0
-4511 -4519 4738 0
-4511 -4520 4739 0
-4511 -4521 4740 0
-4511 -4522 4741 0
-4511 -4523 4742 0
-4512 -4518 4738 0
-4512 -4519 4739 0
-4512 -4520 4740 0
-4512 -4521 4741 0
-4512 -4522 4742 0
-4513 -4518 4739 0
-4513 -4519 4740 0
-4513 -4520 4741 0
-4513 -4521 4742 0
-4514 -4518 4740 0
-4514 -4519 4741 0
-4514 -4520 4742 0
-4515 -4518 4741 0
-4515 -4519 4742 0
-4516 -4518 4742 0
-4568 4743 0
-4569 4744 0
-4570 4745 0
-4571 4746 0
-4572 4747 0
-4573 4748 0
-4574 4749 0
-4575 4750 0
-4576 4751 0
-4577 4752 0
-4578 4753 0
-4579 4754 0
-4580 4755 0
-4581 4756 0
-4582 4757 0
-4583 4758 0
-4584 4759 0
-4585 4760 0
-4586 4761 0
-4587 4762 0
-4588 4763 0
-4589 4764 0
-4590 4765 0
-4591 4766 0
-4592 4767 0
-4543 4743 0
-4544 4744 0
-4545 4745 0
-4546 4746 0
-4547 4747 0
-4548 4748 0
-4549 4749 0
-4550 4750 0
-4551 4751 0
-4552 4752 0
-4553 4753 0
-4554 4754 0
-4555 4755 0
-4556 4756 0
-4557 4757 0
-4558 4758 0
-4559 4759 0
-4560 4760 0
-4561 4761 0
-4562 4762 0
-4563 4763 0
-4564 4764 0
-4565 4765 0
-4566 4766 0
-4567 4767 0
-4543 -4568 4744 0
-4543 -4569 4745 0
-4543 -4570 4746 0
-4543 -4571 4747 0
-4543 -4572 4748 0
-4543 -4573 4749 0
-4543 -4574 4750 0
-4543 -4575 4751 0
-4543 -4576 4752 0
-4543 -4577 4753 0
-4543 -4578 4754 0
-4543 -4579 4755 0
-4543 -4580 4756 0
-4543 -4581 4757 0
-4543 -4582 4758 0
-4543 -4583 4759 0
-4543 -4584 4760 0
-4543 -4585 4761 0
-4543 -4586 4762 0
-4543 -4587 4763 0
-4543 -4588 4764 0
-4543 -4589 4765 0
-4543 -4590 4766 0
-4543 -4591 4767 0
-4544 -4568 4745 0
-4544 -4569 4746 0
-4544 -4570 4747 0
-4544 -4571 4748 0
-4544 -4572 4749 0
-4544 -4573 4750 0
-4544 -4574 4751 0
-4544 -4575 4752 0
-4544 -4576 4753 0
-4544 -4577 4754 0
-4544 -4578 4755 0
-4544 -4579 4756 0
-4544 -4580 4757 0
-4544 -4581 4758 0
-4544 -4582 4759 0
-4544 -4583 4760 0
-4544 -4584 4761 0
-4544 -4585 4762 0
-4544 -4586 4763 0
-4544 -4587 4764 0
-4544 -4588 4765 0
-4544 -4589 4766 0
-4544 -4590 4767 0
-4545 -4568 4746 0
-4545 -4569 4747 0
-4545 -4570 4748 0
-4545 -4571 4749 0
-4545 -4572 4750 0
-4545 -4573 4751 0
-4545 -4574 4752 0
-4545 -4575 4753 0
-4545 -4576 4754 0
-4545 -4577 4755 0
-4545 -4578 4756 0
-4545 -4579 4757 0
-4545 -4580 4758 0
-4545 -4581 4759 0
-4545 -4582 4760 0
-4545 -4583 4761 0
-4545 -4584 4762 0
-4545 -4585 4763 0
-4545 -4586 4764 0
-4545 -4587 4765 0
-4545 -4588 4766 0
-4545 -4589 4767 0
-4546 -4568 4747 0
-4546 -4569 4748 0
-4546 -4570 4749 0
-4546 -4571 4750 0
-4546 -4572 4751 0
-4546 -4573 4752 0
-4546 -4574 4753 0
-4546 -4575 4754 0
-4546 -4576 4755 0
-4546 -4577 4756 0
-4546 -4578 4757 0
-4546 -4579 4758 0
-4546 -4580 4759 0
-4546 -4581 4760 0
-4546 -4582 4761 0
-4546 -4583 4762 0
-4546 -4584 4763 0
-4546 -4585 4764 0
-4546 -4586 4765 0
-4546 -4587 4766 0
-4546 -4588 4767 0
-4547 -4568 4748 0
-4547 -4569 4749 0
-4547 -4570 4750 0
-4547 -4571 4751 0
-4547 -4572 4752 0
-4547 -4573 4753 0
-4547 -4574 4754 0
-4547 -4575 4755 0
-4547 -4576 4756 0
-4547 -4577 4757 0
-4547 -4578 4758 0
-4547 -4579 4759 0
-4547 -4580 4760 0
-4547 -4581 4761 0
-4547 -4582 4762 0
-4547 -4583 4763 0
-4547 -4584 4764 0
-4547 -4585 4765 0
-4547 -4586 4766 0
-4547 -4587 4767 0
-4548 -4568 4749 0
-4548 -4569 4750 0
-4548 -4570 4751 0
-4548 -4571 4752 0
-4548 -4572 4753 0
-4548 -4573 4754 0
-4548 -4574 4755 0
-4548 -4575 4756 0
-4548 -4576 4757 0
-4548 -4577 4758 0
-4548 -4578 4759 0
-4548 -4579 4760 0
-4548 -4580 4761 0
-4548 -4581 4762 0
-4548 -4582 4763 0
-4548 -4583 4764 0
-4548 -4584 4765 0
-4548 -4585 4766 0
-4548 -4586 4767 0
-4549 -4568 4750 0
-4549 -4569 4751 0
-4549 -4570 4752 0
-4549 -4571 4753 0
-4549 -4572 4754 0
-4549 -4573 4755 0
-4549 -4574 4756 0
-4549 -4575 4757 0
-4549 -4576 4758 0
-4549 -4577 4759 0
-4549 -4578 4760 0
-4549 -4579 4761 0
-4549 -4580 4762 0
-4549 -4581 4763 0
-4549 -4582 4764 0
-4549 -4583 4765 0
-4549 -4584 4766 0
-4549 -4585 4767 0
-4550 -4568 4751 0
-4550 -4569 4752 0
-4550 -4570 4753 0
-4550 -4571 4754 0
-4550 -4572 4755 0
-4550 -4573 4756 0
-4550 -4574 4757 0
-4550 -4575 4758 0
-4550 -4576 4759 0
-4550 -4577 4760 0
-4550 -4578 4761 0
-4550 -4579 4762 0
-4550 -4580 4763 0
-4550 -4581 4764 0
-4550 -4582 4765 0
-4550 -4583 4766 0
-4550 -4584 4767 0
-4551 -4568 4752 0
-4551 -4569 4753 0
-4551 -4570 4754 0
-4551 -4571 4755 0
-4551 -4572 4756 0
-4551 -4573 4757 0
-4551 -4574 4758 0
-4551 -4575 4759 0
-4551 -4576 4760 0
-4551 -4577 4761 0
-4551 -4578 4762 0
-4551 -4579 4763 0
-4551 -4580 4764 0
-4551 -4581 4765 0
-4551 -4582 4766 0
-4551 -4583 4767 0
-4552 -4568 4753 0
-4552 -4569 4754 0
-4552 -4570 4755 0
-4552 -4571 4756 0
-4552 -4572 4757 0
-4552 -4573 4758 0
-4552 -4574 4759 0
-4552 -4575 4760 0
-4552 -4576 4761 0
-4552 -4577 4762 0
-4552 -4578 4763 0
-4552 -4579 4764 0
-4552 -4580 4765 0
-4552 -4581 4766 0
-4552 -4582 4767 0
-4553 -4568 4754 0
-4553 -4569 4755 0
-4553 -4570 4756 0
-4553 -4571 4757 0
-4553 -4572 4758 0
-4553 -4573 4759 0
-4553 -4574 4760 0
-4553 -4575 4761 0
-4553 -4576 4762 0
-4553 -4577 4763 0
-4553 -4578 4764 0
-4553 -4579 4765 0
-4553 -4580 4766 0
-4553 -4581 4767 0
-4554 -4568 4755 0
-4554 -4569 4756 0
-4554 -4570 4757 0
-4554 -4571 4758 0
-4554 -4572 4759 0
-4554 -4573 4760 0
-4554 -4574 4761 0
-4554 -4575 4762 0
-4554 -4576 4763 0
-4554 -4577 4764 0
-4554 -4578 4765 0
-4554 -4579 4766 0
-4554 -4580 4767 0
-4555 -4568 4756 0
-4555 -4569 4757 0
-4555 -4570 4758 0
-4555 -4571 4759 0
-4555 -4572 4760 0
-4555 -4573 4761 0
-4555 -4574 4762 0
-4555 -4575 4763 0
-4555 -4576 4764 0
-4555 -4577 4765 0
-4555 -4578 4766 0
-4555 -4579 4767 0
-4556 -4568 4757 0
-4556 -4569 4758 0
-4556 -4570 4759 0
-4556 -4571 4760 0
-4556 -4572 4761 0
-4556 -4573 4762 0
-4556 -4574 4763 0
-4556 -4575 4764 0
-4556 -4576 4765 0
-4556 -4577 4766 0
-4556 -4578 4767 0
-4557 -4568 4758 0
-4557 -4569 4759 0
-4557 -4570 4760 0
-4557 -4571 4761 0
-4557 -4572 4762 0
-4557 -4573 4763 0
-4557 -4574 4764 0
-4557 -4575 4765 0
-4557 -4576 4766 0
-4557 -4577 4767 0
-4558 -4568 4759 0
-4558 -4569 4760 0
-4558 -4570 4761 0
-4558 -4571 4762 0
-4558 -4572 4763 0
-4558 -4573 4764 0
-4558 -4574 4765 0
-4558 -4575 4766 0
-4558 -4576 4767 0
-4559 -4568 4760 0
-4559 -4569 4761 0
-4559 -4570 4762 0
-4559 -4571 4763 0
-4559 -4572 4764 0
-4559 -4573 4765 0
-4559 -4574 4766 0
-4559 -4575 4767 0
-4560 -4568 4761 0
-4560 -4569 4762 0
-4560 -4570 4763 0
-4560 -4571 4764 0
-4560 -4572 4765 0
-4560 -4573 4766 0
-4560 -4574 4767 0
-4561 -4568 4762 0
-4561 -4569 4763 0
-4561 -4570 4764 0
-4561 -4571 4765 0
-4561 -4572 4766 0
-4561 -4573 4767 0
-4562 -4568 4763 0
-4562 -4569 4764 0
-4562 -4570 4765 0
-4562 -4571 4766 0
-4562 -4572 4767 0
-4563 -4568 4764 0
-4563 -4569 4765 0
-4563 -4570 4766 0
-4563 -4571 4767 0
-4564 -4568 4765 0
-4564 -4569 4766 0
-4564 -4570 4767 0
-4565 -4568 4766 0
-4565 -4569 4767 0
-4566 -4568 4767 0
-4618 4768 0
-4619 4769 0
-4620 4770 0
-4621 4771 0
-4622 4772 0
-4623 4773 0
-4624 4774 0
-4625 4775 0
-4626 4776 0
-4627 4777 0
-4628 4778 0
-4629 4779 0
-4630 4780 0
-4631 4781 0
-4632 4782 0
-4633 4783 0
-4634 4784 0
-4635 4785 0
-4636 4786 0
-4637 4787 0
-4638 4788 0
-4639 4789 0
-4640 4790 0
-4641 4791 0
-4642 4792 0
-4593 4768 0
-4594 4769 0
-4595 4770 0
-4596 4771 0
-4597 4772 0
-4598 4773 0
-4599 4774 0
-4600 4775 0
-4601 4776 0
-4602 4777 0
-4603 4778 0
-4604 4779 0
-4605 4780 0
-4606 4781 0
-4607 4782 0
-4608 4783 0
-4609 4784 0
-4610 4785 0
-4611 4786 0
-4612 4787 0
-4613 4788 0
-4614 4789 0
-4615 4790 0
-4616 4791 0
-4617 4792 0
-4593 -4618 4769 0
-4593 -4619 4770 0
-4593 -4620 4771 0
-4593 -4621 4772 0
-4593 -4622 4773 0
-4593 -4623 4774 0
-4593 -4624 4775 0
-4593 -4625 4776 0
-4593 -4626 4777 0
-4593 -4627 4778 0
-4593 -4628 4779 0
-4593 -4629 4780 0
-4593 -4630 4781 0
-4593 -4631 4782 0
-4593 -4632 4783 0
-4593 -4633 4784 0
-4593 -4634 4785 0
-4593 -4635 4786 0
-4593 -4636 4787 0
-4593 -4637 4788 0
-4593 -4638 4789 0
-4593 -4639 4790 0
-4593 -4640 4791 0
-4593 -4641 4792 0
-4594 -4618 4770 0
-4594 -4619 4771 0
-4594 -4620 4772 0
-4594 -4621 4773 0
-4594 -4622 4774 0
-4594 -4623 4775 0
-4594 -4624 4776 0
-4594 -4625 4777 0
-4594 -4626 4778 0
-4594 -4627 4779 0
-4594 -4628 4780 0
-4594 -4629 4781 0
-4594 -4630 4782 0
-4594 -4631 4783 0
-4594 -4632 4784 0
-4594 -4633 4785 0
-4594 -4634 4786 0
-4594 -4635 4787 0
-4594 -4636 4788 0
-4594 -4637 4789 0
-4594 -4638 4790 0
-4594 -4639 4791 0
-4594 -4640 4792 0
-4595 -4618 4771 0
-4595 -4619 4772 0
-4595 -4620 4773 0
-4595 -4621 4774 0
-4595 -4622 4775 0
-4595 -4623 4776 0
-4595 -4624 4777 0
-4595 -4625 4778 0
-4595 -4626 4779 0
-4595 -4627 4780 0
-4595 -4628 4781 0
-4595 -4629 4782 0
-4595 -4630 4783 0
-4595 -4631 4784 0
-4595 -4632 4785 0
-4595 -4633 4786 0
-4595 -4634 4787 0
-4595 -4635 4788 0
-4595 -4636 4789 0
-4595 -4637 4790 0
-4595 -4638 4791 0
-4595 -4639 4792 0
-4596 -4618 4772 0
-4596 -4619 4773 0
-4596 -4620 4774 0
-4596 -4621 4775 0
-4596 -4622 4776 0
-4596 -4623 4777 0
-4596 -4624 4778 0
-4596 -4625 4779 0
-4596 -4626 4780 0
-4596 -4627 4781 0
-4596 -4628 4782 0
-4596 -4629 4783 0
-4596 -4630 4784 0
-4596 -4631 4785 0
-4596 -4632 4786 0
-4596 -4633 4787 0
-4596 -4634 4788 0
-4596 -4635 4789 0
-4596 -4636 4790 0
-4596 -4637 4791 0
-4596 -4638 4792 0
-4597 -4618 4773 0
-4597 -4619 4774 0
-4597 -4620 4775 0
-4597 -4621 4776 0
-4597 -4622 4777 0
-4597 -4623 4778 0
-4597 -4624 4779 0
-4597 -4625 4780 0
-4597 -4626 4781 0
-4597 -4627 4782 0
-4597 -4628 4783 0
-4597 -4629 4784 0
-4597 -4630 4785 0
-4597 -4631 4786 0
-4597 -4632 4787 0
-4597 -4633 4788 0
-4597 -4634 4789 0
-4597 -4635 4790 0
-4597 -4636 4791 0
-4597 -4637 4792 0
-4598 -4618 4774 0
-4598 -4619 4775 0
-4598 -4620 4776 0
-4598 -4621 4777 0
-4598 -4622 4778 0
-4598 -4623 4779 0
-4598 -4624 4780 0
-4598 -4625 4781 0
-4598 -4626 4782 0
-4598 -4627 4783 0
-4598 -4628 4784 0
-4598 -4629 4785 0
-4598 -4630 4786 0
-4598 -4631 4787 0
-4598 -4632 4788 0
-4598 -4633 4789 0
-4598 -4634 4790 0
-4598 -4635 4791 0
-4598 -4636 4792 0
-4599 -4618 4775 0
-4599 -4619 4776 0
-4599 -4620 4777 0
-4599 -4621 4778 0
-4599 -4622 4779 0
-4599 -4623 4780 0
-4599 -4624 4781 0
-4599 -4625 4782 0
-4599 -4626 4783 0
-4599 -4627 4784 0
-4599 -4628 4785 0
-4599 -4629 4786 0
-4599 -4630 4787 0
-4599 -4631 4788 0
-4599 -4632 4789 0
-4599 -4633 4790 0
-4599 -4634 4791 0
-4599 -4635 4792 0
-4600 -4618 4776 0
-4600 -4619 4777 0
-4600 -4620 4778 0
-4600 -4621 4779 0
-4600 -4622 4780 0
-4600 -4623 4781 0
-4600 -4624 4782 0
-4600 -4625 4783 0
-4600 -4626 4784 0
-4600 -4627 4785 0
-4600 -4628 4786 0
-4600 -4629 4787 0
-4600 -4630 4788 0
-4600 -4631 4789 0
-4600 -4632 4790 0
-4600 -4633 4791 0
-4600 -4634 4792 0
-4601 -4618 4777 0
-4601 -4619 4778 0
-4601 -4620 4779 0
-4601 -4621 4780 0
-4601 -4622 4781 0
-4601 -4623 4782 0
-4601 -4624 4783 0
-4601 -4625 4784 0
-4601 -4626 4785 0
-4601 -4627 4786 0
-4601 -4628 4787 0
-4601 -4629 4788 0
-4601 -4630 4789 0
-4601 -4631 4790 0
-4601 -4632 4791 0
-4601 -4633 4792 0
-4602 -4618 4778 0
-4602 -4619 4779 0
-4602 -4620 4780 0
-4602 -4621 4781 0
-4602 -4622 4782 0
-4602 -4623 4783 0
-4602 -4624 4784 0
-4602 -4625 4785 0
-4602 -4626 4786 0
-4602 -4627 4787 0
-4602 -4628 4788 0
-4602 -4629 4789 0
-4602 -4630 4790 0
-4602 -4631 4791 0
-4602 -4632 4792 0
-4603 -4618 4779 0
-4603 -4619 4780 0
-4603 -4620 4781 0
-4603 -4621 4782 0
-4603 -4622 4783 0
-4603 -4623 4784 0
-4603 -4624 4785 0
-4603 -4625 4786 0
-4603 -4626 4787 0
-4603 -4627 4788 0
-4603 -4628 4789 0
-4603 -4629 4790 0
-4603 -4630 4791 0
-4603 -4631 4792 0
-4604 -4618 4780 0
-4604 -4619 4781 0
-4604 -4620 4782 0
-4604 -4621 4783 0
-4604 -4622 4784 0
-4604 -4623 4785 0
-4604 -4624 4786 0
-4604 -4625 4787 0
-4604 -4626 4788 0
-4604 -4627 4789 0
-4604 -4628 4790 0
-4604 -4629 4791 0
-4604 -4630 4792 0
-4605 -4618 4781 0
-4605 -4619 4782 0
-4605 -4620 4783 0
-4605 -4621 4784 0
-4605 -4622 4785 0
-4605 -4623 4786 0
-4605 -4624 4787 0
-4605 -4625 4788 0
-4605 -4626 4789 0
-4605 -4627 4790 0
-4605 -4628 4791 0
-4605 -4629 4792 0
-4606 -4618 4782 0
-4606 -4619 4783 0
-4606 -4620 4784 0
-4606 -4621 4785 0
-4606 -4622 4786 0
-4606 -4623 4787 0
-4606 -4624 4788 0
-4606 -4625 4789 0
-4606 -4626 4790 0
-4606 -4627 4791 0
-4606 -4628 4792 0
-4607 -4618 4783 0
-4607 -4619 4784 0
-4607 -4620 4785 0
-4607 -4621 4786 0
-4607 -4622 4787 0
-4607 -4623 4788 0
-4607 -4624 4789 0
-4607 -4625 4790 0
-4607 -4626 4791 0
-4607 -4627 4792 0
-4608 -4618 4784 0
-4608 -4619 4785 0
-4608 -4620 4786 0
-4608 -4621 4787 0
-4608 -4622 4788 0
-4608 -4623 4789 0
-4608 -4624 4790 0
-4608 -4625 4791 0
-4608 -4626 4792 0
-4609 -4618 4785 0
-4609 -4619 4786 0
-4609 -4620 4787 0
-4609 -4621 4788 0
-4609 -4622 4789 0
-4609 -4623 4790 0
-4609 -4624 4791 0
-4609 -4625 4792 0
-4610 -4618 4786 0
-4610 -4619 4787 0
-4610 -4620 4788 0
-4610 -4621 4789 0
-4610 -4622 4790 0
-4610 -4623 4791 0
-4610 -4624 4792 0
-4611 -4618 4787 0
-4611 -4619 4788 0
-4611 -4620 4789 0
-4611 -4621 4790 0
-4611 -4622 4791 0
-4611 -4623 4792 0
-4612 -4618 4788 0
-4612 -4619 4789 0
-4612 -4620 4790 0
-4612 -4621 4791 0
-4612 -4622 4792 0
-4613 -4618 4789 0
-4613 -4619 4790 0
-4613 -4620 4791 0
-4613 -4621 4792 0
-4614 -4618 4790 0
-4614 -4619 4791 0
-4614 -4620 4792 0
-4615 -4618 4791 0
-4615 -4619 4792 0
-4616 -4618 4792 0
-4668 4793 0
-4669 4794 0
-4670 4795 0
-4671 4796 0
-4672 4797 0
-4673 4798 0
-4674 4799 0
-4675 4800 0
-4676 4801 0
-4677 4802 0
-4678 4803 0
-4679 4804 0
-4680 4805 0
-4681 4806 0
-4682 4807 0
-4683 4808 0
-4684 4809 0
-4685 4810 0
-4686 4811 0
-4687 4812 0
-4688 4813 0
-4689 4814 0
-4690 4815 0
-4691 4816 0
-4692 4817 0
-4643 4793 0
-4644 4794 0
-4645 4795 0
-4646 4796 0
-4647 4797 0
-4648 4798 0
-4649 4799 0
-4650 4800 0
-4651 4801 0
-4652 4802 0
-4653 4803 0
-4654 4804 0
-4655 4805 0
-4656 4806 0
-4657 4807 0
-4658 4808 0
-4659 4809 0
-4660 4810 0
-4661 4811 0
-4662 4812 0
-4663 4813 0
-4664 4814 0
-4665 4815 0
-4666 4816 0
-4667 4817 0
-4643 -4668 4794 0
-4643 -4669 4795 0
-4643 -4670 4796 0
-4643 -4671 4797 0
-4643 -4672 4798 0
-4643 -4673 4799 0
-4643 -4674 4800 0
-4643 -4675 4801 0
-4643 -4676 4802 0
-4643 -4677 4803 0
-4643 -4678 4804 0
-4643 -4679 4805 0
-4643 -4680 4806 0
-4643 -4681 4807 0
-4643 -4682 4808 0
-4643 -4683 4809 0
-4643 -4684 4810 0
-4643 -4685 4811 0
-4643 -4686 4812 0
-4643 -4687 4813 0
-4643 -4688 4814 0
-4643 -4689 4815 0
-4643 -4690 4816 0
-4643 -4691 4817 0
-4644 -4668 4795 0
-4644 -4669 4796 0
-4644 -4670 4797 0
-4644 -4671 4798 0
-4644 -4672 4799 0
-4644 -4673 4800 0
-4644 -4674 4801 0
-4644 -4675 4802 0
-4644 -4676 4803 0
-4644 -4677 4804 0
-4644 -4678 4805 0
-4644 -4679 4806 0
-4644 -4680 4807 0
-4644 -4681 4808 0
-4644 -4682 4809 0
-4644 -4683 4810 0
-4644 -4684 4811 0
-4644 -4685 4812 0
-4644 -4686 4813 0
-4644 -4687 4814 0
-4644 -4688 4815 0
-4644 -4689 4816 0
-4644 -4690 4817 0
-4645 -4668 4796 0
-4645 -4669 4797 0
-4645 -4670 4798 0
-4645 -4671 4799 0
-4645 -4672 4800 0
-4645 -4673 4801 0
-4645 -4674 4802 0
-4645 -4675 4803 0
-4645 -4676 4804 0
-4645 -4677 4805 0
-4645 -4678 4806 0
-4645 -4679 4807 0
-4645 -4680 4808 0
-4645 -4681 4809 0
-4645 -4682 4810 0
-4645 -4683 4811 0
-4645 -4684 4812 0
-4645 -4685 4813 0
-4645 -4686 4814 0
-4645 -4687 4815 0
-4645 -4688 4816 0
-4645 -4689 4817 0
-4646 -4668 4797 0
-4646 -4669 4798 0
-4646 -4670 4799 0
-4646 -4671 4800 0
-4646 -4672 4801 0
-4646 -4673 4802 0
-4646 -4674 4803 0
-4646 -4675 4804 0
-4646 -4676 4805 0
-4646 -4677 4806 0
-4646 -4678 4807 0
-4646 -4679 4808 0
-4646 -4680 4809 0
-4646 -4681 4810 0
-4646 -4682 4811 0
-4646 -4683 4812 0
-4646 -4684 4813 0
-4646 -4685 4814 0
-4646 -4686 4815 0
-4646 -4687 4816 0
-4646 -4688 4817 0
-4647 -4668 4798 0
-4647 -4669 4799 0
-4647 -4670 4800 0
-4647 -4671 4801 0
-4647 -4672 4802 0
-4647 -4673 4803 0
-4647 -4674 4804 0
-4647 -4675 4805 0
-4647 -4676 4806 0
-4647 -4677 4807 0
-4647 -4678 4808 0
-4647 -4679 4809 0
-4647 -4680 4810 0
-4647 -4681 4811 0
-4647 -4682 4812 0
-4647 -4683 4813 0
-4647 -4684 4814 0
-4647 -4685 4815 0
-4647 -4686 4816 0
-4647 -4687 4817 0
-4648 -4668 4799 0
-4648 -4669 4800 0
-4648 -4670 4801 0
-4648 -4671 4802 0
-4648 -4672 4803 0
-4648 -4673 4804 0
-4648 -4674 4805 0
-4648 -4675 4806 0
-4648 -4676 4807 0
-4648 -4677 4808 0
-4648 -4678 4809 0
-4648 -4679 4810 0
-4648 -4680 4811 0
-4648 -4681 4812 0
-4648 -4682 4813 0
-4648 -4683 4814 0
-4648 -4684 4815 0
-4648 -4685 4816 0
-4648 -4686 4817 0
-4649 -4668 4800 0
-4649 -4669 4801 0
-4649 -4670 4802 0
-4649 -4671 4803 0
-4649 -4672 4804 0
-4649 -4673 4805 0
-4649 -4674 4806 0
-4649 -4675 4807 0
-4649 -4676 4808 0
-4649 -4677 4809 0
-4649 -4678 4810 0
-4649 -4679 4811 0
-4649 -4680 4812 0
-4649 -4681 4813 0
-4649 -4682 4814 0
-4649 -4683 4815 0
-4649 -4684 4816 0
-4649 -4685 4817 0
-4650 -4668 4801 0
-4650 -4669 4802 0
-4650 -4670 4803 0
-4650 -4671 4804 0
-4650 -4672 4805 0
-4650 -4673 4806 0
-4650 -4674 4807 0
-4650 -4675 4808 0
-4650 -4676 4809 0
-4650 -4677 4810 0
-4650 -4678 4811 0
-4650 -4679 4812 0
-4650 -4680 4813 0
-4650 -4681 4814 0
-4650 -4682 4815 0
-4650 -4683 4816 0
-4650 -4684 4817 0
-4651 -4668 4802 0
-4651 -4669 4803 0
-4651 -4670 4804 0
-4651 -4671 4805 0
-4651 -4672 4806 0
-4651 -4673 4807 0
-4651 -4674 4808 0
-4651 -4675 4809 0
-4651 -4676 4810 0
-4651 -4677 4811 0
-4651 -4678 4812 0
-4651 -4679 4813 0
-4651 -4680 4814 0
-4651 -4681 4815 0
-4651 -4682 4816 0
-4651 -4683 4817 0
-4652 -4668 4803 0
-4652 -4669 4804 0
-4652 -4670 4805 0
-4652 -4671 4806 0
-4652 -4672 4807 0
-4652 -4673 4808 0
-4652 -4674 4809 0
-4652 -4675 4810 0
-4652 -4676 4811 0
-4652 -4677 4812 0
-4652 -4678 4813 0
-4652 -4679 4814 0
-4652 -4680 4815 0
-4652 -4681 4816 0
-4652 -4682 4817 0
-4653 -4668 4804 0
-4653 -4669 4805 0
-4653 -4670 4806 0
-4653 -4671 4807 0
-4653 -4672 4808 0
-4653 -4673 4809 0
-4653 -4674 4810 0
-4653 -4675 4811 0
-4653 -4676 4812 0
-4653 -4677 4813 0
-4653 -4678 4814 0
-4653 -4679 4815 0
-4653 -4680 4816 0
-4653 -4681 4817 0
-4654 -4668 4805 0
-4654 -4669 4806 0
-4654 -4670 4807 0
-4654 -4671 4808 0
-4654 -4672 4809 0
-4654 -4673 4810 0
-4654 -4674 4811 0
-4654 -4675 4812 0
-4654 -4676 4813 0
-4654 -4677 4814 0
-4654 -4678 4815 0
-4654 -4679 4816 0
-4654 -4680 4817 0
-4655 -4668 4806 0
-4655 -4669 4807 0
-4655 -4670 4808 0
-4655 -4671 4809 0
-4655 -4672 4810 0
-4655 -4673 4811 0
-4655 -4674 4812 0
-4655 -4675 4813 0
-4655 -4676 4814 0
-4655 -4677 4815 0
-4655 -4678 4816 0
-4655 -4679 4817 0
-4656 -4668 4807 0
-4656 -4669 4808 0
-4656 -4670 4809 0
-4656 -4671 4810 0
-4656 -4672 4811 0
-4656 -4673 4812 0
-4656 -4674 4813 0
-4656 -4675 4814 0
-4656 -4676 4815 0
-4656 -4677 4816 0
-4656 -4678 4817 0
-4657 -4668 4808 0
-4657 -4669 4809 0
-4657 -4670 4810 0
-4657 -4671 4811 0
-4657 -4672 4812 0
-4657 -4673 4813 0
-4657 -4674 4814 0
-4657 -4675 4815 0
-4657 -4676 4816 0
-4657 -4677 4817 0
-4658 -4668 4809 0
-4658 -4669 4810 0
-4658 -4670 4811 0
-4658 -4671 4812 0
-4658 -4672 4813 0
-4658 -4673 4814 0
-4658 -4674 4815 0
-4658 -4675 4816 0
-4658 -4676 4817 0
-4659 -4668 4810 0
-4659 -4669 4811 0
-4659 -4670 4812 0
-4659 -4671 4813 0
-4659 -4672 4814 0
-4659 -4673 4815 0
-4659 -4674 4816 0
-4659 -4675 4817 0
-4660 -4668 4811 0
-4660 -4669 4812 0
-4660 -4670 4813 0
-4660 -4671 4814 0
-4660 -4672 4815 0
-4660 -4673 4816 0
-4660 -4674 4817 0
-4661 -4668 4812 0
-4661 -4669 4813 0
-4661 -4670 4814 0
-4661 -4671 4815 0
-4661 -4672 4816 0
-4661 -4673 4817 0
-4662 -4668 4813 0
-4662 -4669 4814 0
-4662 -4670 4815 0
-4662 -4671 4816 0
-4662 -4672 4817 0
-4663 -4668 4814 0
-4663 -4669 4815 0
-4663 -4670 4816 0
-4663 -4671 4817 0
-4664 -4668 4815 0
-4664 -4669 4816 0
-4664 -4670 4817 0
-4665 -4668 4816 0
-4665 -4669 4817 0
-4666 -4668 4817 0
-4718 4818 0
-4719 4819 0
-4720 4820 0
-4721 4821 0
-4722 4822 0
-4723 4823 0
-4724 4824 0
-4725 4825 0
-4726 4826 0
-4727 4827 0
-4728 4828 0
-4729 4829 0
-4730 4830 0
-4731 4831 0
-4732 4832 0
-4733 4833 0
-4734 4834 0
-4735 4835 0
-4736 4836 0
-4737 4837 0
-4738 4838 0
-4739 4839 0
-4740 4840 0
-4741 4841 0
-4742 4842 0
-4693 4818 0
-4694 4819 0
-4695 4820 0
-4696 4821 0
-4697 4822 0
-4698 4823 0
-4699 4824 0
-4700 4825 0
-4701 4826 0
-4702 4827 0
-4703 4828 0
-4704 4829 0
-4705 4830 0
-4706 4831 0
-4707 4832 0
-4708 4833 0
-4709 4834 0
-4710 4835 0
-4711 4836 0
-4712 4837 0
-4713 4838 0
-4714 4839 0
-4715 4840 0
-4716 4841 0
-4717 4842 0
-4693 -4718 4819 0
-4693 -4719 4820 0
-4693 -4720 4821 0
-4693 -4721 4822 0
-4693 -4722 4823 0
-4693 -4723 4824 0
-4693 -4724 4825 0
-4693 -4725 4826 0
-4693 -4726 4827 0
-4693 -4727 4828 0
-4693 -4728 4829 0
-4693 -4729 4830 0
-4693 -4730 4831 0
-4693 -4731 4832 0
-4693 -4732 4833 0
-4693 -4733 4834 0
-4693 -4734 4835 0
-4693 -4735 4836 0
-4693 -4736 4837 0
-4693 -4737 4838 0
-4693 -4738 4839 0
-4693 -4739 4840 0
-4693 -4740 4841 0
-4693 -4741 4842 0
-4694 -4718 4820 0
-4694 -4719 4821 0
-4694 -4720 4822 0
-4694 -4721 4823 0
-4694 -4722 4824 0
-4694 -4723 4825 0
-4694 -4724 4826 0
-4694 -4725 4827 0
-4694 -4726 4828 0
-4694 -4727 4829 0
-4694 -4728 4830 0
-4694 -4729 4831 0
-4694 -4730 4832 0
-4694 -4731 4833 0
-4694 -4732 4834 0
-4694 -4733 4835 0
-4694 -4734 4836 0
-4694 -4735 4837 0
-4694 -4736 4838 0
-4694 -4737 4839 0
-4694 -4738 4840 0
-4694 -4739 4841 0
-4694 -4740 4842 0
-4695 -4718 4821 0
-4695 -4719 4822 0
-4695 -4720 4823 0
-4695 -4721 4824 0
-4695 -4722 4825 0
-4695 -4723 4826 0
-4695 -4724 4827 0
-4695 -4725 4828 0
-4695 -4726 4829 0
-4695 -4727 4830 0
-4695 -4728 4831 0
-4695 -4729 4832 0
-4695 -4730 4833 0
-4695 -4731 4834 0
-4695 -4732 4835 0
-4695 -4733 4836 0
-4695 -4734 4837 0
-4695 -4735 4838 0
-4695 -4736 4839 0
-4695 -4737 4840 0
-4695 -4738 4841 0
-4695 -4739 4842 0
-4696 -4718 4822 0
-4696 -4719 4823 0
-4696 -4720 4824 0
-4696 -4721 4825 0
-4696 -4722 4826 0
-4696 -4723 4827 0
-4696 -4724 4828 0
-4696 -4725 4829 0
-4696 -4726 4830 0
-4696 -4727 4831 0
-4696 -4728 4832 0
-4696 -4729 4833 0
-4696 -4730 4834 0
-4696 -4731 4835 0
-4696 -4732 4836 0
-4696 -4733 4837 0
-4696 -4734 4838 0
-4696 -4735 4839 0
-4696 -4736 4840 0
-4696 -4737 4841 0
-4696 -4738 4842 0
-4697 -4718 4823 0
-4697 -4719 4824 0
-4697 -4720 4825 0
-4697 -4721 4826 0
-4697 -4722 4827 0
-4697 -4723 4828 0
-4697 -4724 4829 0
-4697 -4725 4830 0
-4697 -4726 4831 0
-4697 -4727 4832 0
-4697 -4728 4833 0
-4697 -4729 4834 0
-4697 -4730 4835 0
-4697 -4731 4836 0
-4697 -4732 4837 0
-4697 -4733 4838 0
-4697 -4734 4839 0
-4697 -4735 4840 0
-4697 -4736 4841 0
-4697 -4737 4842 0
-4698 -4718 4824 0
-4698 -4719 4825 0
-4698 -4720 4826 0
-4698 -4721 4827 0
-4698 -4722 4828 0
-4698 -4723 4829 0
-4698 -4724 4830 0
-4698 -4725 4831 0
-4698 -4726 4832 0
-4698 -4727 4833 0
-4698 -4728 4834 0
-4698 -4729 4835 0
-4698 -4730 4836 0
-4698 -4731 4837 0
-4698 -4732 4838 0
-4698 -4733 4839 0
-4698 -4734 4840 0
-4698 -4735 4841 0
-4698 -4736 4842 0
-4699 -4718 4825 0
-4699 -4719 4826 0
-4699 -4720 4827 0
-4699 -4721 4828 0
-4699 -4722 4829 0
-4699 -4723 4830 0
-4699 -4724 4831 0
-4699 -4725 4832 0
-4699 -4726 4833 0
-4699 -4727 4834 0
-4699 -4728 4835 0
-4699 -4729 4836 0
-4699 -4730 4837 0
-4699 -4731 4838 0
-4699 -4732 4839 0
-4699 -4733 4840 0
-4699 -4734 4841 0
-4699 -4735 4842 0
-4700 -4718 4826 0
-4700 -4719 4827 0
-4700 -4720 4828 0
-4700 -4721 4829 0
-4700 -4722 4830 0
-4700 -4723 4831 0
-4700 -4724 4832 0
-4700 -4725 4833 0
-4700 -4726 4834 0
-4700 -4727 4835 0
-4700 -4728 4836 0
-4700 -4729 4837 0
-4700 -4730 4838 0
-4700 -4731 4839 0
-4700 -4732 4840 0
-4700 -4733 4841 0
-4700 -4734 4842 0
-4701 -4718 4827 0
-4701 -4719 4828 0
-4701 -4720 4829 0
-4701 -4721 4830 0
-4701 -4722 4831 0
-4701 -4723 4832 0
-4701 -4724 4833 0
-4701 -4725 4834 0
-4701 -4726 4835 0
-4701 -4727 4836 0
-4701 -4728 4837 0
-4701 -4729 4838 0
-4701 -4730 4839 0
-4701 -4731 4840 0
-4701 -4732 4841 0
-4701 -4733 4842 0
-4702 -4718 4828 0
-4702 -4719 4829 0
-4702 -4720 4830 0
-4702 -4721 4831 0
-4702 -4722 4832 0
-4702 -4723 4833 0
-4702 -4724 4834 0
-4702 -4725 4835 0
-4702 -4726 4836 0
-4702 -4727 4837 0
-4702 -4728 4838 0
-4702 -4729 4839 0
-4702 -4730 4840 0
-4702 -4731 4841 0
-4702 -4732 4842 0
-4703 -4718 4829 0
-4703 -4719 4830 0
-4703 -4720 4831 0
-4703 -4721 4832 0
-4703 -4722 4833 0
-4703 -4723 4834 0
-4703 -4724 4835 0
-4703 -4725 4836 0
-4703 -4726 4837 0
-4703 -4727 4838 0
-4703 -4728 4839 0
-4703 -4729 4840 0
-4703 -4730 4841 0
-4703 -4731 4842 0
-4704 -4718 4830 0
-4704 -4719 4831 0
-4704 -4720 4832 0
-4704 -4721 4833 0
-4704 -4722 4834 0
-4704 -4723 4835 0
-4704 -4724 4836 0
-4704 -4725 4837 0
-4704 -4726 4838 0
-4704 -4727 4839 0
-4704 -4728 4840 0
-4704 -4729 4841 0
-4704 -4730 4842 0
-4705 -4718 4831 0
-4705 -4719 4832 0
-4705 -4720 4833 0
-4705 -4721 4834 0
-4705 -4722 4835 0
-4705 -4723 4836 0
-4705 -4724 4837 0
-4705 -4725 4838 0
-4705 -4726 4839 0
-4705 -4727 4840 0
-4705 -4728 4841 0
-4705 -4729 4842 0
-4706 -4718 4832 0
-4706 -4719 4833 0
-4706 -4720 4834 0
-4706 -4721 4835 0
-4706 -4722 4836 0
-4706 -4723 4837 0
-4706 -4724 4838 0
-4706 -4725 4839 0
-4706 -4726 4840 0
-4706 -4727 4841 0
-4706 -4728 4842 0
-4707 -4718 4833 0
-4707 -4719 4834 0
-4707 -4720 4835 0
-4707 -4721 4836 0
-4707 -4722 4837 0
-4707 -4723 4838 0
-4707 -4724 4839 0
-4707 -4725 4840 0
-4707 -4726 4841 0
-4707 -4727 4842 0
-4708 -4718 4834 0
-4708 -4719 4835 0
-4708 -4720 4836 0
-4708 -4721 4837 0
-4708 -4722 4838 0
-4708 -4723 4839 0
-4708 -4724 4840 0
-4708 -4725 4841 0
-4708 -4726 4842 0
-4709 -4718 4835 0
-4709 -4719 4836 0
-4709 -4720 4837 0
-4709 -4721 4838 0
-4709 -4722 4839 0
-4709 -4723 4840 0
-4709 -4724 4841 0
-4709 -4725 4842 0
-4710 -4718 4836 0
-4710 -4719 4837 0
-4710 -4720 4838 0
-4710 -4721 4839 0
-4710 -4722 4840 0
-4710 -4723 4841 0
-4710 -4724 4842 0
-4711 -4718 4837 0
-4711 -4719 4838 0
-4711 -4720 4839 0
-4711 -4721 4840 0
-4711 -4722 4841 0
-4711 -4723 4842 0
-4712 -4718 4838 0
-4712 -4719 4839 0
-4712 -4720 4840 0
-4712 -4721 4841 0
-4712 -4722 4842 0
-4713 -4718 4839 0
-4713 -4719 4840 0
-4713 -4720 4841 0
-4713 -4721 4842 0
-4714 -4718 4840 0
-4714 -4719 4841 0
-4714 -4720 4842 0
-4715 -4718 4841 0
-4715 -4719 4842 0
-4716 -4718 4842 0
-4768 4843 0
-4769 4844 0
-4770 4845 0
-4771 4846 0
-4772 4847 0
-4773 4848 0
-4774 4849 0
-4775 4850 0
-4776 4851 0
-4777 4852 0
-4778 4853 0
-4779 4854 0
-4780 4855 0
-4781 4856 0
-4782 4857 0
-4783 4858 0
-4784 4859 0
-4785 4860 0
-4786 4861 0
-4787 4862 0
-4788 4863 0
-4789 4864 0
-4790 4865 0
-4791 4866 0
-4792 4867 0
-4743 4843 0
-4744 4844 0
-4745 4845 0
-4746 4846 0
-4747 4847 0
-4748 4848 0
-4749 4849 0
-4750 4850 0
-4751 4851 0
-4752 4852 0
-4753 4853 0
-4754 4854 0
-4755 4855 0
-4756 4856 0
-4757 4857 0
-4758 4858 0
-4759 4859 0
-4760 4860 0
-4761 4861 0
-4762 4862 0
-4763 4863 0
-4764 4864 0
-4765 4865 0
-4766 4866 0
-4767 4867 0
-4743 -4768 4844 0
-4743 -4769 4845 0
-4743 -4770 4846 0
-4743 -4771 4847 0
-4743 -4772 4848 0
-4743 -4773 4849 0
-4743 -4774 4850 0
-4743 -4775 4851 0
-4743 -4776 4852 0
-4743 -4777 4853 0
-4743 -4778 4854 0
-4743 -4779 4855 0
-4743 -4780 4856 0
-4743 -4781 4857 0
-4743 -4782 4858 0
-4743 -4783 4859 0
-4743 -4784 4860 0
-4743 -4785 4861 0
-4743 -4786 4862 0
-4743 -4787 4863 0
-4743 -4788 4864 0
-4743 -4789 4865 0
-4743 -4790 4866 0
-4743 -4791 4867 0
-4744 -4768 4845 0
-4744 -4769 4846 0
-4744 -4770 4847 0
-4744 -4771 4848 0
-4744 -4772 4849 0
-4744 -4773 4850 0
-4744 -4774 4851 0
-4744 -4775 4852 0
-4744 -4776 4853 0
-4744 -4777 4854 0
-4744 -4778 4855 0
-4744 -4779 4856 0
-4744 -4780 4857 0
-4744 -4781 4858 0
-4744 -4782 4859 0
-4744 -4783 4860 0
-4744 -4784 4861 0
-4744 -4785 4862 0
-4744 -4786 4863 0
-4744 -4787 4864 0
-4744 -4788 4865 0
-4744 -4789 4866 0
-4744 -4790 4867 0
-4745 -4768 4846 0
-4745 -4769 4847 0
-4745 -4770 4848 0
-4745 -4771 4849 0
-4745 -4772 4850 0
-4745 -4773 4851 0
-4745 -4774 4852 0
-4745 -4775 4853 0
-4745 -4776 4854 0
-4745 -4777 4855 0
-4745 -4778 4856 0
-4745 -4779 4857 0
-4745 -4780 4858 0
-4745 -4781 4859 0
-4745 -4782 4860 0
-4745 -4783 4861 0
-4745 -4784 4862 0
-4745 -4785 4863 0
-4745 -4786 4864 0
-4745 -4787 4865 0
-4745 -4788 4866 0
-4745 -4789 4867 0
-4746 -4768 4847 0
-4746 -4769 4848 0
-4746 -4770 4849 0
-4746 -4771 4850 0
-4746 -4772 4851 0
-4746 -4773 4852 0
-4746 -4774 4853 0
-4746 -4775 4854 0
-4746 -4776 4855 0
-4746 -4777 4856 0
-4746 -4778 4857 0
-4746 -4779 4858 0
-4746 -4780 4859 0
-4746 -4781 4860 0
-4746 -4782 4861 0
-4746 -4783 4862 0
-4746 -4784 4863 0
-4746 -4785 4864 0
-4746 -4786 4865 0
-4746 -4787 4866 0
-4746 -4788 4867 0
-4747 -4768 4848 0
-4747 -4769 4849 0
-4747 -4770 4850 0
-4747 -4771 4851 0
-4747 -4772 4852 0
-4747 -4773 4853 0
-4747 -4774 4854 0
-4747 -4775 4855 0
-4747 -4776 4856 0
-4747 -4777 4857 0
-4747 -4778 4858 0
-4747 -4779 4859 0
-4747 -4780 4860 0
-4747 -4781 4861 0
-4747 -4782 4862 0
-4747 -4783 4863 0
-4747 -4784 4864 0
-4747 -4785 4865 0
-4747 -4786 4866 0
-4747 -4787 4867 0
-4748 -4768 4849 0
-4748 -4769 4850 0
-4748 -4770 4851 0
-4748 -4771 4852 0
-4748 -4772 4853 0
-4748 -4773 4854 0
-4748 -4774 4855 0
-4748 -4775 4856 0
-4748 -4776 4857 0
-4748 -4777 4858 0
-4748 -4778 4859 0
-4748 -4779 4860 0
-4748 -4780 4861 0
-4748 -4781 4862 0
-4748 -4782 4863 0
-4748 -4783 4864 0
-4748 -4784 4865 0
-4748 -4785 4866 0
-4748 -4786 4867 0
-4749 -4768 4850 0
-4749 -4769 4851 0
-4749 -4770 4852 0
-4749 -4771 4853 0
-4749 -4772 4854 0
-4749 -4773 4855 0
-4749 -4774 4856 0
-4749 -4775 4857 0
-4749 -4776 4858 0
-4749 -4777 4859 0
-4749 -4778 4860 0
-4749 -4779 4861 0
-4749 -4780 4862 0
-4749 -4781 4863 0
-4749 -4782 4864 0
-4749 -4783 4865 0
-4749 -4784 4866 0
-4749 -4785 4867 0
-4750 -4768 4851 0
-4750 -4769 4852 0
-4750 -4770 4853 0
-4750 -4771 4854 0
-4750 -4772 4855 0
-4750 -4773 4856 0
-4750 -4774 4857 0
-4750 -4775 4858 0
-4750 -4776 4859 0
-4750 -4777 4860 0
-4750 -4778 4861 0
-4750 -4779 4862 0
-4750 -4780 4863 0
-4750 -4781 4864 0
-4750 -4782 4865 0
-4750 -4783 4866 0
-4750 -4784 4867 0
-4751 -4768 4852 0
-4751 -4769 4853 0
-4751 -4770 4854 0
-4751 -4771 4855 0
-4751 -4772 4856 0
-4751 -4773 4857 0
-4751 -4774 4858 0
-4751 -4775 4859 0
-4751 -4776 4860 0
-4751 -4777 4861 0
-4751 -4778 4862 0
-4751 -4779 4863 0
-4751 -4780 4864 0
-4751 -4781 4865 0
-4751 -4782 4866 0
-4751 -4783 4867 0
-4752 -4768 4853 0
-4752 -4769 4854 0
-4752 -4770 4855 0
-4752 -4771 4856 0
-4752 -4772 4857 0
-4752 -4773 4858 0
-4752 -4774 4859 0
-4752 -4775 4860 0
-4752 -4776 4861 0
-4752 -4777 4862 0
-4752 -4778 4863 0
-4752 -4779 4864 0
-4752 -4780 4865 0
-4752 -4781 4866 0
-4752 -4782 4867 0
-4753 -4768 4854 0
-4753 -4769 4855 0
-4753 -4770 4856 0
-4753 -4771 4857 0
-4753 -4772 4858 0
-4753 -4773 4859 0
-4753 -4774 4860 0
-4753 -4775 4861 0
-4753 -4776 4862 0
-4753 -4777 4863 0
-4753 -4778 4864 0
-4753 -4779 4865 0
-4753 -4780 4866 0
-4753 -4781 4867 0
-4754 -4768 4855 0
-4754 -4769 4856 0
-4754 -4770 4857 0
-4754 -4771 4858 0
-4754 -4772 4859 0
-4754 -4773 4860 0
-4754 -4774 4861 0
-4754 -4775 4862 0
-4754 -4776 4863 0
-4754 -4777 4864 0
-4754 -4778 4865 0
-4754 -4779 4866 0
-4754 -4780 4867 0
-4755 -4768 4856 0
-4755 -4769 4857 0
-4755 -4770 4858 0
-4755 -4771 4859 0
-4755 -4772 4860 0
-4755 -4773 4861 0
-4755 -4774 4862 0
-4755 -4775 4863 0
-4755 -4776 4864 0
-4755 -4777 4865 0
-4755 -4778 4866 0
-4755 -4779 4867 0
-4756 -4768 4857 0
-4756 -4769 4858 0
-4756 -4770 4859 0
-4756 -4771 4860 0
-4756 -4772 4861 0
-4756 -4773 4862 0
-4756 -4774 4863 0
-4756 -4775 4864 0
-4756 -4776 4865 0
-4756 -4777 4866 0
-4756 -4778 4867 0
-4757 -4768 4858 0
-4757 -4769 4859 0
-4757 -4770 4860 0
-4757 -4771 4861 0
-4757 -4772 4862 0
-4757 -4773 4863 0
-4757 -4774 4864 0
-4757 -4775 4865 0
-4757 -4776 4866 0
-4757 -4777 4867 0
-4758 -4768 4859 0
-4758 -4769 4860 0
-4758 -4770 4861 0
-4758 -4771 4862 0
-4758 -4772 4863 0
-4758 -4773 4864 0
-4758 -4774 4865 0
-4758 -4775 4866 0
-4758 -4776 4867 0
-4759 -4768 4860 0
-4759 -4769 4861 0
-4759 -4770 4862 0
-4759 -4771 4863 0
-4759 -4772 4864 0
-4759 -4773 4865 0
-4759 -4774 4866 0
-4759 -4775 4867 0
-4760 -4768 4861 0
-4760 -4769 4862 0
-4760 -4770 4863 0
-4760 -4771 4864 0
-4760 -4772 4865 0
-4760 -4773 4866 0
-4760 -4774 4867 0
-4761 -4768 4862 0
-4761 -4769 4863 0
-4761 -4770 4864 0
-4761 -4771 4865 0
-4761 -4772 4866 0
-4761 -4773 4867 0
-4762 -4768 4863 0
-4762 -4769 4864 0
-4762 -4770 4865 0
-4762 -4771 4866 0
-4762 -4772 4867 0
-4763 -4768 4864 0
-4763 -4769 4865 0
-4763 -4770 4866 0
-4763 -4771 4867 0
-4764 -4768 4865 0
-4764 -4769 4866 0
-4764 -4770 4867 0
-4765 -4768 4866 0
-4765 -4769 4867 0
-4766 -4768 4867 0
-4818 4868 0
-4819 4869 0
-4820 4870 0
-4821 4871 0
-4822 4872 0
-4823 4873 0
-4824 4874 0
-4825 4875 0
-4826 4876 0
-4827 4877 0
-4828 4878 0
-4829 4879 0
-4830 4880 0
-4831 4881 0
-4832 4882 0
-4833 4883 0
-4834 4884 0
-4835 4885 0
-4836 4886 0
-4837 4887 0
-4838 4888 0
-4839 4889 0
-4840 4890 0
-4841 4891 0
-4842 4892 0
-4793 4868 0
-4794 4869 0
-4795 4870 0
-4796 4871 0
-4797 4872 0
-4798 4873 0
-4799 4874 0
-4800 4875 0
-4801 4876 0
-4802 4877 0
-4803 4878 0
-4804 4879 0
-4805 4880 0
-4806 4881 0
-4807 4882 0
-4808 4883 0
-4809 4884 0
-4810 4885 0
-4811 4886 0
-4812 4887 0
-4813 4888 0
-4814 4889 0
-4815 4890 0
-4816 4891 0
-4817 4892 0
-4793 -4818 4869 0
-4793 -4819 4870 0
-4793 -4820 4871 0
-4793 -4821 4872 0
-4793 -4822 4873 0
-4793 -4823 4874 0
-4793 -4824 4875 0
-4793 -4825 4876 0
-4793 -4826 4877 0
-4793 -4827 4878 0
-4793 -4828 4879 0
-4793 -4829 4880 0
-4793 -4830 4881 0
-4793 -4831 4882 0
-4793 -4832 4883 0
-4793 -4833 4884 0
-4793 -4834 4885 0
-4793 -4835 4886 0
-4793 -4836 4887 0
-4793 -4837 4888 0
-4793 -4838 4889 0
-4793 -4839 4890 0
-4793 -4840 4891 0
-4793 -4841 4892 0
-4794 -4818 4870 0
-4794 -4819 4871 0
-4794 -4820 4872 0
-4794 -4821 4873 0
-4794 -4822 4874 0
-4794 -4823 4875 0
-4794 -4824 4876 0
-4794 -4825 4877 0
-4794 -4826 4878 0
-4794 -4827 4879 0
-4794 -4828 4880 0
-4794 -4829 4881 0
-4794 -4830 4882 0
-4794 -4831 4883 0
-4794 -4832 4884 0
-4794 -4833 4885 0
-4794 -4834 4886 0
-4794 -4835 4887 0
-4794 -4836 4888 0
-4794 -4837 4889 0
-4794 -4838 4890 0
-4794 -4839 4891 0
-4794 -4840 4892 0
-4795 -4818 4871 0
-4795 -4819 4872 0
-4795 -4820 4873 0
-4795 -4821 4874 0
-4795 -4822 4875 0
-4795 -4823 4876 0
-4795 -4824 4877 0
-4795 -4825 4878 0
-4795 -4826 4879 0
-4795 -4827 4880 0
-4795 -4828 4881 0
-4795 -4829 4882 0
-4795 -4830 4883 0
-4795 -4831 4884 0
-4795 -4832 4885 0
-4795 -4833 4886 0
-4795 -4834 4887 0
-4795 -4835 4888 0
-4795 -4836 4889 0
-4795 -4837 4890 0
-4795 -4838 4891 0
-4795 -4839 4892 0
-4796 -4818 4872 0
-4796 -4819 4873 0
-4796 -4820 4874 0
-4796 -4821 4875 0
-4796 -4822 4876 0
-4796 -4823 4877 0
-4796 -4824 4878 0
-4796 -4825 4879 0
-4796 -4826 4880 0
-4796 -4827 4881 0
-4796 -4828 4882 0
-4796 -4829 4883 0
-4796 -4830 4884 0
-4796 -4831 4885 0
-4796 -4832 4886 0
-4796 -4833 4887 0
-4796 -4834 4888 0
-4796 -4835 4889 0
-4796 -4836 4890 0
-4796 -4837 4891 0
-4796 -4838 4892 0
-4797 -4818 4873 0
-4797 -4819 4874 0
-4797 -4820 4875 0
-4797 -4821 4876 0
-4797 -4822 4877 0
-4797 -4823 4878 0
-4797 -4824 4879 0
-4797 -4825 4880 0
-4797 -4826 4881 0
-4797 -4827 4882 0
-4797 -4828 4883 0
-4797 -4829 4884 0
-4797 -4830 4885 0
-4797 -4831 4886 0
-4797 -4832 4887 0
-4797 -4833 4888 0
-4797 -4834 4889 0
-4797 -4835 4890 0
-4797 -4836 4891 0
-4797 -4837 4892 0
-4798 -4818 4874 0
-4798 -4819 4875 0
-4798 -4820 4876 0
-4798 -4821 4877 0
-4798 -4822 4878 0
-4798 -4823 4879 0
-4798 -4824 4880 0
-4798 -4825 4881 0
-4798 -4826 4882 0
-4798 -4827 4883 0
-4798 -4828 4884 0
-4798 -4829 4885 0
-4798 -4830 4886 0
-4798 -4831 4887 0
-4798 -4832 4888 0
-4798 -4833 4889 0
-4798 -4834 4890 0
-4798 -4835 4891 0
-4798 -4836 4892 0
-4799 -4818 4875 0
-4799 -4819 4876 0
-4799 -4820 4877 0
-4799 -4821 4878 0
-4799 -4822 4879 0
-4799 -4823 4880 0
-4799 -4824 4881 0
-4799 -4825 4882 0
-4799 -4826 4883 0
-4799 -4827 4884 0
-4799 -4828 4885 0
-4799 -4829 4886 0
-4799 -4830 4887 0
-4799 -4831 4888 0
-4799 -4832 4889 0
-4799 -4833 4890 0
-4799 -4834 4891 0
-4799 -4835 4892 0
-4800 -4818 4876 0
-4800 -4819 4877 0
-4800 -4820 4878 0
-4800 -4821 4879 0
-4800 -4822 4880 0
-4800 -4823 4881 0
-4800 -4824 4882 0
-4800 -4825 4883 0
-4800 -4826 4884 0
-4800 -4827 4885 0
-4800 -4828 4886 0
-4800 -4829 4887 0
-4800 -4830 4888 0
-4800 -4831 4889 0
-4800 -4832 4890 0
-4800 -4833 4891 0
-4800 -4834 4892 0
-4801 -4818 4877 0
-4801 -4819 4878 0
-4801 -4820 4879 0
-4801 -4821 4880 0
-4801 -4822 4881 0
-4801 -4823 4882 0
-4801 -4824 4883 0
-4801 -4825 4884 0
-4801 -4826 4885 0
-4801 -4827 4886 0
-4801 -4828 4887 0
-4801 -4829 4888 0
-4801 -4830 4889 0
-4801 -4831 4890 0
-4801 -4832 4891 0
-4801 -4833 4892 0
-4802 -4818 4878 0
-4802 -4819 4879 0
-4802 -4820 4880 0
-4802 -4821 4881 0
-4802 -4822 4882 0
-4802 -4823 4883 0
-4802 -4824 4884 0
-4802 -4825 4885 0
-4802 -4826 4886 0
-4802 -4827 4887 0
-4802 -4828 4888 0
-4802 -4829 4889 0
-4802 -4830 4890 0
-4802 -4831 4891 0
-4802 -4832 4892 0
-4803 -4818 4879 0
-4803 -4819 4880 0
-4803 -4820 4881 0
-4803 -4821 4882 0
-4803 -4822 4883 0
-4803 -4823 4884 0
-4803 -4824 4885 0
-4803 -4825 4886 0
-4803 -4826 4887 0
-4803 -4827 4888 0
-4803 -4828 4889 0
-4803 -4829 4890 0
-4803 -4830 4891 0
-4803 -4831 4892 0
-4804 -4818 4880 0
-4804 -4819 4881 0
-4804 -4820 4882 0
-4804 -4821 4883 0
-4804 -4822 4884 0
-4804 -4823 4885 0
-4804 -4824 4886 0
-4804 -4825 4887 0
-4804 -4826 4888 0
-4804 -4827 4889 0
-4804 -4828 4890 0
-4804 -4829 4891 0
-4804 -4830 4892 0
-4805 -4818 4881 0
-4805 -4819 4882 0
-4805 -4820 4883 0
-4805 -4821 4884 0
-4805 -4822 4885 0
-4805 -4823 4886 0
-4805 -4824 4887 0
-4805 -4825 4888 0
-4805 -4826 4889 0
-4805 -4827 4890 0
-4805 -4828 4891 0
-4805 -4829 4892 0
-4806 -4818 4882 0
-4806 -4819 4883 0
-4806 -4820 4884 0
-4806 -4821 4885 0
-4806 -4822 4886 0
-4806 -4823 4887 0
-4806 -4824 4888 0
-4806 -4825 4889 0
-4806 -4826 4890 0
-4806 -4827 4891 0
-4806 -4828 4892 0
-4807 -4818 4883 0
-4807 -4819 4884 0
-4807 -4820 4885 0
-4807 -4821 4886 0
-4807 -4822 4887 0
-4807 -4823 4888 0
-4807 -4824 4889 0
-4807 -4825 4890 0
-4807 -4826 4891 0
-4807 -4827 4892 0
-4808 -4818 4884 0
-4808 -4819 4885 0
-4808 -4820 4886 0
-4808 -4821 4887 0
-4808 -4822 4888 0
-4808 -4823 4889 0
-4808 -4824 4890 0
-4808 -4825 4891 0
-4808 -4826 4892 0
-4809 -4818 4885 0
-4809 -4819 4886 0
-4809 -4820 4887 0
-4809 -4821 4888 0
-4809 -4822 4889 0
-4809 -4823 4890 0
-4809 -4824 4891 0
-4809 -4825 4892 0
-4810 -4818 4886 0
-4810 -4819 4887 0
-4810 -4820 4888 0
-4810 -4821 4889 0
-4810 -4822 4890 0
-4810 -4823 4891 0
-4810 -4824 4892 0
-4811 -4818 4887 0
-4811 -4819 4888 0
-4811 -4820 4889 0
-4811 -4821 4890 0
-4811 -4822 4891 0
-4811 -4823 4892 0
-4812 -4818 4888 0
-4812 -4819 4889 0
-4812 -4820 4890 0
-4812 -4821 4891 0
-4812 -4822 4892 0
-4813 -4818 4889 0
-4813 -4819 4890 0
-4813 -4820 4891 0
-4813 -4821 4892 0
-4814 -4818 4890 0
-4814 -4819 4891 0
-4814 -4820 4892 0
-4815 -4818 4891 0
-4815 -4819 4892 0
-4816 -4818 4892 0
-4868 4893 0
-4869 4894 0
-4870 4895 0
-4871 4896 0
-4872 4897 0
-4873 4898 0
-4874 4899 0
-4875 4900 0
-4876 4901 0
-4877 4902 0
-4878 4903 0
-4879 4904 0
-4880 4905 0
-4881 4906 0
-4882 4907 0
-4883 4908 0
-4884 4909 0
-4885 4910 0
-4886 4911 0
-4887 4912 0
-4888 4913 0
-4889 4914 0
-4890 4915 0
-4891 4916 0
-4892 4917 0
-4843 4893 0
-4844 4894 0
-4845 4895 0
-4846 4896 0
-4847 4897 0
-4848 4898 0
-4849 4899 0
-4850 4900 0
-4851 4901 0
-4852 4902 0
-4853 4903 0
-4854 4904 0
-4855 4905 0
-4856 4906 0
-4857 4907 0
-4858 4908 0
-4859 4909 0
-4860 4910 0
-4861 4911 0
-4862 4912 0
-4863 4913 0
-4864 4914 0
-4865 4915 0
-4866 4916 0
-4867 4917 0
-4843 -4868 4894 0
-4843 -4869 4895 0
-4843 -4870 4896 0
-4843 -4871 4897 0
-4843 -4872 4898 0
-4843 -4873 4899 0
-4843 -4874 4900 0
-4843 -4875 4901 0
-4843 -4876 4902 0
-4843 -4877 4903 0
-4843 -4878 4904 0
-4843 -4879 4905 0
-4843 -4880 4906 0
-4843 -4881 4907 0
-4843 -4882 4908 0
-4843 -4883 4909 0
-4843 -4884 4910 0
-4843 -4885 4911 0
-4843 -4886 4912 0
-4843 -4887 4913 0
-4843 -4888 4914 0
-4843 -4889 4915 0
-4843 -4890 4916 0
-4843 -4891 4917 0
-4844 -4868 4895 0
-4844 -4869 4896 0
-4844 -4870 4897 0
-4844 -4871 4898 0
-4844 -4872 4899 0
-4844 -4873 4900 0
-4844 -4874 4901 0
-4844 -4875 4902 0
-4844 -4876 4903 0
-4844 -4877 4904 0
-4844 -4878 4905 0
-4844 -4879 4906 0
-4844 -4880 4907 0
-4844 -4881 4908 0
-4844 -4882 4909 0
-4844 -4883 4910 0
-4844 -4884 4911 0
-4844 -4885 4912 0
-4844 -4886 4913 0
-4844 -4887 4914 0
-4844 -4888 4915 0
-4844 -4889 4916 0
-4844 -4890 4917 0
-4845 -4868 4896 0
-4845 -4869 4897 0
-4845 -4870 4898 0
-4845 -4871 4899 0
-4845 -4872 4900 0
-4845 -4873 4901 0
-4845 -4874 4902 0
-4845 -4875 4903 0
-4845 -4876 4904 0
-4845 -4877 4905 0
-4845 -4878 4906 0
-4845 -4879 4907 0
-4845 -4880 4908 0
-4845 -4881 4909 0
-4845 -4882 4910 0
-4845 -4883 4911 0
-4845 -4884 4912 0
-4845 -4885 4913 0
-4845 -4886 4914 0
-4845 -4887 4915 0
-4845 -4888 4916 0
-4845 -4889 4917 0
-4846 -4868 4897 0
-4846 -4869 4898 0
-4846 -4870 4899 0
-4846 -4871 4900 0
-4846 -4872 4901 0
-4846 -4873 4902 0
-4846 -4874 4903 0
-4846 -4875 4904 0
-4846 -4876 4905 0
-4846 -4877 4906 0
-4846 -4878 4907 0
-4846 -4879 4908 0
-4846 -4880 4909 0
-4846 -4881 4910 0
-4846 -4882 4911 0
-4846 -4883 4912 0
-4846 -4884 4913 0
-4846 -4885 4914 0
-4846 -4886 4915 0
-4846 -4887 4916 0
-4846 -4888 4917 0
-4847 -4868 4898 0
-4847 -4869 4899 0
-4847 -4870 4900 0
-4847 -4871 4901 0
-4847 -4872 4902 0
-4847 -4873 4903 0
-4847 -4874 4904 0
-4847 -4875 4905 0
-4847 -4876 4906 0
-4847 -4877 4907 0
-4847 -4878 4908 0
-4847 -4879 4909 0
-4847 -4880 4910 0
-4847 -4881 4911 0
-4847 -4882 4912 0
-4847 -4883 4913 0
-4847 -4884 4914 0
-4847 -4885 4915 0
-4847 -4886 4916 0
-4847 -4887 4917 0
-4848 -4868 4899 0
-4848 -4869 4900 0
-4848 -4870 4901 0
-4848 -4871 4902 0
-4848 -4872 4903 0
-4848 -4873 4904 0
-4848 -4874 4905 0
-4848 -4875 4906 0
-4848 -4876 4907 0
-4848 -4877 4908 0
-4848 -4878 4909 0
-4848 -4879 4910 0
-4848 -4880 4911 0
-4848 -4881 4912 0
-4848 -4882 4913 0
-4848 -4883 4914 0
-4848 -4884 4915 0
-4848 -4885 4916 0
-4848 -4886 4917 0
-4849 -4868 4900 0
-4849 -4869 4901 0
-4849 -4870 4902 0
-4849 -4871 4903 0
-4849 -4872 4904 0
-4849 -4873 4905 0
-4849 -4874 4906 0
-4849 -4875 4907 0
-4849 -4876 4908 0
-4849 -4877 4909 0
-4849 -4878 4910 0
-4849 -4879 4911 0
-4849 -4880 4912 0
-4849 -4881 4913 0
-4849 -4882 4914 0
-4849 -4883 4915 0
-4849 -4884 4916 0
-4849 -4885 4917 0
-4850 -4868 4901 0
-4850 -4869 4902 0
-4850 -4870 4903 0
-4850 -4871 4904 0
-4850 -4872 4905 0
-4850 -4873 4906 0
-4850 -4874 4907 0
-4850 -4875 4908 0
-4850 -4876 4909 0
-4850 -4877 4910 0
-4850 -4878 4911 0
-4850 -4879 4912 0
-4850 -4880 4913 0
-4850 -4881 4914 0
-4850 -4882 4915 0
-4850 -4883 4916 0
-4850 -4884 4917 0
-4851 -4868 4902 0
-4851 -4869 4903 0
-4851 -4870 4904 0
-4851 -4871 4905 0
-4851 -4872 4906 0
-4851 -4873 4907 0
-4851 -4874 4908 0
-4851 -4875 4909 0
-4851 -4876 4910 0
-4851 -4877 4911 0
-4851 -4878 4912 0
-4851 -4879 4913 0
-4851 -4880 4914 0
-4851 -4881 4915 0
-4851 -4882 4916 0
-4851 -4883 4917 0
-4852 -4868 4903 0
-4852 -4869 4904 0
-4852 -4870 4905 0
-4852 -4871 4906 0
-4852 -4872 4907 0
-4852 -4873 4908 0
-4852 -4874 4909 0
-4852 -4875 4910 0
-4852 -4876 4911 0
-4852 -4877 4912 0
-4852 -4878 4913 0
-4852 -4879 4914 0
-4852 -4880 4915 0
-4852 -4881 4916 0
-4852 -4882 4917 0
-4853 -4868 4904 0
-4853 -4869 4905 0
-4853 -4870 4906 0
-4853 -4871 4907 0
-4853 -4872 4908 0
-4853 -4873 4909 0
-4853 -4874 4910 0
-4853 -4875 4911 0
-4853 -4876 4912 0
-4853 -4877 4913 0
-4853 -4878 4914 0
-4853 -4879 4915 0
-4853 -4880 4916 0
-4853 -4881 4917 0
-4854 -4868 4905 0
-4854 -4869 4906 0
-4854 -4870 4907 0
-4854 -4871 4908 0
-4854 -4872 4909 0
-4854 -4873 4910 0
-4854 -4874 4911 0
-4854 -4875 4912 0
-4854 -4876 4913 0
-4854 -4877 4914 0
-4854 -4878 4915 0
-4854 -4879 4916 0
-4854 -4880 4917 0
-4855 -4868 4906 0
-4855 -4869 4907 0
-4855 -4870 4908 0
-4855 -4871 4909 0
-4855 -4872 4910 0
-4855 -4873 4911 0
-4855 -4874 4912 0
-4855 -4875 4913 0
-4855 -4876 4914 0
-4855 -4877 4915 0
-4855 -4878 4916 0
-4855 -4879 4917 0
-4856 -4868 4907 0
-4856 -4869 4908 0
-4856 -4870 4909 0
-4856 -4871 4910 0
-4856 -4872 4911 0
-4856 -4873 4912 0
-4856 -4874 4913 0
-4856 -4875 4914 0
-4856 -4876 4915 0
-4856 -4877 4916 0
-4856 -4878 4917 0
-4857 -4868 4908 0
-4857 -4869 4909 0
-4857 -4870 4910 0
-4857 -4871 4911 0
-4857 -4872 4912 0
-4857 -4873 4913 0
-4857 -4874 4914 0
-4857 -4875 4915 0
-4857 -4876 4916 0
-4857 -4877 4917 0
-4858 -4868 4909 0
-4858 -4869 4910 0
-4858 -4870 4911 0
-4858 -4871 4912 0
-4858 -4872 4913 0
-4858 -4873 4914 0
-4858 -4874 4915 0
-4858 -4875 4916 0
-4858 -4876 4917 0
-4859 -4868 4910 0
-4859 -4869 4911 0
-4859 -4870 4912 0
-4859 -4871 4913 0
-4859 -4872 4914 0
-4859 -4873 4915 0
-4859 -4874 4916 0
-4859 -4875 4917 0
-4860 -4868 4911 0
-4860 -4869 4912 0
-4860 -4870 4913 0
-4860 -4871 4914 0
-4860 -4872 4915 0
-4860 -4873 4916 0
-4860 -4874 4917 0
-4861 -4868 4912 0
-4861 -4869 4913 0
-4861 -4870 4914 0
-4861 -4871 4915 0
-4861 -4872 4916 0
-4861 -4873 4917 0
-4862 -4868 4913 0
-4862 -4869 4914 0
-4862 -4870 4915 0
-4862 -4871 4916 0
-4862 -4872 4917 0
-4863 -4868 4914 0
-4863 -4869 4915 0
-4863 -4870 4916 0
-4863 -4871 4917 0
-4864 -4868 4915 0
-4864 -4869 4916 0
-4864 -4870 4917 0
-4865 -4868 4916 0
-4865 -4869 4917 0
-4866 -4868 4917 0
-4918 379 0
-4918 1084 0
-4919 379 0
-4919 1099 0
-4920 391 0
-4920 1089 0
-4921 399 0
-4921 1092 0
-4922 426 0
-4922 1124 0
-4923 427 0
-4923 1122 0
-4924 434 0
-4924 1102 0
-4925 447 0
-4925 1135 0
-4926 448 0
-4926 1085 0
-4927 453 0
-4927 537 0
-4928 457 0
-4928 548 0
-4929 461 0
-4929 1158 0
-4930 463 0
-4930 1148 0
-4931 476 0
-4931 1110 0
-4932 478 0
-4932 1151 0
-4933 1117 0
-4933 1118 0
4918 4919 4920 4921 4922 4923 4924 4925 4926 4927 4928 4929 4930 4931 4932 4933 0
-4934 312 0
-4934 499 0
-4935 312 0
-4935 611 0
-4936 371 0
-4936 1097 0
-4937 374 0
-4937 1132 0
-4938 396 0
-4938 1119 0
-4939 430 0
-4939 1090 0
-4940 432 0
-4940 1147 0
-4941 433 0
-4941 1138 0
-4942 444 0
-4942 1087 0
-4943 445 0
-4943 1096 0
-4944 451 0
-4944 1156 0
-4945 455 0
-4945 557 0
-4946 471 0
-4946 1133 0
-4947 1083 0
-4947 1084 0
-4948 1093 0
-4948 1102 0
-4949 1101 0
-4949 1151 0
4934 4935 4936 4937 4938 4939 4940 4941 4942 4943 4944 4945 4946 4947 4948 4949 0
1133 1087 1138 1097 1101 1147 1093 1119 1132 1096 1090 1083 1156 557 0
-4950 7 0
-4950 807 0
-4951 17 0
-4951 543 0
-4952 20 0
-4952 850 0
-4953 20 0
-4953 999 0
-4954 25 0
-4954 809 0
-4955 30 0
-4955 1000 0
-4956 37 0
-4956 743 0
-4957 44 0
-4957 880 0
-4958 48 0
-4958 548 0
-4959 86 0
-4959 599 0
-4960 86 0
-4960 882 0
-4961 91 0
-4961 978 0
-4962 93 0
-4962 549 0
-4963 100 0
-4963 905 0
-4964 114 0
-4964 960 0
-4965 115 0
-4965 948 0
-4966 125 0
-4966 570 0
-4967 128 0
-4967 794 0
-4968 129 0
-4968 923 0
-4969 133 0
-4969 911 0
-4970 133 0
-4970 971 0
-4971 133 0
-4971 974 0
-4972 144 0
-4972 743 0
-4973 145 0
-4973 1009 0
-4974 160 0
-4974 507 0
-4975 163 0
-4975 495 0
-4976 166 0
-4976 547 0
-4977 207 0
-4977 630 0
-4978 207 0
-4978 653 0
-4979 218 0
-4979 636 0
-4980 218 0
-4980 640 0
-4981 225 0
-4981 847 0
-4982 225 0
-4982 940 0
-4983 234 0
-4983 546 0
-4984 234 0
-4984 624 0
-4985 245 0
-4985 857 0
-4986 246 0
-4986 542 0
-4987 277 0
-4987 624 0
-4988 277 0
-4988 655 0
-4989 277 0
-4989 863 0
-4990 286 0
-4990 544 0
-4991 293 0
-4991 519 0
-4992 299 0
-4992 718 0
-4993 329 0
-4993 963 0
-4994 329 0
-4994 987 0
-4995 329 0
-4995 993 0
-4996 329 0
-4996 996 0
-4997 344 0
-4997 558 0
-4998 344 0
-4998 835 0
-4999 344 0
-4999 983 0
-5000 344 0
-5000 989 0
-5001 344 0
-5001 995 0
-5002 354 0
-5002 834 0
-5003 354 0
-5003 838 0
-5004 354 0
-5004 841 0
-5005 360 0
-5005 890 0
-5006 380 0
-5006 1098 0
-5007 417 0
-5007 1109 0
-5008 454 0
-5008 1082 0
-5009 459 0
-5009 1128 0
-5010 474 0
-5010 1127 0
-5011 507 0
-5011 734 0
-5012 551 0
-5012 857 0
-5013 556 0
-5013 781 0
-5014 557 0
-5014 825 0
-5015 567 0
-5015 568 0
-5016 570 0
-5016 574 0
-5017 574 0
-5017 698 0
-5018 632 0
-5018 717 0
-5019 650 0
-5019 812 0
-5020 735 0
-5020 743 0
-5021 839 0
-5021 982 0
-5022 843 0
-5022 909 0
-5023 941 0
-5023 956 0
4950 4951 4952 4953 4954 4955 4956 4957 4958 4959 4960 4961 4962 4963 4964 4965 4966 4967 4968 4969 4970 4971 4972 4973 4974 4975 4976 4977 4978 4979 4980 4981 4982 4983 4984 4985 4986 4987 4988 4989 4990 4991 4992 4993 4994 4995 4996 4997 4998 4999 5000 5001 5002 5003 5004 5005 5006 5007 5008 5009 5010 5011 5012 5013 5014 5015 5016 5017 5018 5019 5020 5021 5022 5023 0
-5024 7 0
-5024 743 0
-5025 57 0
-5025 717 0
-5026 90 0
-5026 640 0
-5027 126 0
-5027 809 0
-5028 218 0
-5028 743 0
-5029 234 0
-5029 857 0
-5030 332 0
-5030 743 0
-5031 345 0
-5031 940 0
-5032 821 0
-5032 857 0
4950 4951 4952 4953 4955 4957 4958 4959 4960 4961 4962 4963 4965 4966 4967 4968 4969 4970 4971 4973 4974 4975 4976 4977 4978 4979 4981 4983 4984 4986 4987 4988 4989 4990 4991 4992 4993 4994 4995 4996 4997 4998 4999 5000 5001 5002 5003 5004 5005 5006 5007 5008 5009 5010 5011 5013 5015 5016 5017 5019 5021 5022 5023 5024 5025 5026 5027 5028 5029 5030 5031 5032 0
-5033 7 0
-5033 716 0
-5034 11 0
-5034 677 0
-5035 22 0
-5035 579 0
-5036 27 0
-5036 1049 0
-5037 36 0
-5037 1009 0
-5038 46 0
-5038 673 0
-5039 60 0
-5039 702 0
-5040 77 0
-5040 771 0
-5041 112 0
-5041 919 0
-5042 116 0
-5042 946 0
-5043 119 0
-5043 1052 0
-5044 132 0
-5044 641 0
-5045 168 0
-5045 547 0
-5046 172 0
-5046 608 0
-5047 173 0
-5047 597 0
-5048 173 0
-5048 990 0
-5049 199 0
-5049 898 0
-5050 201 0
-5050 721 0
-5051 201 0
-5051 789 0
-5052 204 0
-5052 687 0
-5053 204 0
-5053 762 0
-5054 209 0
-5054 620 0
-5055 211 0
-5055 932 0
-5056 211 0
-5056 1002 0
-5057 221 0
-5057 882 0
-5058 243 0
-5058 1017 0
-5059 243 0
-5059 1075 0
-5060 246 0
-5060 871 0
-5061 246 0
-5061 921 0
-5062 246 0
-5062 922 0
-5063 253 0
-5063 518 0
-5064 253 0
-5064 793 0
-5065 264 0
-5065 667 0
-5066 285 0
-5066 550 0
-5067 296 0
-5067 947 0
-5068 298 0
-5068 1008 0
-5069 302 0
-5069 711 0
-5070 302 0
-5070 714 0
-5071 302 0
-5071 854 0
-5072 309 0
-5072 497 0
-5073 309 0
-5073 617 0
-5074 312 0
-5074 491 0
-5075 323 0
-5075 889 0
-5076 331 0
-5076 906 0
-5077 331 0
-5077 945 0
-5078 331 0
-5078 952 0
-5079 331 0
-5079 954 0
-5080 342 0
-5080 1014 0
-5081 343 0
-5081 531 0
-5082 343 0
-5082 536 0
-5083 359 0
-5083 939 0
-5084 359 0
-5084 948 0
-5085 359 0
-5085 957 0
-5086 360 0
-5086 905 0
-5087 368 0
-5087 961 0
-5088 374 0
-5088 1122 0
-5089 375 0
-5089 1097 0
-5090 410 0
-5090 541 0
-5091 444 0
-5091 1145 0
-5092 448 0
-5092 1131 0
-5093 450 0
-5093 1153 0
-5094 477 0
-5094 1114 0
-5095 538 0
-5095 908 0
-5096 540 0
-5096 628 0
-5097 554 0
-5097 681 0
-5098 582 0
-5098 583 0
-5099 660 0
-5099 857 0
-5100 703 0
-5100 822 0
-5101 886 0
-5101 997 0
4939 4944 4986 5005 5008 5033 5034 5035 5036 5037 5038 5039 5040 5041 5042 5043 5044 5045 5046 5047 5048 5049 5050 5051 5052 5053 5054 5055 5056 5057 5058 5059 5060 5061 5062 5063 5064 5065 5066 5067 5068 5069 5070 5071 5072 5073 5074 5075 5076 5077 5078 5079 5080 5081 5082 5083 5084 5085 5086 5087 5088 5089 5090 5091 5092 5093 5094 5095 5096 5097 5098 5099 5100 5101 0
939 673 922 997 597 822 919 620 990 762 971 977 1002 579 702 583 608 771 945 1153 711 882 898 1008 906 952 1009 550 947 974 921 957 0
-5102 383 0
-5102 1161 0
-5103 424 0
-5103 1136 0
-5104 482 0
-5104 1135 0
5102 5103 5104 0
-5105 370 0
-5105 1119 0
-5106 380 0
-5106 1105 0
-5107 384 0
-5107 1102 0
-5108 416 0
-5108 1120 0
-5109 428 0
-5109 1118 0
-5110 443 0
-5110 1150 0
-5111 1087 0
-5111 1136 0
-5112 1102 0
-5112 1124 0
4918 4921 5105 5106 5107 5108 5109 5110 5111 5112 0
4918 4921 5105 5106 5107 5108 5109 5110 5112 0
1105 0
-5113 8 0
-5113 882 0
-5114 8 0
-5114 944 0
-5115 28 0
-5115 761 0
-5116 38 0
-5116 860 0
-5117 39 0
-5117 765 0
-5118 49 0
-5118 901 0
-5119 79 0
-5119 523 0
-5120 79 0
-5120 743 0
-5121 82 0
-5121 966 0
-5122 91 0
-5122 608 0
-5123 98 0
-5123 507 0
-5124 102 0
-5124 658 0
-5125 126 0
-5125 766 0
-5126 136 0
-5126 718 0
-5127 155 0
-5127 531 0
-5128 163 0
-5128 553 0
-5129 164 0
-5129 619 0
-5130 177 0
-5130 1002 0
-5131 198 0
-5131 737 0
-5132 207 0
-5132 812 0
-5133 211 0
-5133 1009 0
-5134 219 0
-5134 848 0
-5135 251 0
-5135 654 0
-5136 251 0
-5136 665 0
-5137 256 0
-5137 843 0
-5138 266 0
-5138 896 0
-5139 271 0
-5139 933 0
-5140 274 0
-5140 904 0
-5141 275 0
-5141 543 0
-5142 275 0
-5142 567 0
-5143 286 0
-5143 570 0
-5144 292 0
-5144 614 0
-5145 325 0
-5145 905 0
-5146 326 0
-5146 900 0
-5147 327 0
-5147 882 0
-5148 343 0
-5148 884 0
-5149 344 0
-5149 956 0
-5150 344 0
-5150 996 0
-5151 350 0
-5151 914 0
-5152 360 0
-5152 941 0
-5153 361 0
-5153 912 0
-5154 361 0
-5154 921 0
-5155 361 0
-5155 930 0
-5156 372 0
-5156 1148 0
-5157 507 0
-5157 630 0
-5158 509 0
-5158 539 0
-5159 536 0
-5159 537 0
-5160 539 0
-5160 914 0
-5161 557 0
-5161 558 0
-5162 561 0
-5162 798 0
-5163 623 0
-5163 998 0
-5164 657 0
-5164 751 0
-5165 718 0
-5165 798 0
-5166 722 0
-5166 1048 0
-5167 830 0
-5167 1016 0
-5168 875 0
-5168 877 0
-5169 895 0
-5169 997 0
-5170 906 0
-5170 1009 0
-5171 922 0
-5171 1021 0
-5172 952 0
-5172 953 0
-5173 959 0
-5173 963 0
-5174 1047 0
-5174 1053 0
-5175 1090 0
-5175 1151 0
4950 4990 5071 5075 5113 5114 5115 5116 5117 5118 5119 5120 5121 5122 5123 5124 5125 5126 5127 5128 5129 5130 5131 5132 5133 5134 5135 5136 5137 5138 5139 5140 5141 5142 5143 5144 5145 5146 5147 5148 5149 5150 5151 5152 5153 5154 5155 5156 5157 5158 5159 5160 5161 5162 5163 5164 5165 5166 5167 5168 5169 5170 5171 5172 5173 5174 5175 0
-5176 222 0
-5176 884 0
-5177 240 0
-5177 914 0
-5178 244 0
-5178 531 0
-5179 246 0
-5179 914 0
-5180 352 0
-5180 877 0
-5181 523 0
-5181 765 0
-5182 585 0
-5182 848 0
4950 4956 4990 5071 5075 5113 5114 5115 5116 5118 5119 5121 5122 5123 5124 5125 5126 5128 5129 5130 5131 5132 5133 5135 5136 5137 5138 5139 5140 5141 5142 5143 5144 5145 5146 5147 5149 5150 5152 5153 5154 5155 5156 5157 5158 5159 5161 5162 5163 5164 5165 5166 5167 5170 5171 5172 5173 5174 5175 5176 5177 5178 5179 5180 5181 5182 0
-5183 8 0
-5183 907 0
-5184 17 0
-5184 538 0
-5185 22 0
-5185 833 0
-5186 44 0
-5186 557 0
-5187 50 0
-5187 721 0
-5188 78 0
-5188 612 0
-5189 85 0
-5189 803 0
-5190 94 0
-5190 521 0
-5191 110 0
-5191 736 0
-5192 110 0
-5192 1043 0
-5193 122 0
-5193 1041 0
-5194 125 0
-5194 507 0
-5195 125 0
-5195 739 0
-5196 131 0
-5196 839 0
-5197 131 0
-5197 861 0
-5198 135 0
-5198 842 0
-5199 183 0
-5199 600 0
-5200 184 0
-5200 506 0
-5201 184 0
-5201 727 0
-5202 188 0
-5202 679 0
-5203 190 0
-5203 636 0
-5204 200 0
-5204 617 0
-5205 207 0
-5205 808 0
-5206 209 0
-5206 516 0
-5207 213 0
-5207 545 0
-5208 213 0
-5208 646 0
-5209 213 0
-5209 649 0
-5210 213 0
-5210 723 0
-5211 213 0
-5211 748 0
-5212 213 0
-5212 751 0
-5213 214 0
-5213 1001 0
-5214 217 0
-5214 902 0
-5215 217 0
-5215 1008 0
-5216 217 0
-5216 1014 0
-5217 226 0
-5217 720 0
-5218 226 0
-5218 1039 0
-5219 244 0
-5219 536 0
-5220 244 0
-5220 632 0
-5221 244 0
-5221 834 0
-5222 244 0
-5222 851 0
-5223 266 0
-5223 532 0
-5224 299 0
-5224 640 0
-5225 299 0
-5225 998 0
-5226 313 0
-5226 831 0
-5227 324 0
-5227 504 0
-5228 324 0
-5228 618 0
-5229 344 0
-5229 553 0
-5230 344 0
-5230 797 0
-5231 367 0
-5231 858 0
-5232 407 0
-5232 1162 0
-5233 517 0
-5233 721 0
-5234 532 0
-5234 786 0
-5235 540 0
-5235 546 0
-5236 557 0
-5236 827 0
-5237 560 0
-5237 686 0
-5238 740 0
-5238 841 0
-5239 754 0
-5239 758 0
-5240 805 0
-5240 806 0
-5241 879 0
-5241 988 0
-5242 985 0
-5242 986 0
4978 4992 4998 5000 5001 5072 5149 5183 5184 5185 5186 5187 5188 5189 5190 5191 5192 5193 5194 5195 5196 5197 5198 5199 5200 5201 5202 5203 5204 5205 5206 5207 5208 5209 5210 5211 5212 5213 5214 5215 5216 5217 5218 5219 5220 5221 5222 5223 5224 5225 5226 5227 5228 5229 5230 5231 5232 5233 5234 5235 5236 5237 5238 5239 5240 5241 5242 0
-5243 17 0
-5243 546 0
-5244 24 0
-5244 1033 0
-5245 94 0
-5245 517 0
-5246 125 0
-5246 715 0
-5247 130 0
-5247 740 0
-5248 214 0
-5248 906 0
-5249 226 0
-5249 679 0
-5250 266 0
-5250 831 0
-5251 299 0
-5251 636 0
-5252 330 0
-5252 797 0
-5253 349 0
-5253 779 0
-5254 441 0
-5254 1099 0
-5255 548 0
-5255 553 0
-5256 551 0
-5256 956 0
-5257 586 0
-5257 740 0
-5258 652 0
-5258 653 0
-5259 719 0
-5259 808 0
-5260 834 0
-5260 845 0
-5261 842 0
-5261 844 0
-5262 952 0
-5262 989 0
4945 4992 4997 4998 5001 5072 5073 5178 5183 5184 5185 5187 5188 5189 5190 5193 5194 5195 5196 5197 5199 5200 5201 5207 5208 5209 5210 5211 5212 5213 5215 5216 5217 5218 5219 5220 5222 5224 5225 5227 5228 5231 5239 5240 5241 5242 5243 5244 5245 5246 5247 5248 5249 5250 5251 5252 5253 5254 5255 5256 5257 5258 5259 5260 5261 5262 0
1162 516 995 679 1014 0
-5263 309 0
-5263 500 0
-5264 309 0
-5264 594 0
-5265 370 0
-5265 1129 0
-5266 412 0
-5266 532 0
-5267 422 0
-5267 1148 0
-5268 429 0
-5268 1091 0
-5269 446 0
-5269 1136 0
-5270 466 0
-5270 1149 0
-5271 1085 0
-5271 1086 0
-5272 1094 0
-5272 1095 0
5109 5263 5264 5265 5266 5267 5268 5269 5270 5271 5272 0
-5273 27 0
-5273 1052 0
-5274 52 0
-5274 893 0
-5275 84 0
-5275 602 0
-5276 84 0
-5276 977 0
-5277 92 0
-5277 1008 0
-5278 133 0
-5278 978 0
-5279 138 0
-5279 698 0
-5280 176 0
-5280 686 0
-5281 177 0
-5281 971 0
-5282 177 0
-5282 987 0
-5283 205 0
-5283 1003 0
-5284 211 0
-5284 563 0
-5285 216 0
-5285 708 0
-5286 216 0
-5286 763 0
-5287 217 0
-5287 571 0
-5288 245 0
-5288 558 0
-5289 245 0
-5289 793 0
-5290 245 0
-5290 934 0
-5291 254 0
-5291 1049 0
-5292 311 0
-5292 825 0
-5293 314 0
-5293 972 0
-5294 315 0
-5294 492 0
-5295 317 0
-5295 858 0
-5296 328 0
-5296 651 0
-5297 347 0
-5297 667 0
-5298 353 0
-5298 836 0
-5299 353 0
-5299 866 0
-5300 353 0
-5300 869 0
-5301 357 0
-5301 845 0
-5302 357 0
-5302 970 0
-5303 367 0
-5303 831 0
-5304 367 0
-5304 1010 0
-5305 397 0
-5305 1143 0
-5306 417 0
-5306 1124 0
-5307 420 0
-5307 1092 0
-5308 423 0
-5308 1097 0
-5309 423 0
-5309 1146 0
-5310 435 0
-5310 1097 0
-5311 435 0
-5311 1100 0
-5312 441 0
-5312 1114 0
-5313 452 0
-5313 1141 0
-5314 533 0
-5314 872 0
-5315 552 0
-5315 553 0
-5316 580 0
-5316 1019 0
-5317 654 0
-5317 964 0
-5318 663 0
-5318 812 0
-5319 697 0
-5319 821 0
-5320 911 0
-5320 980 0
-5321 959 0
-5321 986 0
-5322 962 0
-5322 1002 0
4945 4964 4995 5055 5071 5133 5204 5273 5274 5275 5276 5277 5278 5279 5280 5281 5282 5283 5284 5285 5286 5287 5288 5289 5290 5291 5292 5293 5294 5295 5296 5297 5298 5299 5300 5301 5302 5303 5304 5305 5306 5307 5308 5309 5310 5311 5312 5313 5314 5315 5316 5317 5318 5319 5320 5321 5322 0
602 1008 987 708 571 580 686 893 1003 763 977 971 993 872 617 698 0
-5323 40 0
-5323 971 0
-5324 79 0
-5324 703 0
-5325 79 0
-5325 820 0
-5326 178 0
-5326 524 0
-5327 551 0
-5327 971 0
-5328 820 0
-5328 908 0
-5329 828 0
-5329 993 0
4993 5275 5276 5282 5323 5324 5325 5326 5327 5328 5329 0
-5330 377 0
-5330 1087 0
-5331 377 0
-5331 1094 0
-5332 382 0
-5332 1089 0
-5333 407 0
-5333 1120 0
-5334 408 0
-5334 1097 0
-5335 436 0
-5335 1086 0
-5336 437 0
-5336 1093 0
-5337 443 0
-5337 1151 0
-5338 474 0
-5338 1111 0
-5339 1136 0
-5339 1161 0
-5340 1138 0
-5340 1139 0
4927 4945 5270 5306 5311 5330 5331 5332 5333 5334 5335 5336 5337 5338 5339 5340 0
4927 4945 5270 5306 5311 5330 5331 5332 5333 5334 5335 5336 5337 5338 5340 0
1089 0
-5341 376 0
-5341 1104 0
5341 0
-5342 377 0
-5342 1108 0
-5343 416 0
-5343 1112 0
-5344 481 0
-5344 1145 0
-5345 1107 0
-5345 1162 0
5342 5343 5344 5345 0
1107 0
-5346 380 0
-5346 1085 0
-5347 380 0
-5347 1096 0
-5348 381 0
-5348 1081 0
-5349 382 0
-5349 1090 0
-5350 435 0
-5350 1147 0
-5351 446 0
-5351 1135 0
-5352 1086 0
-5352 1120 0
-5353 1094 0
-5353 1134 0
-5354 1098 0
-5354 1101 0
4928 5090 5337 5346 5347 5348 5349 5350 5351 5352 5353 5354 0
-5355 232 0
-5355 590 0
-5356 243 0
-5356 569 0
-5357 318 0
-5357 516 0
-5358 318 0
-5358 521 0
-5359 318 0
-5359 606 0
-5360 318 0
-5360 1020 0
-5361 324 0
-5361 512 0
-5362 324 0
-5362 598 0
-5363 324 0
-5363 711 0
-5364 379 0
-5364 1108 0
-5365 1102 0
-5365 1162 0
5102 5228 5343 5355 5356 5357 5358 5359 5360 5361 5362 5363 5364 5365 0
-5366 315 0
-5366 590 0
5228 5342 5343 5345 5356 5357 5358 5359 5360 5361 5362 5363 5366 0
1108 1102 0
-5367 22 0
-5367 880 0
-5368 32 0
-5368 856 0
-5369 33 0
-5369 630 0
-5370 47 0
-5370 833 0
-5371 96 0
-5371 969 0
-5372 97 0
-5372 916 0
-5373 123 0
-5373 604 0
-5374 129 0
-5374 854 0
-5375 137 0
-5375 533 0
-5376 137 0
-5376 882 0
-5377 137 0
-5377 1008 0
-5378 149 0
-5378 507 0
-5379 153 0
-5379 531 0
-5380 158 0
-5380 612 0
-5381 173 0
-5381 881 0
-5382 173 0
-5382 1033 0
-5383 236 0
-5383 890 0
-5384 248 0
-5384 967 0
-5385 250 0
-5385 596 0
-5386 250 0
-5386 979 0
-5387 274 0
-5387 693 0
-5388 287 0
-5388 721 0
-5389 289 0
-5389 635 0
-5390 293 0
-5390 797 0
-5391 300 0
-5391 683 0
-5392 328 0
-5392 627 0
-5393 328 0
-5393 663 0
-5394 328 0
-5394 667 0
-5395 330 0
-5395 758 0
-5396 333 0
-5396 980 0
-5397 343 0
-5397 826 0
-5398 345 0
-5398 542 0
-5399 345 0
-5399 547 0
-5400 357 0
-5400 982 0
-5401 397 0
-5401 1142 0
-5402 398 0
-5402 1093 0
-5403 476 0
-5403 1117 0
-5404 516 0
-5404 546 0
-5405 582 0
-5405 826 0
-5406 588 0
-5406 916 0
-5407 625 0
-5407 978 0
-5408 660 0
-5408 751 0
-5409 669 0
-5409 715 0
-5410 669 0
-5410 735 0
-5411 740 0
-5411 988 0
-5412 758 0
-5412 940 0
-5413 786 0
-5413 899 0
-5414 803 0
-5414 968 0
-5415 862 0
-5415 895 0
-5416 907 0
-5416 1021 0
-5417 935 0
-5417 1031 0
-5418 965 0
-5418 970 0
4978 4992 4997 4998 5110 5184 5200 5201 5205 5207 5208 5209 5211 5215 5216 5219 5220 5221 5222 5224 5225 5231 5235 5248 5251 5255 5256 5296 5367 5368 5369 5370 5371 5372 5373 5374 5375 5376 5377 5378 5379 5380 5381 5382 5383 5384 5385 5386 5387 5388 5389 5390 5391 5392 5393 5394 5395 5396 5397 5398 5399 5400 5401 5402 5403 5404 5405 5406 5407 5408 5409 5410 5411 5412 5413 5414 5415 5416 5417 5418 0
-5419 4 0
-5419 625 0
-5420 137 0
-5420 895 0
-5421 146 0
-5421 693 0
-5422 311 0
-5422 667 0
-5423 328 0
-5423 635 0
-5424 352 0
-5424 669 0
-5425 424 0
-5425 1142 0
-5426 890 0
-5426 901 0
4986 4992 4997 4998 5178 5183 5184 5185 5200 5201 5203 5207 5208 5209 5211 5212 5215 5216 5219 5220 5221 5222 5224 5225 5229 5231 5235 5248 5252 5256 5258 5259 5296 5367 5368 5369 5371 5372 5373 5374 5375 5376 5377 5378 5380 5381 5382 5384 5385 5386 5388 5391 5392 5393 5395 5396 5397 5399 5400 5402 5403 5404 5405 5406 5411 5412 5413 5414 5417 5418 5419 5420 5421 5422 5423 5424 5425 5426 0
-5427 19 0
-5427 826 0
-5428 43 0
-5428 1008 0
-5429 70 0
-5429 1008 0
-5430 85 0
-5430 507 0
-5431 116 0
-5431 935 0
-5432 123 0
-5432 943 0
-5433 181 0
-5433 1021 0
-5434 214 0
-5434 931 0
-5435 248 0
-5435 856 0
-5436 276 0
-5436 568 0
-5437 276 0
-5437 837 0
-5438 339 0
-5438 789 0
-5439 341 0
-5439 968 0
-5440 343 0
-5440 870 0
-5441 349 0
-5441 758 0
-5442 546 0
-5442 945 0
-5443 640 0
-5443 647 0
-5444 727 0
-5444 1005 0
-5445 826 0
-5445 884 0
-5446 861 0
-5446 969 0
-5447 916 0
-5447 1018 0
-5448 1014 0
-5448 1048 0
4978 4992 4997 4998 5110 5149 5184 5185 5200 5201 5203 5207 5208 5209 5211 5219 5220 5221 5222 5225 5229 5231 5239 5243 5248 5252 5259 5367 5369 5373 5374 5375 5376 5379 5380 5381 5382 5384 5385 5386 5388 5398 5399 5400 5402 5403 5407 5408 5409 5410 5411 5413 5418 5425 5427 5428 5429 5430 5431 5432 5433 5434 5435 5436 5437 5438 5439 5440 5441 5442 5443 5444 5445 5446 5447 5448 0
-5449 172 0
-5449 604 0
-5450 217 0
-5450 1021 0
-5451 248 0
-5451 837 0
-5452 273 0
-5452 906 0
-5453 535 0
-5453 880 0
-5454 742 0
-5454 880 0
4978 4986 4992 4997 4998 5031 5149 5184 5185 5200 5201 5205 5207 5208 5209 5211 5212 5215 5216 5219 5220 5221 5222 5224 5225 5230 5231 5235 5251 5255 5369 5371 5374 5375 5376 5377 5379 5380 5381 5382 5384 5385 5386 5388 5391 5395 5399 5400 5402 5403 5404 5407 5411 5413 5414 5418 5424 5425 5427 5430 5431 5432 5434 5435 5436 5438 5445 5447 5449 5450 5451 5452 5453 5454 0
880 649 727 721 746 826 612 538 735 507 808 1018 653 758 506 931 988 568 899 545 968 943 1008 870 533 969 630 834 546 0
-5455 16 0
-5455 727 0
-5456 67 0
-5456 1001 0
-5457 141 0
-5457 986 0
-5458 156 0
-5458 596 0
-5459 296 0
-5459 600 0
-5460 548 0
-5460 727 0
-5461 844 0
-5461 869 0
4978 5184 5200 5205 5239 5243 5269 5369 5380 5386 5407 5430 5439 5441 5455 5456 5457 5458 5459 5460 5461 0
-5462 384 0
-5462 1162 0
-5463 401 0
-5463 1103 0
-5464 419 0
-5464 1112 0
-5465 420 0
-5465 1150 0
-5466 440 0
-5466 1115 0
-5467 475 0
-5467 1111 0
5462 5463 5464 5465 5466 5467 0
1162 0
-5468 445 0
-5468 1145 0
-5469 1099 0
-5469 1162 0
-5470 1120 0
-5470 1162 0
5468 5469 5470 0
5462 5468 0
-5471 373 0
-5471 1142 0
-5472 427 0
-5472 1136 0
-5473 1094 0
-5473 1161 0
5094 5306 5364 5471 5472 5473 0
-5474 392 0
-5474 1161 0
5094 5306 5364 5472 5474 0
1142 1094 0
-5475 369 0
-5475 1099 0
-5476 386 0
-5476 1082 0
-5477 419 0
-5477 1119 0
-5478 428 0
-5478 1095 0
-5479 433 0
-5479 1083 0
-5480 433 0
-5480 1096 0
-5481 459 0
-5481 1129 0
-5482 464 0
-5482 1154 0
-5483 477 0
-5483 1121 0
-5484 1120 0
-5484 1122 0
4928 5090 5254 5263 5264 5266 5334 5353 5402 5475 5476 5477 5478 5479 5480 5481 5482 5483 5484 0
-5485 404 0
-5485 1099 0
-5486 425 0
-5486 1134 0
-5487 438 0
-5487 1083 0
-5488 455 0
-5488 1119 0
-5489 465 0
-5489 1121 0
-5490 1101 0
-5490 1154 0
-5491 1112 0
-5491 1162 0
4928 4943 5090 5263 5264 5266 5334 5402 5476 5478 5481 5485 5486 5487 5488 5489 5490 5491 0
-5492 29 0
-5492 740 0
-5493 81 0
-5493 517 0
-5494 81 0
-5494 786 0
-5495 106 0
-5495 799 0
-5496 106 0
-5496 1030 0
-5497 116 0
-5497 984 0
-5498 145 0
-5498 946 0
-5499 179 0
-5499 610 0
-5500 182 0
-5500 819 0
-5501 210 0
-5501 697 0
-5502 218 0
-5502 999 0
-5503 249 0
-5503 1033 0
-5504 255 0
-5504 519 0
-5505 255 0
-5505 738 0
-5506 255 0
-5506 806 0
-5507 270 0
-5507 941 0
-5508 271 0
-5508 929 0
-5509 272 0
-5509 721 0
-5510 287 0
-5510 879 0
-5511 297 0
-5511 500 0
-5512 297 0
-5512 506 0
-5513 321 0
-5513 509 0
-5514 321 0
-5514 619 0
-5515 414 0
-5515 552 0
-5516 458 0
-5516 1088 0
-5517 563 0
-5517 771 0
-5518 577 0
-5518 879 0
-5519 832 0
-5519 1014 0
-5520 833 0
-5520 869 0
-5521 902 0
-5521 906 0
-5522 912 0
-5522 916 0
-5523 966 0
-5523 967 0
4980 4992 5028 5087 5147 5209 5211 5215 5251 5257 5450 5451 5492 5493 5494 5495 5496 5497 5498 5499 5500 5501 5502 5503 5504 5505 5506 5507 5508 5509 5510 5511 5512 5513 5514 5515 5516 5517 5518 5519 5520 5521 5522 5523 0
799 517 610 748 941 879 786 740 916 649 0
-5524 97 0
-5524 917 0
-5525 373 0
-5525 1134 0
-5526 401 0
-5526 1081 0
-5527 410 0
-5527 1127 0
-5528 436 0
-5528 1087 0
-5529 437 0
-5529 1124 0
-5530 453 0
-5530 1120 0
-5531 463 0
-5531 1133 0
-5532 469 0
-5532 1139 0
-5533 477 0
-5533 1091 0
-5534 478 0
-5534 1101 0
-5535 482 0
-5535 1096 0
-5536 484 0
-5536 1095 0
-5537 594 0
-5537 595 0
-5538 594 0
-5538 598 0
-5539 594 0
-5539 694 0
-5540 758 0
-5540 968 0
-5541 927 0
-5541 968 0
4923 4927 4941 5089 5090 5109 5263 5406 5524 5525 5526 5527 5528 5529 5530 5531 5532 5533 5534 5535 5536 5537 5538 5539 5540 5541 0
4923 4927 4941 5089 5090 5109 5263 5264 5525 5526 5527 5528 5529 5530 5531 5532 5533 5534 5535 5536 0
-5542 324 0
-5542 1013 0
-5543 370 0
-5543 1084 0
-5544 387 0
-5544 1082 0
-5545 426 0
-5545 1086 0
-5546 429 0
-5546 1093 0
-5547 437 0
-5547 1094 0
-5548 437 0
-5548 1123 0
-5549 437 0
-5549 1126 0
-5550 439 0
-5550 1111 0
-5551 1084 0
-5551 1085 0
-5552 1096 0
-5552 1138 0
4945 4946 5227 5270 5361 5362 5515 5542 5543 5544 5545 5546 5547 5548 5549 5550 5551 5552 0
4945 4946 5227 5270 5361 5362 5515 5542 5543 5544 5545 5546 5547 5548 5549 5550 5551 0
1126 1086 1094 1093 1123 552 1084 0
-5553 315 0
-5553 522 0
-5554 315 0
-5554 607 0
-5555 406 0
-5555 1106 0
-5556 1100 0
-5556 1108 0
5269 5474 5553 5554 5555 5556 0
-5557 379 0
-5557 1106 0
5269 5474 5556 5557 0
1161 0
-5558 321 0
-5558 578 0
-5559 1095 0
-5559 1127 0
4928 5009 5227 5361 5362 5542 5558 5559 0
-5560 437 0
-5560 1125 0
4928 5009 5227 5265 5268 5271 5272 5361 5362 5467 5542 5558 5560 0
1125 1094 1128 548 1086 1129 0
-5561 433 0
-5561 1128 0
-5562 1125 0
-5562 1126 0
4928 5271 5272 5481 5548 5561 5562 0
-5563 369 0
-5563 1120 0
-5564 443 0
-5564 1098 0
-5565 456 0
-5565 1160 0
-5566 464 0
-5566 1119 0
-5567 467 0
-5567 1132 0
-5568 480 0
-5568 1154 0
4945 5469 5486 5489 5563 5564 5565 5566 5567 5568 0
-5569 370 0
-5569 1098 0
4945 5486 5489 5565 5566 5567 5568 5569 0
1099 1120 0
-5570 446 0
-5570 1086 0
-5571 484 0
-5571 1138 0
-5572 562 0
-5572 871 0
-5573 867 0
-5573 871 0
-5574 871 0
-5574 1021 0
5532 5570 5571 5572 5573 5574 0
5532 5570 5571 0
-5575 8 0
-5575 766 0
-5576 98 0
-5576 723 0
-5577 118 0
-5577 663 0
-5578 118 0
-5578 1047 0
-5579 119 0
-5579 888 0
-5580 130 0
-5580 713 0
-5581 130 0
-5581 719 0
-5582 134 0
-5582 780 0
-5583 161 0
-5583 608 0
-5584 164 0
-5584 613 0
-5585 176 0
-5585 663 0
-5586 187 0
-5586 810 0
-5587 197 0
-5587 817 0
-5588 212 0
-5588 619 0
-5589 218 0
-5589 749 0
-5590 296 0
-5590 759 0
-5591 301 0
-5591 674 0
-5592 333 0
-5592 854 0
-5593 351 0
-5593 539 0
-5594 351 0
-5594 544 0
-5595 367 0
-5595 685 0
-5596 399 0
-5596 1083 0
-5597 423 0
-5597 1150 0
-5598 450 0
-5598 1116 0
-5599 475 0
-5599 1081 0
-5600 486 0
-5600 509 0
-5601 519 0
-5601 794 0
-5602 522 0
-5602 523 0
-5603 532 0
-5603 858 0
-5604 842 0
-5604 843 0
-5605 901 0
-5605 942 0
-5606 922 0
-5606 974 0
4927 4950 4956 4977 4979 4980 4990 5056 5113 5114 5116 5121 5126 5127 5131 5132 5133 5135 5136 5139 5141 5142 5143 5144 5147 5152 5159 5162 5165 5166 5173 5182 5225 5247 5303 5575 5576 5577 5578 5579 5580 5581 5582 5583 5584 5585 5586 5587 5588 5589 5590 5591 5592 5593 5594 5595 5596 5597 5598 5599 5600 5601 5602 5603 5604 5605 5606 0
966 718 998 663 860 963 522 737 743 848 613 608 561 944 1002 674 942 1009 619 509 1047 723 766 614 974 817 882 759 740 0
-5607 7 0
-5607 809 0
-5608 23 0
-5608 749 0
-5609 31 0
-5609 698 0
-5610 47 0
-5610 915 0
-5611 48 0
-5611 930 0
-5612 57 0
-5612 743 0
-5613 83 0
-5613 821 0
-5614 84 0
-5614 915 0
-5615 86 0
-5615 1018 0
-5616 102 0
-5616 722 0
-5617 108 0
-5617 991 0
-5618 111 0
-5618 801 0
-5619 111 0
-5619 1053 0
-5620 116 0
-5620 608 0
-5621 122 0
-5621 647 0
-5622 134 0
-5622 798 0
-5623 144 0
-5623 791 0
-5624 145 0
-5624 854 0
-5625 157 0
-5625 492 0
-5626 157 0
-5626 495 0
-5627 158 0
-5627 558 0
-5628 169 0
-5628 601 0
-5629 185 0
-5629 752 0
-5630 190 0
-5630 671 0
-5631 191 0
-5631 707 0
-5632 192 0
-5632 688 0
-5633 207 0
-5633 556 0
-5634 225 0
-5634 1021 0
-5635 246 0
-5635 547 0
-5636 247 0
-5636 655 0
-5637 252 0
-5637 917 0
-5638 262 0
-5638 743 0
-5639 263 0
-5639 866 0
-5640 271 0
-5640 939 0
-5641 289 0
-5641 636 0
-5642 291 0
-5642 896 0
-5643 310 0
-5643 870 0
-5644 313 0
-5644 830 0
-5645 338 0
-5645 718 0
-5646 347 0
-5646 836 0
-5647 355 0
-5647 824 0
-5648 361 0
-5648 929 0
-5649 363 0
-5649 875 0
-5650 424 0
-5650 1087 0
-5651 452 0
-5651 1137 0
-5652 465 0
-5652 1142 0
-5653 496 0
-5653 524 0
-5654 524 0
-5654 779 0
-5655 546 0
-5655 890 0
-5656 561 0
-5656 562 0
-5657 562 0
-5657 1001 0
-5658 586 0
-5658 835 0
-5659 605 0
-5659 922 0
-5660 607 0
-5660 608 0
-5661 682 0
-5661 909 0
-5662 711 0
-5662 927 0
-5663 732 0
-5663 783 0
-5664 762 0
-5664 763 0
-5665 810 0
-5665 1070 0
-5666 918 0
-5666 974 0
-5667 1003 0
-5667 1032 0
4950 4957 4960 4969 4970 4977 4978 4986 4990 4991 5002 5003 5004 5008 5019 5021 5031 5086 5090 5114 5120 5141 5143 5152 5153 5194 5229 5237 5266 5268 5278 5292 5422 5607 5608 5609 5610 5611 5612 5613 5614 5615 5616 5617 5618 5619 5620 5621 5622 5623 5624 5625 5626 5627 5628 5629 5630 5631 5632 5633 5634 5635 5636 5637 5638 5639 5640 5641 5642 5643 5644 5645 5646 5647 5648 5649 5650 5651 5652 5653 5654 5655 5656 5657 5658 5659 5660 5661 5662 5663 5664 5665 5666 5667 0
-5668 44 0
-5668 825 0
-5669 108 0
-5669 707 0
-5670 171 0
-5670 541 0
-5671 185 0
-5671 722 0
-5672 198 0
-5672 749 0
-5673 207 0
-5673 783 0
-5674 214 0
-5674 1018 0
-5675 219 0
-5675 671 0
-5676 242 0
-5676 880 0
-5677 263 0
-5677 870 0
-5678 266 0
-5678 824 0
-5679 297 0
-5679 725 0
-5680 332 0
-5680 682 0
-5681 355 0
-5681 826 0
-5682 366 0
-5682 866 0
-5683 374 0
-5683 1087 0
-5684 537 0
-5684 830 0
-5685 539 0
-5685 915 0
-5686 541 0
-5686 904 0
-5687 599 0
-5687 601 0
-5688 854 0
-5688 915 0
4950 4956 4960 4969 4970 4971 4972 4976 4977 4978 4986 4990 4991 4997 5002 5003 5004 5008 5019 5020 5021 5023 5025 5027 5031 5069 5086 5114 5141 5143 5153 5155 5162 5194 5229 5237 5266 5268 5278 5422 5609 5613 5617 5618 5619 5620 5621 5624 5625 5626 5629 5632 5633 5636 5637 5640 5641 5642 5645 5646 5648 5649 5651 5652 5655 5656 5657 5658 5660 5667 5668 5669 5670 5671 5672 5673 5674 5675 5676 5677 5678 5679 5680 5681 5682 5683 5684 5685 5686 5687 5688 0
-5689 44 0
-5689 991 0
-5690 51 0
-5690 839 0
-5691 206 0
-5691 492 0
-5692 308 0
-5692 725 0
-5693 346 0
-5693 561 0
-5694 355 0
-5694 827 0
-5695 560 0
-5695 567 0
-5696 561 0
-5696 616 0
-5697 609 0
-5697 861 0
-5698 713 0
-5698 988 0
-5699 773 0
-5699 880 0
-5700 1040 0
-5700 1053 0
4950 4955 4959 4960 4969 4970 4971 4975 4976 4977 4978 4986 4990 4991 5002 5003 5004 5005 5008 5019 5027 5031 5069 5086 5090 5114 5120 5141 5143 5153 5194 5213 5266 5268 5278 5608 5609 5611 5612 5613 5615 5618 5620 5621 5624 5629 5631 5632 5633 5636 5637 5638 5640 5641 5645 5647 5648 5651 5652 5660 5663 5671 5680 5683 5685 5688 5689 5690 5691 5692 5693 5694 5695 5696 5697 5698 5699 5700 0
781 1053 561 601 880 567 915 492 495 507 945 821 801 711 749 519 630 653 608 807 698 671 717 909 743 725 812 541 655 1087 982 854 827 688 809 978 882 0
-5701 32 0
-5701 882 0
-5702 51 0
-5702 1009 0
-5703 180 0
-5703 519 0
-5704 180 0
-5704 653 0
-5705 180 0
-5705 702 0
-5706 189 0
-5706 843 0
-5707 220 0
-5707 781 0
-5708 488 0
-5708 616 0
-5709 519 0
-5709 646 0
-5710 593 0
-5710 809 0
-5711 616 0
-5711 636 0
-5712 639 0
-5712 749 0
4950 4955 4957 4959 4977 4982 5019 5021 5024 5025 5030 5069 5122 5123 5609 5613 5618 5619 5624 5625 5640 5685 5688 5701 5702 5703 5704 5705 5706 5707 5708 5709 5710 5711 5712 0
4950 4955 4957 4959 4977 4982 5019 5021 5024 5025 5030 5069 5122 5123 5609 5613 5618 5619 5624 5625 5640 5685 5688 5696 5701 5702 5703 5704 5705 5706 5707 5709 5710 5712 0
-5713 14 0
-5713 749 0
-5714 202 0
-5714 593 0
-5715 567 0
-5715 1006 0
-5716 599 0
-5716 671 0
4950 4957 4977 4982 4991 5019 5021 5024 5025 5030 5123 5609 5613 5618 5620 5624 5625 5640 5660 5661 5662 5679 5685 5687 5688 5696 5700 5701 5704 5705 5707 5713 5714 5715 5716 0
-5717 651 0
-5717 702 0
-5718 717 0
-5718 798 0
4950 4977 4978 4982 4991 5019 5021 5024 5030 5123 5541 5607 5609 5613 5618 5620 5624 5625 5640 5660 5675 5685 5687 5688 5692 5696 5699 5700 5701 5706 5707 5713 5717 5718 0
556 698 807 854 749 653 882 616 743 880 539 1053 492 519 939 1006 982 968 812 702 593 507 632 682 821 608 630 599 801 0
-5719 26 0
-5719 817 0
-5720 26 0
-5720 1055 0
-5721 112 0
-5721 950 0
-5722 403 0
-5722 1087 0
-5723 403 0
-5723 1121 0
-5724 413 0
-5724 1157 0
-5725 434 0
-5725 1114 0
-5726 442 0
-5726 1091 0
-5727 466 0
-5727 1147 0
-5728 470 0
-5728 1134 0
-5729 1083 0
-5729 1128 0
5010 5227 5268 5270 5354 5358 5359 5361 5362 5515 5542 5719 5720 5721 5722 5723 5724 5725 5726 5727 5728 5729 0
-5730 13 0
-5730 704 0
-5731 20 0
-5731 562 0
-5732 20 0
-5732 666 0
-5733 20 0
-5733 743 0
-5734 21 0
-5734 652 0
-5735 36 0
-5735 839 0
-5736 52 0
-5736 889 0
-5737 69 0
-5737 789 0
-5738 101 0
-5738 768 0
-5739 134 0
-5739 718 0
-5740 142 0
-5740 702 0
-5741 143 0
-5741 976 0
-5742 150 0
-5742 598 0
-5743 160 0
-5743 496 0
-5744 169 0
-5744 542 0
-5745 173 0
-5745 839 0
-5746 198 0
-5746 718 0
-5747 221 0
-5747 756 0
-5748 227 0
-5748 901 0
-5749 230 0
-5749 527 0
-5750 230 0
-5750 949 0
-5751 250 0
-5751 1036 0
-5752 264 0
-5752 630 0
-5753 267 0
-5753 532 0
-5754 271 0
-5754 914 0
-5755 278 0
-5755 872 0
-5756 289 0
-5756 493 0
-5757 290 0
-5757 831 0
-5758 291 0
-5758 983 0
-5759 292 0
-5759 996 0
-5760 323 0
-5760 673 0
-5761 323 0
-5761 929 0
-5762 327 0
-5762 897 0
-5763 329 0
-5763 886 0
-5764 345 0
-5764 901 0
-5765 345 0
-5765 933 0
-5766 347 0
-5766 622 0
-5767 347 0
-5767 627 0
-5768 362 0
-5768 853 0
-5769 362 0
-5769 871 0
-5770 374 0
-5770 1102 0
-5771 393 0
-5771 1087 0
-5772 492 0
-5772 551 0
-5773 511 0
-5773 766 0
-5774 519 0
-5774 792 0
-5775 535 0
-5775 881 0
-5776 549 0
-5776 683 0
-5777 563 0
-5777 591 0
-5778 600 0
-5778 674 0
-5779 632 0
-5779 734 0
-5780 700 0
-5780 949 0
-5781 734 0
-5781 1065 0
-5782 836 0
-5782 838 0
-5783 861 0
-5783 982 0
-5784 881 0
-5784 882 0
-5785 945 0
-5785 959 0
-5786 1087 0
-5786 1090 0
4927 4994 4995 5005 5083 5123 5131 5149 5153 5154 5155 5208 5209 5227 5299 5365 5379 5385 5386 5504 5582 5624 5701 5713 5730 5731 5732 5733 5734 5735 5736 5737 5738 5739 5740 5741 5742 5743 5744 5745 5746 5747 5748 5749 5750 5751 5752 5753 5754 5755 5756 5757 5758 5759 5760 5761 5762 5763 5764 5765 5766 5767 5768 5769 5770 5771 5772 5773 5774 5775 5776 5777 5778 5779 5780 5781 5782 5783 5784 5785 5786 0
-5787 519 0
-5787 793 0
-5788 541 0
-5788 542 0
-5789 647 0
-5789 789 0
4927 4991 4994 4995 5005 5083 5123 5131 5149 5153 5154 5155 5208 5209 5227 5299 5365 5379 5385 5386 5582 5624 5701 5713 5730 5731 5732 5733 5734 5735 5736 5738 5739 5740 5741 5742 5743 5745 5746 5747 5748 5749 5750 5751 5752 5753 5754 5755 5756 5757 5758 5759 5760 5761 5762 5763 5764 5765 5766 5767 5768 5769 5770 5771 5773 5775 5776 5777 5778 5779 5780 5781 5782 5783 5784 5785 5786 5787 5788 5789 0
1102 537 527 959 872 496 949 882 780 982 756 596 737 914 839 591 702 519 881 646 600 749 649 854 627 1036 683 652 718 838 930 507 866 789 979 630 743 0
-5790 372 0
-5790 1092 0
-5791 406 0
-5791 1096 0
-5792 429 0
-5792 1133 0
-5793 432 0
-5793 1085 0
-5794 440 0
-5794 1081 0
-5795 442 0
-5795 1151 0
-5796 455 0
-5796 1116 0
-5797 468 0
-5797 1138 0
-5798 480 0
-5798 1152 0
-5799 1097 0
-5799 1149 0
-5800 1099 0
-5800 1109 0
5109 5343 5352 5564 5569 5790 5791 5792 5793 5794 5795 5796 5797 5798 5799 5800 0
-5801 406 0
-5801 1149 0
-5802 441 0
-5802 1116 0
-5803 1152 0
-5803 1153 0
5109 5254 5343 5564 5569 5790 5791 5792 5793 5794 5795 5797 5801 5802 5803 0
-5804 461 0
-5804 1118 0
-5805 1085 0
-5805 1139 0
5254 5343 5354 5531 5790 5794 5795 5798 5802 5804 5805 0
1112 1101 1081 1118 1151 1116 1133 1092 1099 0
-5806 470 0
-5806 1127 0
-5807 483 0
-5807 1140 0
-5808 1092 0
-5808 1148 0
4927 4947 4948 5270 5358 5359 5526 5728 5806 5807 5808 0
-5809 438 0
-5809 1111 0
-5810 448 0
-5810 1123 0
-5811 475 0
-5811 1133 0
-5812 1127 0
-5812 1128 0
4945 4947 4948 5008 5092 5728 5809 5810 5811 5812 0
1133 1083 1123 557 1131 1102 1111 1134 1082 1128 0
-5813 29 0
-5813 718 0
-5814 29 0
-5814 721 0
-5815 77 0
-5815 789 0
-5816 81 0
-5816 663 0
-5817 81 0
-5817 798 0
-5818 81 0
-5818 1052 0
-5819 118 0
-5819 505 0
-5820 118 0
-5820 733 0
-5821 125 0
-5821 724 0
-5822 125 0
-5822 805 0
-5823 128 0
-5823 977 0
-5824 141 0
-5824 1012 0
-5825 150 0
-5825 579 0
-5826 160 0
-5826 524 0
-5827 163 0
-5827 552 0
-5828 175 0
-5828 1010 0
-5829 177 0
-5829 614 0
-5830 201 0
-5830 717 0
-5831 216 0
-5831 673 0
-5832 241 0
-5832 911 0
-5833 244 0
-5833 838 0
-5834 276 0
-5834 911 0
-5835 282 0
-5835 555 0
-5836 360 0
-5836 933 0
-5837 527 0
-5837 838 0
-5838 552 0
-5838 929 0
-5839 562 0
-5839 615 0
-5840 571 0
-5840 572 0
-5841 579 0
-5841 712 0
-5842 580 0
-5842 699 0
-5843 623 0
-5843 990 0
-5844 659 0
-5844 949 0
-5845 678 0
-5845 797 0
-5846 741 0
-5846 1049 0
-5847 763 0
-5847 820 0
-5848 857 0
-5848 970 0
-5849 873 0
-5849 987 0
-5850 912 0
-5850 914 0
4927 4970 5030 5045 5050 5055 5056 5065 5087 5133 5152 5195 5204 5222 5274 5275 5277 5283 5284 5285 5288 5289 5290 5293 5294 5295 5300 5301 5321 5329 5398 5634 5646 5804 5813 5814 5815 5816 5817 5818 5819 5820 5821 5822 5823 5824 5825 5826 5827 5828 5829 5830 5831 5832 5833 5834 5835 5836 5837 5838 5839 5840 5841 5842 5843 5844 5845 5846 5847 5848 5849 5850 0
-5851 54 0
-5851 721 0
-5852 104 0
-5852 893 0
-5853 166 0
-5853 552 0
-5854 194 0
-5854 678 0
-5855 274 0
-5855 712 0
-5856 346 0
-5856 838 0
-5857 358 0
-5857 857 0
-5858 362 0
-5858 914 0
-5859 552 0
-5859 930 0
-5860 659 0
-5860 660 0
-5861 741 0
-5861 1069 0
-5862 838 0
-5862 840 0
-5863 851 0
-5863 853 0
4927 4969 4970 4986 5030 5038 5051 5055 5056 5064 5065 5087 5133 5152 5195 5204 5275 5277 5283 5284 5285 5286 5288 5290 5293 5294 5295 5300 5301 5320 5321 5329 5509 5634 5635 5646 5804 5813 5816 5817 5818 5819 5820 5821 5822 5823 5824 5825 5826 5828 5829 5830 5835 5836 5840 5842 5843 5849 5851 5852 5853 5854 5855 5856 5857 5858 5859 5860 5861 5862 5863 0
-5864 18 0
-5864 911 0
-5865 29 0
-5865 579 0
-5866 58 0
-5866 1012 0
-5867 100 0
-5867 930 0
-5868 211 0
-5868 959 0
-5869 223 0
-5869 908 0
-5870 245 0
-5870 972 0
-5871 350 0
-5871 580 0
-5872 361 0
-5872 932 0
-5873 611 0
-5873 614 0
-5874 661 0
-5874 971 0
-5875 717 0
-5875 1065 0
-5876 869 0
-5876 915 0
-5877 869 0
-5877 920 0
-5878 910 0
-5878 911 0
4927 4986 4993 4995 5030 5045 5051 5056 5064 5065 5133 5152 5195 5204 5222 5275 5277 5284 5285 5288 5290 5294 5295 5301 5302 5509 5634 5646 5804 5813 5816 5817 5818 5819 5820 5821 5822 5823 5826 5828 5831 5833 5835 5836 5837 5840 5843 5844 5845 5846 5847 5849 5850 5851 5852 5853 5864 5865 5866 5867 5868 5869 5870 5871 5872 5873 5874 5875 5876 5877 5878 0
-5879 746 0
-5879 789 0
4927 4986 4993 4995 5030 5045 5055 5056 5064 5065 5133 5152 5195 5204 5222 5275 5277 5284 5285 5288 5290 5294 5295 5300 5301 5302 5509 5634 5646 5804 5813 5816 5817 5818 5819 5820 5821 5822 5823 5826 5828 5831 5833 5835 5836 5837 5840 5843 5845 5846 5847 5849 5850 5851 5852 5853 5860 5864 5865 5866 5867 5868 5869 5870 5871 5873 5874 5875 5878 5879 0
873 1012 1008 708 661 572 614 602 524 838 993 1003 580 893 623 977 930 660 970 912 537 743 763 0
-5880 22 0
-5880 582 0
-5881 48 0
-5881 948 0
-5882 57 0
-5882 687 0
-5883 80 0
-5883 608 0
-5884 87 0
-5884 501 0
-5885 93 0
-5885 948 0
-5886 94 0
-5886 753 0
-5887 106 0
-5887 734 0
-5888 111 0
-5888 747 0
-5889 115 0
-5889 905 0
-5890 146 0
-5890 772 0
-5891 185 0
-5891 684 0
-5892 200 0
-5892 497 0
-5893 201 0
-5893 540 0
-5894 204 0
-5894 822 0
-5895 208 0
-5895 1010 0
-5896 243 0
-5896 898 0
-5897 246 0
-5897 641 0
-5898 288 0
-5898 946 0
-5899 289 0
-5899 498 0
-5900 320 0
-5900 956 0
-5901 344 0
-5901 733 0
-5902 390 0
-5902 1097 0
-5903 408 0
-5903 1095 0
-5904 421 0
-5904 1098 0
-5905 456 0
-5905 1152 0
-5906 457 0
-5906 1142 0
-5907 467 0
-5907 1155 0
-5908 506 0
-5908 720 0
-5909 651 0
-5909 983 0
-5910 654 0
-5910 698 0
-5911 667 0
-5911 669 0
-5912 672 0
-5912 673 0
-5913 703 0
-5913 873 0
-5914 1022 0
-5914 1025 0
4986 4990 4994 4997 5002 5003 5004 5017 5033 5035 5036 5037 5043 5047 5048 5050 5051 5055 5057 5058 5059 5060 5061 5062 5067 5069 5070 5071 5078 5079 5083 5085 5141 5142 5143 5153 5155 5175 5204 5229 5266 5322 5571 5629 5635 5648 5658 5724 5785 5849 5880 5881 5882 5883 5884 5885 5886 5887 5888 5889 5890 5891 5892 5893 5894 5895 5896 5897 5898 5899 5900 5901 5902 5903 5904 5905 5906 5907 5908 5909 5910 5911 5912 5913 5914 0
-5915 49 0
-5915 905 0
-5916 185 0
-5916 747 0
-5917 185 0
-5917 753 0
-5918 317 0
-5918 948 0
-5919 320 0
-5919 921 0
-5920 340 0
-5920 873 0
-5921 354 0
-5921 822 0
-5922 408 0
-5922 1138 0
-5923 506 0
-5923 722 0
-5924 716 0
-5924 717 0
-5925 772 0
-5925 800 0
-5926 819 0
-5926 948 0
-5927 873 0
-5927 886 0
-5928 874 0
-5928 946 0
-5929 1022 0
-5929 1023 0
4986 4990 4994 5002 5003 5004 5035 5036 5037 5043 5044 5046 5047 5048 5049 5050 5051 5055 5056 5057 5058 5059 5060 5062 5067 5069 5070 5071 5078 5079 5083 5085 5141 5142 5143 5149 5153 5155 5161 5175 5204 5229 5266 5508 5629 5635 5658 5724 5785 5880 5882 5884 5887 5891 5892 5893 5895 5899 5901 5902 5903 5904 5906 5907 5909 5911 5912 5915 5916 5917 5918 5919 5920 5921 5922 5923 5924 5925 5926 5927 5928 5929 0
-5930 49 0
-5930 924 0
-5931 201 0
-5931 669 0
-5932 201 0
-5932 672 0
-5933 241 0
-5933 930 0
-5934 331 0
-5934 947 0
-5935 445 0
-5935 1097 0
-5936 602 0
-5936 747 0
4986 4990 4994 4997 4999 5002 5003 5004 5006 5035 5036 5037 5042 5043 5047 5048 5050 5051 5055 5056 5058 5059 5060 5062 5078 5079 5083 5085 5099 5105 5141 5142 5143 5153 5204 5229 5266 5334 5629 5635 5648 5658 5671 5785 5880 5882 5883 5884 5886 5887 5890 5891 5892 5893 5894 5895 5896 5897 5899 5900 5901 5914 5915 5918 5920 5924 5927 5930 5931 5932 5933 5934 5935 5936 0
990 800 1009 987 1002 608 873 687 597 498 932 501 954 835 871 922 532 957 641 905 667 1010 0
-5937 80 0
-5937 971 0
-5938 137 0
-5938 987 0
-5939 146 0
-5939 687 0
-5940 163 0
-5940 501 0
-5941 174 0
-5941 498 0
-5942 554 0
-5942 987 0
5047 5048 5055 5056 5890 5913 5937 5938 5939 5940 5941 5942 0
5047 5048 5055 5056 5611 5874 5884 5913 5925 5938 5939 5941 5942 0
5047 5048 5055 5056 5913 5925 5937 5938 5939 5940 5941 5942 0
597 932 1002 687 703 661 987 990 930 501 498 800 0
-5943 34 0
-5943 846 0
-5944 44 0
-5944 845 0
-5945 115 0
-5945 1024 0
-5946 131 0
-5946 833 0
-5947 135 0
-5947 1001 0
-5948 145 0
-5948 544 0
-5949 177 0
-5949 953 0
-5950 181 0
-5950 545 0
-5951 228 0
-5951 841 0
-5952 310 0
-5952 561 0
-5953 310 0
-5953 634 0
-5954 330 0
-5954 803 0
-5955 354 0
-5955 831 0
-5956 356 0
-5956 896 0
-5957 366 0
-5957 904 0
-5958 368 0
-5958 819 0
-5959 489 0
-5959 600 0
-5960 541 0
-5960 866 0
-5961 548 0
-5961 948 0
-5962 602 0
-5962 1019 0
-5963 685 0
-5963 697 0
-5964 984 0
-5964 985 0
4978 4992 4998 5000 5001 5003 5018 5021 5085 5149 5156 5186 5193 5197 5198 5200 5201 5203 5205 5208 5209 5211 5219 5220 5223 5225 5227 5228 5229 5236 5244 5369 5378 5408 5431 5439 5540 5608 5799 5875 5889 5943 5944 5945 5946 5947 5948 5949 5950 5951 5952 5953 5954 5955 5956 5957 5958 5959 5960 5961 5962 5963 5964 0
-5965 17 0
-5965 935 0
-5966 34 0
-5966 953 0
-5967 42 0
-5967 652 0
-5968 88 0
-5968 846 0
-5969 168 0
-5969 548 0
-5970 295 0
-5970 941 0
-5971 299 0
-5971 541 0
-5972 316 0
-5972 834 0
-5973 360 0
-5973 748 0
-5974 634 0
-5974 787 0
-5975 799 0
-5975 803 0
-5976 916 0
-5976 968 0
4992 4998 5000 5001 5004 5021 5085 5149 5156 5186 5193 5197 5198 5200 5203 5205 5208 5209 5219 5220 5223 5225 5227 5228 5236 5244 5369 5408 5430 5455 5456 5459 5501 5670 5713 5782 5799 5945 5946 5948 5950 5952 5955 5956 5958 5964 5965 5966 5967 5968 5969 5970 5971 5972 5973 5974 5975 5976 0
-5977 130 0
-5977 652 0
-5978 235 0
-5978 845 0
-5979 371 0
-5979 1149 0
-5980 539 0
-5980 545 0
-5981 548 0
-5981 905 0
4930 4992 4998 5001 5003 5004 5085 5149 5185 5186 5193 5196 5197 5200 5201 5203 5205 5219 5220 5223 5225 5227 5228 5236 5244 5253 5255 5262 5369 5378 5441 5456 5459 5540 5594 5604 5682 5713 5945 5952 5954 5955 5956 5957 5961 5964 5965 5966 5968 5974 5977 5978 5979 5980 5981 0
-5982 161 0
-5982 548 0
-5983 236 0
-5983 758 0
-5984 282 0
-5984 758 0
4930 4992 4998 5001 5003 5004 5085 5149 5185 5186 5193 5196 5197 5200 5201 5203 5205 5219 5220 5223 5225 5227 5228 5236 5244 5253 5262 5369 5378 5456 5459 5594 5604 5686 5713 5945 5952 5954 5955 5956 5960 5964 5965 5966 5968 5974 5977 5978 5979 5980 5982 5983 5984 0
507 727 758 506 600 953 808 652 1001 516 630 846 843 0
-5985 516 0
-5985 779 0
5198 5199 5200 5201 5239 5259 5369 5378 5943 5947 5949 5977 5985 0
-5986 85 0
-5986 740 0
4978 5189 5199 5200 5201 5205 5206 5239 5604 5947 5966 5968 5986 0
740 719 779 600 842 846 803 1001 653 506 953 758 727 0
-5987 390 0
-5987 1100 0
-5988 474 0
-5988 1093 0
-5989 1091 0
-5989 1092 0
4928 4940 5266 5343 5465 5487 5515 5529 5533 5728 5905 5987 5988 5989 0
-5990 19 0
-5990 780 0
-5991 45 0
-5991 865 0
-5992 102 0
-5992 1053 0
-5993 105 0
-5993 690 0
-5994 105 0
-5994 776 0
-5995 121 0
-5995 790 0
-5996 124 0
-5996 878 0
-5997 148 0
-5997 843 0
-5998 176 0
-5998 798 0
-5999 221 0
-5999 714 0
-6000 221 0
-6000 759 0
-6001 222 0
-6001 885 0
-6002 230 0
-6002 896 0
-6003 235 0
-6003 582 0
-6004 235 0
-6004 812 0
-6005 235 0
-6005 970 0
-6006 284 0
-6006 712 0
-6007 284 0
-6007 913 0
-6008 296 0
-6008 994 0
-6009 327 0
-6009 887 0
-6010 348 0
-6010 963 0
-6011 356 0
-6011 949 0
-6012 356 0
-6012 960 0
-6013 393 0
-6013 1088 0
-6014 415 0
-6014 1138 0
-6015 444 0
-6015 1156 0
-6016 454 0
-6016 1130 0
-6017 458 0
-6017 1137 0
-6018 507 0
-6018 733 0
-6019 516 0
-6019 780 0
-6020 549 0
-6020 860 0
-6021 603 0
-6021 749 0
-6022 618 0
-6022 865 0
-6023 814 0
-6023 1034 0
-6024 952 0
-6024 1009 0
-6025 954 0
-6025 989 0
-6026 963 0
-6026 1003 0
-6027 966 0
-6027 970 0
-6028 986 0
-6028 996 0
4938 4956 4979 4994 4995 4997 5008 5050 5051 5056 5114 5115 5122 5124 5126 5128 5131 5133 5144 5149 5152 5158 5164 5171 5182 5225 5376 5403 5404 5459 5480 5525 5587 5595 5602 5605 5701 5753 5773 5784 5786 5787 5793 5804 5819 5836 5893 5924 5932 5954 5990 5991 5992 5993 5994 5995 5996 5997 5998 5999 6000 6001 6002 6003 6004 6005 6006 6007 6008 6009 6010 6011 6012 6013 6014 6015 6016 6017 6018 6019 6020 6021 6022 6023 6024 6025 6026 6027 6028 0
-6029 14 0
-6029 761 0
-6030 35 0
-6030 690 0
-6031 67 0
-6031 1021 0
-6032 235 0
-6032 989 0
-6033 256 0
-6033 913 0
-6034 330 0
-6034 790 0
-6035 415 0
-6035 1088 0
-6036 447 0
-6036 1137 0
-6037 457 0
-6037 1155 0
-6038 473 0
-6038 1130 0
-6039 573 0
-6039 618 0
-6040 669 0
-6040 823 0
4943 4956 4979 4993 4994 4995 4997 5008 5050 5056 5114 5116 5117 5118 5119 5121 5122 5124 5125 5126 5128 5131 5133 5137 5138 5139 5144 5149 5152 5158 5164 5172 5173 5174 5182 5225 5252 5353 5376 5403 5459 5477 5571 5589 5595 5701 5737 5753 5759 5784 5786 5793 5804 5819 5830 5893 5932 5954 5990 5991 5994 5996 5998 5999 6000 6001 6003 6004 6005 6006 6008 6009 6011 6012 6018 6029 6030 6031 6032 6033 6034 6035 6036 6037 6038 6039 6040 0
812 743 944 942 658 798 766 737 523 998 718 614 865 896 608 733 1053 882 761 1021 505 1009 994 878 970 776 1082 616 843 582 913 1130 860 1118 848 949 803 600 712 814 751 1002 558 963 1088 0
-6041 231 0
-6041 559 0
-6042 238 0
-6042 578 0
-6043 315 0
-6043 616 0
-6044 315 0
-6044 626 0
-6045 321 0
-6045 513 0
-6046 321 0
-6046 601 0
-6047 321 0
-6047 1015 0
-6048 439 0
-6048 1112 0
-6049 448 0
-6049 1124 0
-6050 662 0
-6050 1052 0
-6051 799 0
-6051 1041 0
-6052 1093 0
-6052 1094 0
-6053 1131 0
-6053 1140 0
4926 4928 4947 5266 5476 5477 5513 5536 5546 5553 5554 6041 6042 6043 6044 6045 6046 6047 6048 6049 6050 6051 6052 6053 0
-6054 315 0
-6054 559 0
-6055 324 0
-6055 578 0
-6056 449 0
-6056 1131 0
4926 4928 4947 4948 5266 5476 5477 5513 5529 5536 5553 5554 5988 6043 6044 6045 6046 6047 6048 6054 6055 6056 0
-6057 400 0
-6057 1117 0
-6058 453 0
-6058 1140 0
-6059 460 0
-6059 1122 0
5263 5264 5266 5269 5271 5272 5425 5464 5513 5529 5553 5554 6035 6043 6044 6045 6046 6047 6057 6058 6059 0
1122 1086 532 0
-6060 479 0
-6060 1151 0
4922 5365 5556 5597 6060 0
-6061 401 0
-6061 1133 0
-6062 418 0
-6062 1115 0
-6063 421 0
-6063 1153 0
5104 5156 5310 5349 5468 5515 5729 5806 6061 6062 6063 0
1083 1127 552 0
-6064 383 0
-6064 1096 0
-6065 413 0
-6065 1153 0
-6066 415 0
-6066 1141 0
4922 5007 5228 5270 5361 5362 5363 5468 5481 5525 5528 5727 5806 6064 6065 6066 0
-6067 16 0
-6067 811 0
-6068 19 0
-6068 535 0
-6069 19 0
-6069 882 0
-6070 26 0
-6070 1073 0
-6071 44 0
-6071 834 0
-6072 47 0
-6072 1019 0
-6073 48 0
-6073 950 0
-6074 89 0
-6074 841 0
-6075 120 0
-6075 944 0
-6076 135 0
-6076 1064 0
-6077 158 0
-6077 614 0
-6078 161 0
-6078 553 0
-6079 164 0
-6079 609 0
-6080 169 0
-6080 537 0
-6081 171 0
-6081 499 0
-6082 174 0
-6082 718 0
-6083 189 0
-6083 761 0
-6084 189 0
-6084 854 0
-6085 205 0
-6085 1012 0
-6086 229 0
-6086 836 0
-6087 248 0
-6087 530 0
-6088 270 0
-6088 954 0
-6089 280 0
-6089 591 0
-6090 281 0
-6090 584 0
-6091 283 0
-6091 757 0
-6092 283 0
-6092 883 0
-6093 291 0
-6093 985 0
-6094 293 0
-6094 796 0
-6095 300 0
-6095 689 0
-6096 311 0
-6096 866 0
-6097 343 0
-6097 880 0
-6098 353 0
-6098 851 0
-6099 357 0
-6099 972 0
-6100 358 0
-6100 924 0
-6101 358 0
-6101 961 0
-6102 529 0
-6102 555 0
-6103 530 0
-6103 556 0
-6104 536 0
-6104 714 0
-6105 556 0
-6105 953 0
-6106 558 0
-6106 625 0
-6107 574 0
-6107 937 0
-6108 586 0
-6108 619 0
-6109 676 0
-6109 811 0
-6110 833 0
-6110 1012 0
-6111 853 0
-6111 867 0
-6112 888 0
-6112 993 0
-6113 930 0
-6113 934 0
-6114 962 0
-6114 982 0
-6115 1090 0
-6115 1121 0
4923 4927 4950 5003 5011 5041 5122 5153 5208 5212 5231 5250 5283 5352 5374 5395 5424 5502 5513 5568 5645 5647 5648 5673 5676 5681 5694 5706 5716 5857 5954 6034 6067 6068 6069 6070 6071 6072 6073 6074 6075 6076 6077 6078 6079 6080 6081 6082 6083 6084 6085 6086 6087 6088 6089 6090 6091 6092 6093 6094 6095 6096 6097 6098 6099 6100 6101 6102 6103 6104 6105 6106 6107 6108 6109 6110 6111 6112 6113 6114 6115 0
-6116 160 0
-6116 558 0
-6117 161 0
-6117 609 0
-6118 185 0
-6118 734 0
-6119 266 0
-6119 836 0
-6120 280 0
-6120 530 0
-6121 313 0
-6121 833 0
-6122 330 0
-6122 811 0
-6123 343 0
-6123 824 0
-6124 352 0
-6124 880 0
-6125 353 0
-6125 867 0
-6126 529 0
-6126 530 0
-6127 608 0
-6127 811 0
-6128 825 0
-6128 880 0
4927 4950 5002 5004 5041 5122 5126 5153 5165 5208 5212 5226 5283 5290 5352 5374 5395 5424 5489 5502 5513 5568 5648 5673 5675 5681 5694 5706 5721 5857 5870 5954 5995 6029 6059 6068 6069 6070 6072 6075 6076 6077 6078 6080 6081 6084 6085 6088 6089 6090 6091 6092 6093 6094 6095 6096 6098 6100 6101 6102 6104 6105 6107 6108 6112 6114 6116 6117 6118 6119 6120 6121 6122 6123 6124 6125 6126 6127 6128 0
1154 1122 841 924 1012 826 834 1064 882 982 558 536 827 1121 751 999 1120 1073 0
-6129 469 0
-6129 1120 0
-6130 1102 0
-6130 1122 0
5489 5568 6129 6130 0
-6131 418 0
-6131 1129 0
-6132 462 0
-6132 1109 0
-6133 476 0
-6133 1114 0
5402 5487 6063 6131 6132 6133 0
-6134 1084 0
-6134 1129 0
5007 5093 5094 5479 6134 0
1109 1129 1083 0
-6135 414 0
-6135 1143 0
-6136 443 0
-6136 1153 0
-6137 480 0
-6137 1145 0
4930 5263 5264 5343 5531 5726 5799 6135 6136 6137 0
5263 5267 5270 5464 5537 5538 5539 5726 6135 6136 6137 0
5263 5264 5267 5270 5464 5726 6135 6136 6137 0
1149 1148 1091 0
-6138 17 0
-6138 901 0
-6139 35 0
-6139 771 0
-6140 51 0
-6140 962 0
-6141 54 0
-6141 762 0
-6142 103 0
-6142 1067 0
-6143 132 0
-6143 654 0
-6144 132 0
-6144 657 0
-6145 205 0
-6145 560 0
-6146 205 0
-6146 828 0
-6147 263 0
-6147 919 0
-6148 270 0
-6148 961 0
-6149 288 0
-6149 1026 0
-6150 538 0
-6150 863 0
-6151 661 0
-6151 1049 0
-6152 700 0
-6152 819 0
-6153 965 0
-6153 982 0
4942 4945 4986 5005 5035 5037 5038 5043 5047 5048 5049 5055 5057 5058 5059 5060 5061 5062 5068 5072 5074 5075 5100 5204 5266 5283 5557 5635 5705 5763 5794 5849 5880 5883 5895 5914 5918 5928 6085 6138 6139 6140 6141 6142 6143 6144 6145 6146 6147 6148 6149 6150 6151 6152 6153 0
-6154 35 0
-6154 702 0
-6155 135 0
-6155 919 0
-6156 205 0
-6156 1026 0
-6157 703 0
-6157 762 0
-6158 901 0
-6158 905 0
4945 4965 4986 5005 5035 5036 5037 5038 5040 5042 5043 5046 5047 5048 5049 5055 5057 5058 5059 5060 5061 5062 5068 5073 5074 5075 5100 5266 5283 5322 5555 5635 5683 5763 5794 5849 5880 5892 5895 5914 6085 6143 6144 6145 6146 6148 6150 6152 6153 6154 6155 6156 6157 6158 0
-6159 17 0
-6159 673 0
-6160 82 0
-6160 1025 0
-6161 737 0
-6161 772 0
-6162 932 0
-6162 974 0
4942 4945 4965 4986 5005 5035 5036 5037 5040 5043 5047 5048 5049 5058 5059 5060 5061 5062 5068 5072 5073 5074 5075 5100 5266 5283 5555 5635 5705 5763 5794 5849 5880 5883 5895 5928 5958 6085 6138 6140 6141 6143 6144 6145 6146 6148 6150 6153 6155 6156 6159 6160 6161 6162 0
4942 4945 4965 4986 5005 5035 5036 5037 5040 5043 5047 5048 5049 5058 5059 5060 5061 5062 5068 5072 5073 5074 5075 5100 5266 5283 5555 5635 5705 5763 5794 5849 5880 5883 5895 5928 5958 6085 6138 6140 6141 6143 6144 6145 6146 6148 6150 6153 6155 6156 6159 6160 6162 0
1008 579 702 1009 863 703 919 886 771 932 597 608 1002 873 990 582 0
-6163 30 0
-6163 903 0
-6164 88 0
-6164 919 0
-6165 96 0
-6165 821 0
-6166 109 0
-6166 770 0
-6167 112 0
-6167 692 0
-6168 145 0
-6168 881 0
-6169 176 0
-6169 815 0
-6170 217 0
-6170 583 0
-6171 239 0
-6171 939 0
-6172 261 0
-6172 543 0
-6173 264 0
-6173 720 0
-6174 322 0
-6174 933 0
-6175 356 0
-6175 835 0
-6176 567 0
-6176 688 0
-6177 606 0
-6177 893 0
-6178 608 0
-6178 995 0
-6179 608 0
-6179 1024 0
-6180 614 0
-6180 752 0
-6181 630 0
-6181 667 0
-6182 672 0
-6182 791 0
4927 4928 4950 4952 4957 4958 4960 4961 4968 4969 4970 4971 4973 4977 4978 4981 4986 4987 4988 4990 4991 4997 5003 5004 5005 5017 5019 5021 5024 5030 5084 5085 5086 5123 5141 5143 5152 5153 5180 5213 5215 5216 5221 5230 5237 5290 5292 5450 5607 5611 5622 5628 5630 5633 5641 5642 5643 5644 5645 5646 5647 5648 5656 5661 5663 5674 5689 5692 5705 5721 5868 5876 5957 5960 6100 6161 6163 6164 6165 6166 6167 6168 6169 6170 6171 6172 6173 6174 6175 6176 6177 6178 6179 6180 6181 6182 0
-6183 672 0
-6183 798 0
4927 4928 4950 4952 4957 4958 4960 4961 4968 4969 4970 4971 4973 4977 4978 4981 4986 4987 4988 4990 4991 4997 5003 5004 5005 5017 5019 5021 5024 5030 5084 5085 5086 5123 5141 5143 5152 5153 5180 5213 5215 5216 5221 5230 5237 5290 5292 5450 5607 5611 5622 5628 5630 5633 5641 5642 5643 5644 5645 5646 5647 5648 5656 5661 5663 5674 5689 5692 5705 5721 5868 5876 5957 5960 6100 6161 6163 6164 6165 6166 6167 6168 6169 6170 6171 6172 6173 6174 6175 6176 6178 6179 6180 6181 6183 0
-6184 25 0
-6184 1036 0
-6185 33 0
-6185 751 0
-6186 36 0
-6186 982 0
-6187 45 0
-6187 557 0
-6188 94 0
-6188 784 0
-6189 108 0
-6189 768 0
-6190 108 0
-6190 976 0
-6191 114 0
-6191 825 0
-6192 120 0
-6192 993 0
-6193 157 0
-6193 496 0
-6194 183 0
-6194 854 0
-6195 194 0
-6195 793 0
-6196 211 0
-6196 1028 0
-6197 217 0
-6197 869 0
-6198 230 0
-6198 627 0
-6199 249 0
-6199 632 0
-6200 275 0
-6200 897 0
-6201 278 0
-6201 627 0
-6202 292 0
-6202 862 0
-6203 327 0
-6203 881 0
-6204 421 0
-6204 1149 0
-6205 441 0
-6205 1101 0
-6206 532 0
-6206 831 0
-6207 597 0
-6207 1017 0
-6208 600 0
-6208 938 0
-6209 615 0
-6209 998 0
-6210 837 0
-6210 1011 0
-6211 881 0
-6211 936 0
-6212 1081 0
-6212 1118 0
4948 4954 4979 4991 4992 4994 4998 5003 5114 5123 5131 5171 5177 5208 5209 5214 5215 5216 5224 5265 5287 5293 5294 5295 5301 5302 5459 5479 5592 5681 5694 5713 5730 5737 5739 5740 5746 5747 5749 5750 5755 5757 5763 5768 5769 5776 5780 6043 6071 6085 6184 6185 6186 6187 6188 6189 6190 6191 6192 6193 6194 6195 6196 6197 6198 6199 6200 6201 6202 6203 6204 6205 6206 6207 6208 6209 6210 6211 6212 0
-6213 292 0
-6213 1028 0
4948 4954 4979 4991 4992 4994 4998 5003 5114 5123 5131 5171 5177 5208 5209 5214 5215 5216 5224 5265 5287 5293 5294 5295 5301 5302 5459 5479 5592 5681 5694 5713 5730 5737 5739 5740 5746 5747 5749 5750 5755 5757 5763 5768 5769 5776 5780 6043 6071 6085 6184 6185 6186 6187 6188 6189 6190 6191 6192 6193 6194 6195 6197 6198 6199 6200 6201 6202 6203 6204 6205 6206 6208 6209 6210 6211 6212 6213 0
756 751 862 982 949 702 718 627 914 600 496 649 737 944 854 1028 519 749 789 646 872 527 1008 507 640 683 768 817 871 897 838 0
-6214 23 0
-6214 1040 0
-6215 48 0
-6215 951 0
-6216 51 0
-6216 1006 0
-6217 91 0
-6217 1026 0
-6218 93 0
-6218 924 0
-6219 129 0
-6219 915 0
-6220 214 0
-6220 903 0
-6221 270 0
-6221 956 0
-6222 312 0
-6222 615 0
-6223 346 0
-6223 718 0
-6224 366 0
-6224 720 0
-6225 483 0
-6225 1085 0
-6226 563 0
-6226 924 0
-6227 599 0
-6227 1000 0
-6228 847 0
-6228 915 0
4950 4957 4959 4977 4978 4990 4994 4995 4996 4998 5013 5017 5019 5024 5025 5030 5031 5069 5074 5081 5083 5085 5139 5141 5143 5155 5180 5194 5213 5229 5231 5290 5309 5470 5608 5625 5626 5627 5632 5643 5648 5655 5661 5670 5673 5674 5693 5695 5696 5701 5703 5709 5710 5850 5915 5918 6161 6165 6168 6206 6214 6215 6216 6217 6218 6219 6220 6221 6222 6223 6224 6225 6226 6227 6228 0
-6229 91 0
-6229 951 0
-6230 140 0
-6230 646 0
-6231 247 0
-6231 737 0
-6232 257 0
-6232 882 0
-6233 629 0
-6233 996 0
-6234 657 0
-6234 924 0
4950 4957 4960 4977 4978 4982 4990 4994 4995 4997 4998 5005 5017 5019 5024 5027 5030 5069 5074 5083 5085 5141 5143 5145 5153 5168 5194 5213 5255 5266 5290 5309 5611 5625 5626 5632 5643 5648 5661 5663 5670 5674 5675 5687 5693 5695 5696 5703 5707 5712 5718 5793 5918 5930 6158 6165 6214 6216 6217 6219 6220 6221 6222 6223 6224 6228 6229 6230 6231 6232 6233 6234 0
-6235 24 0
-6235 1041 0
-6236 30 0
-6236 942 0
-6237 41 0
-6237 815 0
-6238 55 0
-6238 1000 0
-6239 58 0
-6239 490 0
-6240 65 0
-6240 795 0
-6241 66 0
-6241 646 0
-6242 80 0
-6242 860 0
-6243 86 0
-6243 916 0
-6244 90 0
-6244 641 0
-6245 123 0
-6245 965 0
-6246 123 0
-6246 995 0
-6247 127 0
-6247 786 0
-6248 132 0
-6248 624 0
-6249 132 0
-6249 673 0
-6250 143 0
-6250 892 0
-6251 207 0
-6251 528 0
-6252 215 0
-6252 754 0
-6253 244 0
-6253 840 0
-6254 245 0
-6254 553 0
-6255 288 0
-6255 594 0
-6256 288 0
-6256 684 0
-6257 293 0
-6257 513 0
-6258 293 0
-6258 783 0
-6259 314 0
-6259 824 0
-6260 330 0
-6260 650 0
-6261 345 0
-6261 647 0
-6262 345 0
-6262 900 0
-6263 347 0
-6263 533 0
-6264 350 0
-6264 906 0
-6265 354 0
-6265 808 0
-6266 355 0
-6266 829 0
-6267 365 0
-6267 944 0
-6268 455 0
-6268 1110 0
-6269 494 0
-6269 500 0
-6270 500 0
-6270 695 0
-6271 505 0
-6271 507 0
-6272 507 0
-6272 732 0
-6273 512 0
-6273 519 0
-6274 527 0
-6274 534 0
-6275 573 0
-6275 803 0
-6276 586 0
-6276 1004 0
-6277 610 0
-6277 1020 0
-6278 736 0
-6278 740 0
-6279 933 0
-6279 939 0
4977 4978 5031 5073 5077 5078 5094 5110 5132 5178 5219 5233 5234 5238 5288 5290 5310 5340 5373 5386 5388 5398 5399 5446 5493 5497 5498 5503 5510 5514 5525 5550 5607 5629 5694 5870 5905 5917 5954 6018 6034 6062 6118 6143 6144 6233 6235 6236 6237 6238 6239 6240 6241 6242 6243 6244 6245 6246 6247 6248 6249 6250 6251 6252 6253 6254 6255 6256 6257 6258 6259 6260 6261 6262 6263 6264 6265 6266 6267 6268 6269 6270 6271 6272 6273 6274 6275 6276 6277 6278 6279 0
-6280 39 0
-6280 815 0
-6281 103 0
-6281 752 0
-6282 152 0
-6282 517 0
-6283 165 0
-6283 519 0
-6284 166 0
-6284 604 0
-6285 181 0
-6285 892 0
-6286 202 0
-6286 1000 0
-6287 224 0
-6287 988 0
-6288 249 0
-6288 742 0
-6289 294 0
-6289 989 0
-6290 359 0
-6290 959 0
-6291 442 0
-6291 1150 0
-6292 485 0
-6292 497 0
-6293 490 0
-6293 599 0
-6294 649 0
-6294 650 0
-6295 659 0
-6295 812 0
-6296 734 0
-6296 852 0
-6297 748 0
-6297 790 0
-6298 788 0
-6298 1056 0
-6299 826 0
-6299 879 0
-6300 957 0
-6300 986 0
4931 4937 4941 4954 4976 4977 4978 5044 5073 5094 5164 5178 5205 5219 5247 5264 5288 5290 5310 5386 5388 5398 5446 5494 5497 5498 5503 5511 5514 5550 5694 5698 5707 5760 5774 5870 5954 6062 6063 6143 6230 6233 6235 6236 6240 6242 6243 6246 6248 6251 6252 6253 6254 6256 6257 6258 6259 6261 6262 6263 6264 6266 6267 6274 6275 6279 6280 6281 6282 6283 6284 6285 6286 6287 6288 6289 6290 6291 6292 6293 6294 6295 6296 6297 6298 6299 6300 0
650 860 790 517 892 786 752 647 753 736 536 553 534 996 934 1134 505 512 733 558 879 900 528 952 916 646 944 841 624 684 969 0
-6301 86 0
-6301 879 0
5247 5372 5493 5494 5698 5703 6230 6242 6250 6267 6287 6294 6297 6301 0
-6302 180 0
-6302 803 0
5211 5241 5257 5372 5492 5493 5494 6242 6250 6267 6294 6301 6302 0
916 879 892 517 650 786 748 860 803 740 0
-6303 21 0
-6303 681 0
-6304 143 0
-6304 860 0
-6305 713 0
-6305 755 0
5372 5493 5494 6034 6241 6260 6273 6285 6301 6303 6304 6305 0
-6306 443 0
-6306 1152 0
-6307 453 0
-6307 1125 0
-6308 483 0
-6308 1128 0
5110 5266 5472 5489 5559 6062 6306 6307 6308 0
1095 1128 532 0
-6309 101 0
-6309 767 0
-6310 220 0
-6310 817 0
-6311 312 0
-6311 622 0
-6312 431 0
-6312 1101 0
-6313 597 0
-6313 598 0
-6314 598 0
-6314 768 0
-6315 1091 0
-6315 1114 0
4934 4935 5227 5361 5515 5538 5542 5675 5720 5721 5729 5806 5989 6184 6222 6309 6310 6311 6312 6313 6314 6315 0
4934 4935 5227 5268 5361 5362 5515 5542 5675 5720 5721 5729 5806 6184 6222 6309 6310 6311 6312 0
-6316 426 0
-6316 1132 0
4936 4940 4941 4943 4944 5103 5105 5228 5349 5356 5361 5362 5363 5792 5795 5810 6316 0
1096 1138 1090 1156 1097 1087 1147 1136 1151 0
-6317 409 0
-6317 1129 0
-6318 410 0
-6318 1126 0
-6319 448 0
-6319 1084 0
-6320 1093 0
-6320 1117 0
5269 5272 5467 5793 6129 6317 6318 6319 6320 0
-6321 441 0
-6321 1115 0
-6322 472 0
-6322 1147 0
5108 5266 5354 5401 5515 5793 5989 6059 6321 6322 0
1122 1120 1085 0
-6323 369 0
-6323 1109 0
-6324 440 0
-6324 1159 0
-6325 447 0
-6325 1095 0
-6326 474 0
-6326 1125 0
-6327 1157 0
-6327 1160 0
5109 5254 5266 5481 5482 5483 5564 5566 5794 5989 6323 6324 6325 6326 6327 0
5105 5109 5254 5266 5481 5489 5564 5568 5725 5792 5794 6323 6324 6325 6326 6327 0
-6328 422 0
-6328 1157 0
-6329 450 0
-6329 1159 0
5109 5254 5265 5266 5478 5489 5564 5566 5568 5794 5989 6323 6326 6328 6329 0
1090 1098 1154 0
-6330 77 0
-6330 735 0
-6331 99 0
-6331 714 0
-6332 102 0
-6332 664 0
-6333 117 0
-6333 656 0
-6334 130 0
-6334 731 0
-6335 139 0
-6335 953 0
-6336 147 0
-6336 737 0
-6337 164 0
-6337 618 0
-6338 175 0
-6338 985 0
-6339 201 0
-6339 534 0
-6340 252 0
-6340 861 0
-6341 252 0
-6341 973 0
-6342 268 0
-6342 664 0
-6343 332 0
-6343 735 0
-6344 416 0
-6344 1084 0
-6345 427 0
-6345 1126 0
-6346 486 0
-6346 504 0
-6347 495 0
-6347 651 0
-6348 628 0
-6348 999 0
-6349 653 0
-6349 740 0
-6350 672 0
-6350 705 0
-6351 740 0
-6351 808 0
-6352 836 0
-6352 842 0
-6353 881 0
-6353 1014 0
-6354 1054 0
-6354 1055 0
4950 4956 5002 5004 5050 5051 5071 5090 5114 5122 5125 5126 5208 5212 5257 5283 5374 5398 5399 5581 5590 5603 5607 5637 5675 5680 5706 5830 5870 5930 5931 5939 5941 6029 6066 6077 6079 6084 6085 6106 6107 6114 6127 6180 6206 6222 6232 6254 6258 6330 6331 6332 6333 6334 6335 6336 6337 6338 6339 6340 6341 6342 6343 6344 6345 6346 6347 6348 6349 6350 6351 6352 6353 6354 0
-6355 26 0
-6355 766 0
-6356 80 0
-6356 1003 0
-6357 247 0
-6357 719 0
-6358 292 0
-6358 629 0
-6359 299 0
-6359 809 0
-6360 301 0
-6360 937 0
-6361 302 0
-6361 759 0
-6362 426 0
-6362 1141 0
-6363 498 0
-6363 688 0
-6364 562 0
-6364 735 0
-6365 599 0
-6365 849 0
-6366 677 0
-6366 731 0
4950 4956 5004 5020 5025 5050 5057 5071 5090 5122 5131 5144 5208 5212 5224 5247 5266 5288 5374 5399 5543 5637 5680 5706 5739 5746 5788 5789 5870 5899 5930 5931 6029 6071 6075 6078 6084 6085 6112 6114 6117 6119 6127 6242 6258 6331 6332 6333 6335 6337 6338 6339 6341 6342 6345 6346 6347 6348 6354 6355 6356 6357 6358 6359 6360 6361 6362 6363 6364 6365 6366 0
4930 5729 5799 5806 0
1148 1128 1097 1127 0
-6367 315 0
-6367 999 0
-6368 378 0
-6368 1086 0
-6369 440 0
-6369 1092 0
-6370 457 0
-6370 1088 0
5294 5346 5468 5480 5553 5554 5562 5650 6132 6367 6368 6369 6370 0
-6371 1089 0
-6371 1092 0
5091 5294 5480 5553 5554 5562 5650 5800 6035 6367 6371 0
1087 1092 1125 1088 1145 1096 0
-6372 20 0
-6372 591 0
-6373 49 0
-6373 921 0
-6374 85 0
-6374 698 0
-6375 98 0
-6375 731 0
-6376 127 0
-6376 1036 0
-6377 135 0
-6377 868 0
-6378 202 0
-6378 1016 0
-6379 203 0
-6379 491 0
-6380 205 0
-6380 982 0
-6381 251 0
-6381 643 0
-6382 267 0
-6382 827 0
-6383 267 0
-6383 858 0
-6384 291 0
-6384 858 0
-6385 294 0
-6385 700 0
-6386 310 0
-6386 871 0
-6387 325 0
-6387 904 0
-6388 342 0
-6388 840 0
-6389 363 0
-6389 889 0
-6390 392 0
-6390 1088 0
-6391 523 0
-6391 704 0
-6392 562 0
-6392 901 0
-6393 585 0
-6393 702 0
-6394 652 0
-6394 751 0
-6395 745 0
-6395 839 0
-6396 883 0
-6396 1036 0
-6397 1100 0
-6397 1101 0
4928 4945 4954 4970 4971 4991 4992 5003 5004 5005 5075 5093 5114 5123 5131 5136 5152 5155 5208 5209 5215 5216 5224 5251 5278 5287 5288 5290 5294 5302 5303 5450 5548 5571 5591 5624 5658 5681 5701 5713 5731 5732 5733 5738 5739 5741 5742 5746 5747 5754 5760 5761 5765 5775 5776 5784 5789 5839 5944 5955 5977 6002 6017 6043 6078 6085 6125 6137 6138 6187 6188 6196 6286 6349 6372 6373 6374 6375 6376 6377 6378 6379 6380 6381 6382 6383 6384 6385 6386 6387 6388 6389 6390 6391 6392 6393 6394 6395 6396 6397 0
-6398 3 0
-6398 674 0
-6399 45 0
-6399 972 0
-6400 69 0
-6400 718 0
-6401 89 0
-6401 840 0
-6402 90 0
-6402 643 0
-6403 256 0
-6403 974 0
-6404 273 0
-6404 881 0
-6405 436 0
-6405 1145 0
-6406 472 0
-6406 1100 0
-6407 484 0
-6407 1123 0
-6408 496 0
-6408 653 0
-6409 562 0
-6409 563 0
-6410 598 0
-6410 600 0
-6411 625 0
-6411 995 0
-6412 646 0
-6412 673 0
-6413 653 0
-6413 793 0
-6414 745 0
-6414 1036 0
-6415 831 0
-6415 834 0
-6416 868 0
-6416 1077 0
-6417 899 0
-6417 988 0
-6418 1036 0
-6418 1054 0
4928 4945 4970 4979 4991 5003 5005 5114 5131 5136 5152 5154 5155 5157 5208 5209 5215 5224 5250 5287 5288 5290 5294 5295 5302 5381 5391 5410 5430 5450 5516 5519 5607 5624 5645 5651 5656 5658 5664 5672 5681 5701 5732 5733 5734 5736 5741 5754 5761 5836 5944 6002 6014 6043 6063 6082 6085 6111 6138 6187 6189 6213 6254 6286 6310 6343 6372 6374 6375 6378 6379 6380 6382 6385 6386 6387 6393 6395 6398 6399 6400 6401 6402 6403 6404 6405 6406 6407 6408 6409 6410 6411 6412 6413 6414 6415 6416 6417 6418 0
-6419 159 0
-6419 590 0
-6420 445 0
-6420 1146 0
-6421 484 0
-6421 1137 0
-6422 609 0
-6422 1002 0
-6423 971 0
-6423 1002 0
-6424 1002 0
-6424 1003 0
-6425 1002 0
-6425 1044 0
5090 5294 5528 5553 5554 5597 5652 5723 6064 6367 6407 6419 6420 6421 6422 6423 6424 6425 0
5090 5294 5528 5553 5554 5597 5652 5723 6064 6367 6407 6419 6420 6421 0
1087 1121 1096 1142 541 1146 0
-6426 40 0
-6426 538 0
-6427 40 0
-6427 854 0
-6428 40 0
-6428 1008 0
-6429 84 0
-6429 945 0
-6430 94 0
-6430 785 0
-6431 155 0
-6431 532 0
-6432 165 0
-6432 517 0
-6433 188 0
-6433 682 0
-6434 189 0
-6434 832 0
-6435 194 0
-6435 786 0
-6436 201 0
-6436 517 0
-6437 202 0
-6437 829 0
-6438 232 0
-6438 787 0
-6439 232 0
-6439 814 0
-6440 232 0
-6440 1029 0
-6441 245 0
-6441 979 0
-6442 246 0
-6442 910 0
-6443 319 0
-6443 961 0
-6444 339 0
-6444 534 0
-6445 347 0
-6445 527 0
-6446 362 0
-6446 672 0
-6447 497 0
-6447 682 0
-6448 640 0
-6448 641 0
-6449 744 0
-6449 1035 0
-6450 781 0
-6450 1020 0
-6451 786 0
-6451 1029 0
-6452 803 0
-6452 941 0
-6453 879 0
-6453 1016 0
-6454 965 0
-6454 986 0
-6455 1030 0
-6455 1041 0
4927 4992 5028 5042 5054 5090 5151 5178 5209 5211 5215 5219 5267 5290 5357 5373 5388 5446 5450 5452 5469 5485 5495 5497 5499 5500 5502 5511 5514 5520 5573 5614 5641 5694 5782 5870 5881 6018 6074 6233 6237 6246 6253 6254 6259 6263 6271 6272 6278 6426 6427 6428 6429 6430 6431 6432 6433 6434 6435 6436 6437 6438 6439 6440 6441 6442 6443 6444 6445 6446 6447 6448 6449 6450 6451 6452 6453 6454 6455 0
-6456 5 0
-6456 814 0
-6457 84 0
-6457 1041 0
-6458 121 0
-6458 517 0
-6459 161 0
-6459 610 0
-6460 174 0
-6460 525 0
-6461 190 0
-6461 665 0
-6462 193 0
-6462 629 0
-6463 201 0
-6463 787 0
-6464 202 0
-6464 832 0
-6465 249 0
-6465 1029 0
-6466 265 0
-6466 1008 0
-6467 517 0
-6467 522 0
-6468 532 0
-6468 558 0
-6469 606 0
-6469 610 0
-6470 713 0
-6470 840 0
-6471 744 0
-6471 1033 0
-6472 760 0
-6472 785 0
4927 4965 4992 5028 5042 5054 5060 5087 5090 5151 5178 5219 5257 5267 5290 5298 5357 5373 5388 5421 5429 5446 5450 5452 5469 5485 5492 5497 5500 5502 5514 5520 5614 5641 5694 5870 5954 6246 6254 6256 6259 6275 6280 6294 6297 6300 6339 6426 6427 6429 6433 6435 6437 6441 6442 6446 6448 6453 6456 6457 6458 6459 6460 6461 6462 6463 6464 6465 6466 6467 6468 6469 6470 6471 6472 0
-6473 116 0
-6473 891 0
-6474 228 0
-6474 838 0
-6475 245 0
-6475 969 0
-6476 255 0
-6476 785 0
-6477 485 0
-6477 500 0
-6478 920 0
-6478 1008 0
-6479 1021 0
-6479 1056 0
4927 4980 5028 5042 5054 5060 5082 5087 5090 5151 5209 5211 5233 5267 5290 5357 5379 5388 5449 5452 5469 5485 5493 5497 5499 5500 5502 5511 5514 5520 5614 5647 5694 5870 5881 5975 6074 6237 6246 6253 6254 6256 6277 6278 6300 6339 6426 6427 6429 6431 6433 6434 6435 6437 6441 6442 6446 6452 6453 6456 6457 6461 6462 6463 6465 6471 6473 6474 6475 6476 6477 6478 6479 0
786 610 1016 787 829 906 672 500 748 649 740 497 815 910 534 914 803 517 1099 995 620 721 682 0
-6480 1142 0
-6480 1161 0
5090 5339 5486 5553 5554 5567 5568 6115 6325 6480 0
5090 5486 5553 5554 5567 5568 6115 6325 0
4941 5263 5264 5268 5270 5334 5515 5808 0
1091 1092 1149 0
5478 5486 5567 6137 0
-6481 309 0
-6481 1005 0
-6482 321 0
-6482 756 0
-6483 404 0
-6483 1154 0
-6484 434 0
-6484 1099 0
-6485 449 0
-6485 1130 0
5072 5105 5263 5264 5348 5514 5515 5532 5571 5597 6045 6046 6329 6344 6481 6482 6483 6484 6485 0
1081 1119 1159 1154 1099 552 0
5515 5806 6308 0
-6486 412 0
-6486 1082 0
-6487 483 0
-6487 1135 0
4930 4945 4947 4948 5349 5550 5561 5599 5728 5807 6204 6486 6487 0
557 1111 1128 1093 1084 1082 1081 1134 1140 0
-6488 43 0
-6488 1024 0
-6489 64 0
-6489 489 0
-6490 70 0
-6490 1018 0
-6491 114 0
-6491 697 0
-6492 173 0
-6492 534 0
-6493 183 0
-6493 879 0
-6494 208 0
-6494 612 0
-6495 319 0
-6495 960 0
-6496 322 0
-6496 573 0
-6497 359 0
-6497 958 0
-6498 545 0
-6498 939 0
-6499 585 0
-6499 941 0
-6500 635 0
-6500 636 0
4945 4978 4980 4992 5028 5185 5195 5200 5205 5215 5216 5219 5220 5221 5222 5225 5226 5231 5237 5240 5248 5371 5375 5376 5377 5378 5379 5381 5382 5385 5386 5400 5407 5416 5418 5434 5455 5515 5522 5591 5969 5975 5986 6170 6191 6207 6371 6488 6489 6490 6491 6492 6493 6494 6495 6496 6497 6498 6499 6500 0
-6501 294 0
-6501 939 0
-6502 579 0
-6502 1017 0
4945 4992 5026 5028 5178 5185 5195 5200 5214 5216 5219 5220 5221 5222 5225 5231 5240 5246 5259 5303 5371 5372 5375 5376 5378 5380 5381 5382 5385 5386 5400 5406 5407 5418 5428 5429 5433 5455 5515 5970 5975 5977 5982 5986 6170 6191 6488 6491 6492 6493 6495 6496 6497 6500 6501 6502 0
-6503 20 0
-6503 890 0
-6504 92 0
-6504 703 0
-6505 95 0
-6505 606 0
-6506 115 0
-6506 1025 0
-6507 144 0
-6507 580 0
-6508 144 0
-6508 721 0
-6509 165 0
-6509 518 0
-6510 172 0
-6510 597 0
-6511 184 0
-6511 657 0
-6512 184 0
-6512 735 0
-6513 184 0
-6513 1049 0
-6514 217 0
-6514 597 0
-6515 243 0
-6515 1066 0
-6516 325 0
-6516 906 0
-6517 363 0
-6517 902 0
-6518 503 0
-6518 703 0
-6519 890 0
-6519 940 0
4970 4972 4986 4996 5034 5035 5037 5038 5042 5045 5048 5049 5057 5058 5059 5060 5062 5064 5067 5073 5077 5078 5079 5083 5085 5099 5161 5229 5266 5277 5283 5322 5327 5611 5658 5763 5849 5880 5882 5883 5884 5892 5899 5900 5901 5909 5918 5930 6085 6138 6145 6146 6155 6156 6162 6244 6360 6380 6503 6504 6505 6506 6507 6508 6509 6510 6511 6512 6513 6514 6515 6516 6517 6518 6519 0
-6520 921 0
-6520 924 0
4970 4972 4986 4996 5034 5035 5037 5038 5042 5048 5049 5057 5058 5059 5060 5062 5064 5067 5073 5077 5078 5079 5083 5085 5099 5161 5229 5266 5277 5283 5322 5327 5635 5658 5763 5849 5880 5882 5883 5884 5892 5899 5900 5901 5909 5918 6085 6138 6145 6146 6155 6156 6162 6244 6360 6380 6503 6504 6505 6506 6507 6508 6509 6510 6511 6512 6513 6514 6515 6516 6517 6518 6519 6520 0
990 890 971 597 501 987 962 703 606 974 1008 1017 922 902 939 579 731 957 901 0
-6521 457 0
-6521 1156 0
-6522 1087 0
-6522 1132 0
4936 4943 5103 5307 5349 5357 5358 5359 5360 5546 5727 5795 5797 5810 6327 6419 6521 6522 0
-6523 83 0
-6523 697 0
-6524 97 0
-6524 721 0
-6525 144 0
-6525 803 0
-6526 171 0
-6526 506 0
-6527 210 0
-6527 819 0
-6528 332 0
-6528 715 0
-6529 444 0
-6529 1090 0
-6530 596 0
-6530 920 0
-6531 752 0
-6531 1048 0
-6532 870 0
-6532 1014 0
-6533 891 0
-6533 1008 0
4978 4986 5031 5154 5155 5178 5183 5184 5190 5193 5194 5195 5201 5205 5207 5208 5209 5219 5220 5221 5222 5228 5238 5243 5244 5248 5309 5367 5370 5371 5373 5380 5387 5397 5399 5400 5405 5408 5418 5426 5434 5436 5442 5674 5722 5822 5879 5956 5973 6011 6246 6275 6278 6343 6495 6521 6523 6524 6525 6526 6527 6528 6529 6530 6531 6532 6533 0
-6534 41 0
-6534 826 0
-6535 233 0
-6535 826 0
-6536 332 0
-6536 746 0
-6537 1033 0
-6537 1043 0
4944 4978 4986 5021 5031 5154 5155 5178 5184 5188 5190 5191 5193 5194 5195 5197 5200 5201 5205 5207 5208 5209 5211 5212 5215 5216 5219 5220 5222 5228 5238 5240 5243 5260 5309 5370 5373 5387 5399 5407 5418 5432 5434 5436 5442 5447 5450 5452 5453 5683 5956 6011 6275 6343 6495 6508 6523 6525 6527 6528 6529 6534 6535 6536 6537 0
653 612 546 721 693 808 803 506 727 538 931 521 1018 826 740 806 851 507 0
-6538 7 0
-6538 753 0
-6539 32 0
-6539 529 0
-6540 32 0
-6540 1030 0
-6541 49 0
-6541 548 0
-6542 88 0
-6542 528 0
-6543 99 0
-6543 599 0
-6544 113 0
-6544 830 0
-6545 244 0
-6545 852 0
-6546 265 0
-6546 1011 0
-6547 271 0
-6547 552 0
-6548 274 0
-6548 900 0
-6549 297 0
-6549 727 0
-6550 310 0
-6550 562 0
-6551 316 0
-6551 586 0
-6552 493 0
-6552 496 0
-6553 495 0
-6553 496 0
-6554 506 0
-6554 721 0
-6555 527 0
-6555 839 0
-6556 531 0
-6556 557 0
-6557 537 0
-6557 889 0
-6558 557 0
-6558 960 0
-6559 738 0
-6559 739 0
-6560 771 0
-6560 791 0
-6561 839 0
-6561 845 0
4980 5028 5209 5211 5241 5244 5290 5302 5344 5370 5373 5398 5451 5465 5480 5491 5493 5495 5502 5504 5506 5509 5511 5513 5514 5521 5560 5561 5563 5629 5779 5859 5934 5953 5962 5988 6074 6089 6090 6099 6100 6120 6128 6246 6247 6256 6261 6278 6279 6286 6300 6431 6441 6452 6459 6462 6538 6539 6540 6541 6542 6543 6544 6545 6546 6547 6548 6549 6550 6551 6552 6553 6554 6555 6556 6557 6558 6559 6560 6561 0
-6562 67 0
-6562 943 0
-6563 202 0
-6563 833 0
-6564 220 0
-6564 629 0
-6565 270 0
-6565 552 0
-6566 272 0
-6566 803 0
-6567 552 0
-6567 977 0
-6568 574 0
-6568 841 0
4945 4980 5028 5067 5209 5241 5290 5302 5373 5398 5451 5468 5480 5493 5502 5503 5504 5505 5506 5509 5511 5513 5514 5517 5561 5597 5629 5684 5779 5953 5962 5988 6089 6090 6099 6100 6120 6235 6238 6246 6247 6256 6261 6262 6278 6279 6297 6300 6302 6307 6431 6441 6459 6538 6539 6541 6542 6543 6545 6546 6549 6550 6551 6554 6555 6557 6561 6562 6563 6564 6565 6566 6567 6568 0
-6569 378 0
-6569 1090 0
-6570 378 0
-6570 1101 0
-6571 406 0
-6571 1147 0
-6572 412 0
-6572 1133 0
-6573 435 0
-6573 1098 0
-6574 477 0
-6574 1160 0
5344 5464 5526 5553 5554 5683 5799 6407 6569 6570 6571 6572 6573 6574 0
1147 1112 1101 1097 1145 1098 1087 1081 1123 1090 0
-6575 410 0
-6575 1131 0
-6576 438 0
-6576 1112 0
-6577 481 0
-6577 1139 0
4925 4947 5088 5263 5264 5525 5546 5547 5799 6575 6576 6577 0
-6578 13 0
-6578 698 0
-6579 17 0
-6579 626 0
-6580 46 0
-6580 646 0
-6581 90 0
-6581 494 0
-6582 97 0
-6582 889 0
-6583 117 0
-6583 637 0
-6584 117 0
-6584 651 0
-6585 129 0
-6585 722 0
-6586 129 0
-6586 850 0
-6587 150 0
-6587 536 0
-6588 185 0
-6588 714 0
-6589 198 0
-6589 726 0
-6590 221 0
-6590 761 0
-6591 244 0
-6591 836 0
-6592 332 0
-6592 725 0
-6593 349 0
-6593 650 0
-6594 352 0
-6594 870 0
-6595 414 0
-6595 1088 0
-6596 452 0
-6596 1140 0
-6597 479 0
-6597 1156 0
-6598 790 0
-6598 940 0
-6599 1121 0
-6599 1154 0
4950 4959 4963 4974 4975 4977 4978 4987 4989 4991 4998 5002 5003 5004 5005 5013 5017 5024 5030 5069 5085 5090 5153 5155 5180 5290 5398 5422 5617 5618 5619 5620 5621 5624 5627 5629 5632 5639 5640 5648 5660 5668 5669 5676 5678 5681 5685 5688 5690 5694 5701 5706 5710 5712 5765 5918 5969 5979 5982 6000 6086 6100 6165 6221 6227 6287 6333 6578 6579 6580 6581 6582 6583 6584 6585 6586 6587 6588 6589 6590 6591 6592 6593 6594 6595 6596 6597 6598 6599 0
630 798 743 880 781 608 624 507 821 863 653 1053 593 854 882 749 495 843 650 939 927 599 553 637 870 807 1121 707 825 839 558 912 698 948 877 841 646 801 761 1149 519 915 1131 0
-6600 15 0
-6600 990 0
-6601 76 0
-6601 731 0
-6602 105 0
-6602 816 0
-6603 105 0
-6603 1057 0
-6604 118 0
-6604 660 0
-6605 118 0
-6605 742 0
-6606 133 0
-6606 962 0
-6607 174 0
-6607 703 0
-6608 266 0
-6608 873 0
-6609 278 0
-6609 873 0
-6610 298 0
-6610 820 0
-6611 348 0
-6611 886 0
-6612 382 0
-6612 1144 0
-6613 411 0
-6613 1082 0
-6614 458 0
-6614 1132 0
-6615 502 0
-6615 700 0
-6616 505 0
-6616 510 0
-6617 517 0
-6617 787 0
-6618 557 0
-6618 990 0
-6619 662 0
-6619 987 0
-6620 804 0
-6620 1052 0
-6621 827 0
-6621 987 0
-6622 1084 0
-6622 1112 0
4928 5035 5037 5046 5047 5054 5055 5074 5083 5084 5085 5098 5153 5155 5156 5266 5486 5506 5516 5648 5683 5705 6139 6143 6144 6159 6222 6476 6600 6601 6602 6603 6604 6605 6606 6607 6608 6609 6610 6611 6612 6613 6614 6615 6616 6617 6618 6619 6620 6621 6622 0
-6623 108 0
-6623 1057 0
-6624 149 0
-6624 505 0
-6625 348 0
-6625 1020 0
4928 4942 4994 5035 5037 5040 5046 5047 5048 5055 5074 5083 5084 5085 5153 5155 5266 5353 5506 5516 5567 5648 5705 5822 5880 5927 6143 6144 6159 6222 6366 6476 6602 6604 6605 6606 6607 6610 6611 6612 6613 6615 6622 6623 6624 6625 0
-6626 37 0
-6626 785 0
-6627 444 0
-6627 1144 0
-6628 620 0
-6628 1020 0
-6629 831 0
-6629 836 0
-6630 987 0
-6630 990 0
4928 5035 5040 5047 5048 5055 5056 5074 5083 5084 5085 5153 5164 5288 5353 5379 5506 5567 5603 5611 5648 5683 5705 5874 5880 5920 6143 6222 6249 6504 6518 6595 6601 6602 6604 6605 6610 6611 6613 6615 6619 6620 6621 6622 6623 6624 6626 6627 6628 6629 6630 0
-6631 143 0
-6631 1057 0
-6632 174 0
-6632 820 0
-6633 383 0
-6633 1144 0
-6634 804 0
-6634 1066 0
4928 5035 5047 5048 5054 5055 5056 5074 5083 5084 5085 5153 5266 5353 5506 5611 5648 5683 5705 5874 5880 5927 5938 5942 6139 6143 6144 6222 6249 6476 6595 6601 6602 6604 6605 6607 6611 6613 6614 6615 6616 6622 6631 6632 6633 6634 0
820 990 703 662 702 1002 932 597 771 971 827 0
-6635 41 0
-6635 830 0
-6636 102 0
-6636 1054 0
-6637 105 0
-6637 692 0
-6638 120 0
-6638 883 0
-6639 174 0
-6639 763 0
-6640 205 0
-6640 574 0
-6641 216 0
-6641 765 0
-6642 239 0
-6642 572 0
-6643 239 0
-6643 751 0
-6644 239 0
-6644 954 0
-6645 239 0
-6645 957 0
-6646 248 0
-6646 614 0
-6647 268 0
-6647 646 0
-6648 283 0
-6648 954 0
-6649 296 0
-6649 605 0
-6650 296 0
-6650 1013 0
-6651 339 0
-6651 909 0
-6652 339 0
-6652 910 0
-6653 345 0
-6653 725 0
-6654 351 0
-6654 682 0
-6655 504 0
-6655 535 0
-6656 705 0
-6656 1038 0
-6657 841 0
-6657 845 0
-6658 1016 0
-6658 1018 0
4928 4950 4956 4991 5002 5037 5045 5070 5126 5226 5283 5318 5398 5410 5502 5515 5624 5676 5681 5688 5694 5706 5857 5883 5930 5939 5941 6029 6078 6079 6085 6091 6096 6097 6098 6099 6101 6114 6116 6119 6121 6123 6125 6156 6330 6332 6335 6338 6353 6355 6427 6475 6602 6635 6636 6637 6638 6639 6640 6641 6642 6643 6644 6645 6646 6647 6648 6649 6650 6651 6652 6653 6654 6655 6656 6657 6658 0
-6659 12 0
-6659 689 0
-6660 37 0
-6660 798 0
-6661 216 0
-6661 705 0
-6662 350 0
-6662 1013 0
-6663 498 0
-6663 499 0
-6664 510 0
-6664 761 0
-6665 888 0
-6665 1014 0
-6666 1011 0
-6666 1026 0
4928 4950 4991 5002 5004 5037 5045 5070 5071 5126 5226 5283 5290 5318 5367 5374 5410 5453 5502 5679 5681 5694 5706 5720 5788 5857 5870 5883 6079 6084 6085 6091 6096 6098 6100 6101 6107 6110 6111 6114 6116 6119 6123 6335 6338 6355 6442 6475 6565 6602 6635 6637 6638 6639 6641 6642 6643 6644 6645 6646 6647 6648 6649 6651 6654 6655 6658 6659 6660 6661 6662 6663 6664 6665 6666 0
854 836 953 761 954 757 614 843 751 646 609 812 689 807 1003 574 1012 1014 718 572 608 982 499 957 542 969 831 548 763 999 0
-6667 428 0
-6667 1081 0
-6668 440 0
-6668 1114 0
-6669 442 0
-6669 1160 0
4927 5481 5487 5561 5597 5904 6486 6622 6667 6668 6669 0
-6670 141 0
-6670 945 0
-6671 181 0
-6671 915 0
-6672 386 0
-6672 1099 0
-6673 451 0
-6673 1157 0
-6674 454 0
-6674 1109 0
-6675 479 0
-6675 1090 0
-6676 801 0
-6676 1040 0
-6677 827 0
-6677 896 0
4950 4955 4957 4959 4975 4977 4978 4987 4989 4991 4992 4997 5003 5004 5018 5024 5027 5030 5069 5074 5128 5149 5180 5194 5214 5215 5216 5221 5312 5416 5526 5608 5609 5613 5617 5621 5624 5631 5633 5673 5678 5692 5700 5701 5706 5889 5918 5935 5954 6034 6062 6095 6156 6170 6175 6197 6219 6222 6420 6429 6480 6586 6593 6594 6670 6671 6672 6673 6674 6675 6676 6677 0
-6678 16 0
-6678 1040 0
-6679 451 0
-6679 1146 0
-6680 748 0
-6680 803 0
-6681 801 0
-6681 945 0
-6682 913 0
-6682 1040 0
4936 4950 4957 4960 4965 4975 4977 4978 4987 4989 4991 4998 5002 5003 5004 5024 5025 5027 5030 5074 5180 5194 5214 5215 5216 5254 5255 5312 5450 5485 5608 5609 5613 5617 5621 5624 5627 5628 5631 5632 5633 5643 5645 5647 5662 5663 5685 5688 5692 5694 5706 5716 5794 5889 6034 6062 6156 6170 6171 6197 6222 6328 6569 6586 6593 6678 6679 6680 6681 6682 0
498 698 519 717 495 854 843 809 743 507 927 880 630 945 653 749 671 624 863 1026 650 601 915 801 882 491 807 991 821 558 1053 781 707 0
-6683 445 0
-6683 1144 0
4927 5156 5348 5353 5478 5598 5792 5935 6484 6576 6683 0
4927 5156 5348 5478 5598 5792 5935 6484 6576 6683 0
-6684 430 0
-6684 1121 0
-6685 1089 0
-6685 1150 0
5343 5354 5470 5471 5531 5548 5790 5793 5794 5795 5796 5800 5804 6136 6137 6684 6685 0
5254 5343 5354 5471 5531 5548 5790 5793 5794 5795 5796 5804 6136 6137 0
1101 1081 1120 1109 1151 1112 1116 1133 1092 1118 0
-6686 407 0
-6686 1084 0
-6687 432 0
-6687 1139 0
5090 5110 5466 5468 5480 5484 5599 5727 5979 6015 6371 6486 6686 6687 0
5090 5110 5466 5468 5480 5599 5727 5979 6015 6371 6486 6686 6687 0
-6688 407 0
-6688 1139 0
5008 5090 5465 5466 5599 6371 6597 6686 6688 0
1092 1081 1082 1115 541 0
-6689 45 0
-6689 841 0
-6690 79 0
-6690 762 0
-6691 134 0
-6691 784 0
-6692 303 0
-6692 887 0
-6693 473 0
-6693 1123 0
-6694 507 0
-6694 513 0
-6695 533 0
-6695 873 0
-6696 543 0
-6696 544 0
-6697 544 0
-6697 550 0
-6698 706 0
-6698 761 0
-6699 798 0
-6699 885 0
-6700 915 0
-6700 1021 0
4950 5003 5050 5051 5056 5113 5114 5116 5118 5120 5121 5122 5124 5126 5128 5129 5131 5133 5141 5142 5143 5144 5146 5147 5149 5150 5152 5156 5158 5164 5172 5173 5174 5182 5194 5219 5254 5485 5575 5582 5592 5593 5602 5604 5649 5804 5830 5836 5893 5932 5955 5998 6002 6011 6012 6056 6059 6187 6204 6310 6316 6344 6689 6690 6691 6692 6693 6694 6695 6696 6697 6698 6699 6700 0
-6701 244 0
-6701 784 0
-6702 288 0
-6702 887 0
-6703 363 0
-6703 900 0
-6704 419 0
-6704 1099 0
-6705 473 0
-6705 1118 0
-6706 523 0
-6706 817 0
-6707 623 0
-6707 873 0
4950 4990 5003 5050 5051 5056 5113 5114 5115 5116 5118 5120 5121 5122 5124 5125 5128 5131 5133 5134 5137 5139 5141 5142 5143 5144 5147 5149 5152 5156 5158 5162 5164 5173 5174 5194 5270 5475 5582 5588 5592 5593 5594 5602 5649 5746 5830 5893 5932 5949 5955 6002 6011 6012 6028 6056 6059 6187 6223 6316 6344 6587 6689 6693 6694 6700 6701 6702 6703 6704 6705 6706 6707 0
-6708 409 0
-6708 1085 0
4934 4935 4940 5481 5528 5800 5801 6060 6064 6521 6708 0
1096 1151 1149 1109 1087 1129 1147 1156 0
-6709 8 0
-6709 782 0
-6710 12 0
-6710 714 0
-6711 45 0
-6711 960 0
-6712 110 0
-6712 794 0
-6713 111 0
-6713 810 0
-6714 187 0
-6714 788 0
-6715 187 0
-6715 811 0
-6716 225 0
-6716 583 0
-6717 227 0
-6717 897 0
-6718 297 0
-6718 726 0
-6719 320 0
-6719 551 0
-6720 322 0
-6720 934 0
-6721 342 0
-6721 571 0
-6722 343 0
-6722 888 0
-6723 346 0
-6723 998 0
-6724 356 0
-6724 812 0
-6725 358 0
-6725 775 0
-6726 368 0
-6726 792 0
-6727 525 0
-6727 820 0
-6728 572 0
-6728 657 0
-6729 1007 0
-6729 1010 0
4982 5038 5044 5057 5081 5082 5275 5283 5301 5324 5394 5440 5472 5505 5603 5634 5668 5681 5723 5747 5823 5826 5835 5844 5853 5867 5874 5908 5909 6100 6146 6200 6253 6259 6317 6382 6393 6506 6610 6619 6667 6709 6710 6711 6712 6713 6714 6715 6716 6717 6718 6719 6720 6721 6722 6723 6724 6725 6726 6727 6728 6729 0
-6730 187 0
-6730 726 0
-6731 187 0
-6731 782 0
-6732 199 0
-6732 897 0
-6733 208 0
-6733 1025 0
-6734 272 0
-6734 792 0
-6735 358 0
-6735 934 0
-6736 533 0
-6736 787 0
-6737 617 0
-6737 897 0
-6738 811 0
-6738 922 0
-6739 824 0
-6739 896 0
-6740 930 0
-6740 971 0
-6741 1006 0
-6741 1007 0
4964 4982 5038 5057 5081 5082 5275 5282 5296 5301 5318 5324 5326 5394 5440 5472 5483 5505 5586 5603 5634 5668 5681 5694 5747 5823 5827 5835 5844 5874 5897 6026 6100 6146 6317 6388 6610 6667 6710 6712 6716 6719 6721 6722 6723 6725 6727 6728 6730 6731 6732 6733 6734 6735 6736 6737 6738 6739 6740 6741 0
-6742 18 0
-6742 962 0
-6743 19 0
-6743 529 0
-6744 95 0
-6744 923 0
-6745 96 0
-6745 1012 0
-6746 100 0
-6746 910 0
-6747 113 0
-6747 889 0
-6748 138 0
-6748 816 0
-6749 234 0
-6749 924 0
-6750 254 0
-6750 922 0
-6751 273 0
-6751 1009 0
-6752 294 0
-6752 618 0
-6753 294 0
-6753 961 0
-6754 368 0
-6754 929 0
-6755 402 0
-6755 1101 0
-6756 473 0
-6756 1083 0
-6757 735 0
-6757 909 0
-6758 766 0
-6758 769 0
-6759 884 0
-6759 886 0
-6760 963 0
-6760 1012 0
-6761 1016 0
-6761 1017 0
4950 5002 5004 5005 5011 5050 5051 5086 5108 5122 5126 5152 5219 5226 5283 5364 5374 5395 5398 5399 5410 5490 5502 5549 5673 5676 5681 5684 5694 5706 5720 5798 5830 5857 5870 5872 5916 5954 6034 6068 6069 6072 6077 6084 6094 6096 6097 6098 6107 6116 6117 6119 6123 6125 6148 6254 6335 6338 6339 6343 6346 6365 6637 6638 6649 6656 6659 6660 6662 6663 6664 6742 6743 6744 6745 6746 6747 6748 6749 6750 6751 6752 6753 6754 6755 6756 6757 6758 6759 6760 6761 0
783 609 1012 1003 843 671 836 985 796 873 962 953 689 734 854 937 486 807 608 761 536 499 605 867 614 790 922 880 721 830 789 534 618 692 999 718 769 824 924 529 1108 961 1009 558 971 747 0
-6762 215 0
-6762 504 0
-6763 215 0
-6763 618 0
-6764 270 0
-6764 796 0
4950 5011 5037 5283 5374 5502 5645 5706 5716 5883 5920 5939 5941 6077 6079 6082 6084 6085 6093 6104 6105 6114 6258 6352 6360 6664 6762 6763 6764 0
-6765 109 0
-6765 707 0
-6766 141 0
-6766 959 0
-6767 547 0
-6767 548 0
-6768 552 0
-6768 961 0
-6769 560 0
-6769 863 0
-6770 561 0
-6770 836 0
-6771 762 0
-6771 866 0
-6772 1024 0
-6772 1025 0
4945 4950 4952 4957 4960 4968 4973 4977 4981 4983 4984 4986 4987 4988 4990 4991 5002 5003 5004 5013 5017 5019 5021 5024 5025 5029 5030 5032 5083 5085 5123 5141 5142 5143 5180 5213 5292 5422 5607 5608 5615 5628 5639 5643 5644 5646 5647 5661 5675 5679 5689 5694 5696 5704 5715 5717 5876 5915 5918 6172 6214 6220 6754 6765 6766 6767 6768 6769 6770 6771 6772 0
624 507 743 546 1009 653 599 982 574 882 880 812 807 543 857 843 717 556 809 863 519 702 877 630 0
-6773 78 0
-6773 985 0
-6774 227 0
-6774 910 0
-6775 274 0
-6775 912 0
-6776 345 0
-6776 947 0
-6777 683 0
-6777 1005 0
4978 4992 4997 4998 5003 5028 5154 5155 5184 5185 5200 5201 5205 5224 5225 5226 5229 5231 5235 5244 5256 5385 5386 5400 5404 5407 5418 5432 5434 5446 5449 5452 5943 5966 6235 6275 6278 6490 6493 6500 6525 6689 6773 6774 6775 6776 6777 0
-6778 381 0
-6778 1115 0
4927 5091 5254 5265 5266 5650 6035 6038 6045 6046 6324 6369 6693 6708 6778 0
1145 537 1088 1092 1087 0
5088 5092 5271 5272 5343 5515 5650 6057 0
-6779 460 0
-6779 1117 0
5092 5271 5272 5515 6059 6779 0
1117 1122 1131 552 1095 1085 0
-6780 373 0
-6780 1094 0
-6781 428 0
-6781 1127 0
4925 5271 5336 5464 5469 6058 6131 6779 6780 6781 0
4925 5271 5336 5464 6058 6131 6779 6780 6781 0
5464 5486 5489 5490 5553 5554 5567 6056 6325 0
1095 1134 1132 0
-6782 25 0
-6782 671 0
-6783 45 0
-6783 767 0
-6784 405 0
-6784 1100 0
-6785 664 0
-6785 1035 0
4927 4948 5346 5354 5358 5359 5467 5515 5552 5729 5794 5810 6184 6782 6783 6784 6785 0
-6786 55 0
-6786 854 0
-6787 55 0
-6787 1014 0
-6788 326 0
-6788 851 0
-6789 344 0
-6789 957 0
-6790 384 0
-6790 1093 0
-6791 421 0
-6791 1115 0
-6792 573 0
-6792 957 0
-6793 631 0
-6793 807 0
-6794 807 0
-6794 847 0
-6795 860 0
-6795 861 0
-6796 904 0
-6796 1018 0
-6797 1091 0
-6797 1133 0
4958 5002 5004 5005 5070 5086 5122 5144 5149 5153 5226 5283 5395 5410 5502 5507 5592 5647 5648 5673 5675 5676 5681 5694 5706 5857 5899 5954 6029 6034 6063 6082 6085 6091 6094 6096 6097 6100 6101 6105 6107 6110 6114 6119 6125 6185 6194 6204 6232 6363 6373 6406 6635 6642 6644 6648 6651 6654 6655 6720 6744 6755 6756 6786 6787 6788 6789 6790 6791 6792 6793 6794 6795 6796 6797 0
608 937 847 860 953 614 718 751 1003 849 631 714 873 572 757 843 957 796 999 982 854 783 761 1149 954 1012 803 836 498 0
5090 5310 5479 5483 5490 5800 6131 0
-6798 312 0
-6798 559 0
4947 4948 5103 5477 5484 5489 5490 5513 5529 5532 5553 5554 5558 5560 6043 6044 6045 6046 6047 6576 6613 6798 0
1093 1112 1082 1139 1126 1119 1084 1136 1122 1121 1154 0
-4917 0
