p cnf 1801 4347
1 0
2 0
3 0
4 0
5 0
6 0
7 0
8 0
9 0
10 0
11 0
12 0
13 0
14 0
15 0
16 0
17 0
18 0
19 0
20 0
21 0
22 0
23 0
24 0
25 0
26 0
27 0
28 0
29 0
30 0
31 0
32 0
33 0
34 0
35 0
36 0
37 0
38 0
39 0
40 0
41 0
42 0
43 0
44 0
45 0
46 0
47 0
48 0
49 0
50 0
51 0
52 0
53 0
54 0
55 0
56 0
57 0
58 0
59 0
60 0
61 0
62 0
63 0
64 0
65 0
66 0
67 0
68 0
69 0
70 0
71 0
72 0
73 0
74 0
75 0
76 0
77 0
78 0
79 0
80 0
81 0
82 0
83 0
84 0
85 0
86 0
87 0
88 0
89 0
90 0
91 0
92 0
93 0
94 0
95 0
96 0
97 0
98 0
99 0
100 0
101 0
102 0
103 0
104 0
105 0
106 0
107 0
108 0
109 0
110 0
111 0
112 0
113 0
114 0
115 0
116 0
117 0
118 0
119 0
120 0
121 0
122 0
123 0
124 0
125 0
126 0
127 0
128 0
129 0
130 0
131 0
132 0
133 0
134 0
135 0
136 0
137 0
138 0
139 0
140 0
141 0
142 0
143 0
144 0
145 0
146 0
147 0
148 0
149 0
150 0
151 0
152 0
153 0
154 0
155 0
156 0
157 0
158 0
159 0
160 0
161 0
162 0
163 0
164 0
165 0
166 0
167 0
168 0
169 0
170 0
171 0
172 0
173 0
174 0
175 0
176 0
177 0
178 0
179 0
180 0
181 0
182 0
183 0
184 0
185 0
186 0
187 0
188 0
189 0
190 0
191 0
192 0
193 0
194 0
195 0
196 0
197 0
198 0
199 0
200 0
201 0
202 0
203 0
204 0
205 0
206 0
207 0
208 0
209 0
210 0
211 0
212 0
213 0
214 0
215 0
216 0
217 0
218 0
219 0
220 0
221 0
222 0
223 0
224 0
225 0
226 0
227 0
228 0
229 0
230 0
231 0
232 0
233 0
234 0
235 0
236 0
237 0
238 0
239 0
240 0
241 0
242 0
243 0
244 0
245 0
246 0
247 0
248 0
249 0
250 0
251 0
252 0
253 0
254 0
255 0
256 0
257 0
258 0
259 0
260 0
261 0
262 0
263 0
264 0
265 0
266 0
267 0
268 0
269 0
270 0
271 0
272 0
273 0
274 0
275 0
276 0
277 0
278 0
279 0
280 0
281 0
282 0
283 0
284 0
285 0
286 0
287 0
288 0
289 0
290 0
291 0
292 0
293 0
294 0
295 0
296 0
297 0
298 0
299 0
300 0
301 0
302 0
303 0
304 0
305 0
306 0
307 0
308 0
309 0
310 0
311 0
312 0
313 0
314 0
315 0
316 0
317 0
318 0
319 0
320 0
321 0
322 0
323 0
324 0
325 0
326 0
327 0
328 0
329 0
330 0
331 0
332 0
333 0
334 0
335 0
336 0
337 0
338 0
339 0
340 0
341 0
342 0
343 0
344 0
345 0
346 0
347 0
348 0
349 0
350 0
351 0
352 0
353 0
354 0
355 0
533 0
534 0
535 0
536 0
537 0
538 0
539 0
540 0
541 0
542 0
543 0
544 0
545 0
546 0
547 0
548 0
549 0
550 0
551 0
552 0
553 0
554 0
555 0
556 0
557 0
558 0
559 0
560 0
561 0
562 0
563 0
564 0
565 0
566 0
567 0
568 0
569 0
570 0
571 0
572 0
573 0
574 0
575 0
576 0
577 0
578 0
579 0
580 0
581 0
582 0
583 0
584 0
585 0
586 0
587 0
588 0
589 0
590 0
591 0
592 0
593 0
594 0
595 0
596 0
597 0
598 0
599 0
600 0
601 0
602 0
603 0
604 0
605 0
606 0
607 0
608 0
609 0
610 0
611 0
612 0
613 0
614 0
615 0
616 0
617 0
618 0
619 0
620 0
621 0
622 0
623 0
624 0
625 0
626 0
627 0
628 0
629 0
630 0
631 0
632 0
633 0
634 0
635 0
636 0
637 0
638 0
639 0
640 0
641 0
642 0
643 0
644 0
645 0
646 0
647 0
648 0
649 0
650 0
651 0
652 0
653 0
654 0
655 0
656 0
657 0
658 0
659 0
660 0
661 0
662 0
663 0
664 0
665 0
666 0
667 0
668 0
669 0
670 0
671 0
672 0
-357 673 0
-356 673 0
-356 -357 674 0
-359 675 0
-358 675 0
-358 -359 676 0
-361 677 0
-360 677 0
-360 -361 678 0
-363 679 0
-362 679 0
-362 -363 680 0
-365 681 0
-364 681 0
-364 -365 682 0
-367 683 0
-366 683 0
-366 -367 684 0
-369 685 0
-368 685 0
-368 -369 686 0
-371 687 0
-370 687 0
-370 -371 688 0
-373 689 0
-372 689 0
-372 -373 690 0
-375 691 0
-374 691 0
-374 -375 692 0
-377 693 0
-376 693 0
-376 -377 694 0
-379 695 0
-378 695 0
-378 -379 696 0
-381 697 0
-380 697 0
-380 -381 698 0
-383 699 0
-382 699 0
-382 -383 700 0
-385 701 0
-384 701 0
-384 -385 702 0
-387 703 0
-386 703 0
-386 -387 704 0
-389 705 0
-388 705 0
-388 -389 706 0
-391 707 0
-390 707 0
-390 -391 708 0
-393 709 0
-392 709 0
-392 -393 710 0
-395 711 0
-394 711 0
-394 -395 712 0
-397 713 0
-396 713 0
-396 -397 714 0
-399 715 0
-398 715 0
-398 -399 716 0
-401 717 0
-400 717 0
-400 -401 718 0
-403 719 0
-402 719 0
-402 -403 720 0
-405 721 0
-404 721 0
-404 -405 722 0
-407 723 0
-406 723 0
-406 -407 724 0
-409 725 0
-408 725 0
-408 -409 726 0
-411 727 0
-410 727 0
-410 -411 728 0
-413 729 0
-412 729 0
-412 -413 730 0
-415 731 0
-414 731 0
-414 -415 732 0
-417 733 0
-416 733 0
-416 -417 734 0
-419 735 0
-418 735 0
-418 -419 736 0
-421 737 0
-420 737 0
-420 -421 738 0
-423 739 0
-422 739 0
-422 -423 740 0
-425 741 0
-424 741 0
-424 -425 742 0
-427 743 0
-426 743 0
-426 -427 744 0
-429 745 0
-428 745 0
-428 -429 746 0
-431 747 0
-430 747 0
-430 -431 748 0
-433 749 0
-432 749 0
-432 -433 750 0
-435 751 0
-434 751 0
-434 -435 752 0
-437 753 0
-436 753 0
-436 -437 754 0
-439 755 0
-438 755 0
-438 -439 756 0
-441 757 0
-440 757 0
-440 -441 758 0
-443 759 0
-442 759 0
-442 -443 760 0
-445 761 0
-444 761 0
-444 -445 762 0
-447 763 0
-446 763 0
-446 -447 764 0
-449 765 0
-448 765 0
-448 -449 766 0
-451 767 0
-450 767 0
-450 -451 768 0
-453 769 0
-452 769 0
-452 -453 770 0
-455 771 0
-454 771 0
-454 -455 772 0
-457 773 0
-456 773 0
-456 -457 774 0
-459 775 0
-458 775 0
-458 -459 776 0
-461 777 0
-460 777 0
-460 -461 778 0
-463 779 0
-462 779 0
-462 -463 780 0
-465 781 0
-464 781 0
-464 -465 782 0
-467 783 0
-466 783 0
-466 -467 784 0
-469 785 0
-468 785 0
-468 -469 786 0
-471 787 0
-470 787 0
-470 -471 788 0
-473 789 0
-472 789 0
-472 -473 790 0
-475 791 0
-474 791 0
-474 -475 792 0
-477 793 0
-476 793 0
-476 -477 794 0
-479 795 0
-478 795 0
-478 -479 796 0
-481 797 0
-480 797 0
-480 -481 798 0
-483 799 0
-482 799 0
-482 -483 800 0
-485 801 0
-484 801 0
-484 -485 802 0
-487 803 0
-486 803 0
-486 -487 804 0
-489 805 0
-488 805 0
-488 -489 806 0
-491 807 0
-490 807 0
-490 -491 808 0
-493 809 0
-492 809 0
-492 -493 810 0
-495 811 0
-494 811 0
-494 -495 812 0
-497 813 0
-496 813 0
-496 -497 814 0
-499 815 0
-498 815 0
-498 -499 816 0
-501 817 0
-500 817 0
-500 -501 818 0
-503 819 0
-502 819 0
-502 -503 820 0
-505 821 0
-504 821 0
-504 -505 822 0
-507 823 0
-506 823 0
-506 -507 824 0
-509 825 0
-508 825 0
-508 -509 826 0
-511 827 0
-510 827 0
-510 -511 828 0
-513 829 0
-512 829 0
-512 -513 830 0
-515 831 0
-514 831 0
-514 -515 832 0
-517 833 0
-516 833 0
-516 -517 834 0
-519 835 0
-518 835 0
-518 -519 836 0
-521 837 0
-520 837 0
-520 -521 838 0
-523 839 0
-522 839 0
-522 -523 840 0
-525 841 0
-524 841 0
-524 -525 842 0
-527 843 0
-526 843 0
-526 -527 844 0
-529 845 0
-528 845 0
-528 -529 846 0
-531 847 0
-530 847 0
-530 -531 848 0
-673 849 0
-674 850 0
-532 849 0
-532 -673 850 0
-532 -674 851 0
-677 852 0
-678 853 0
-675 852 0
-676 853 0
-675 -677 853 0
-675 -678 854 0
-676 -677 854 0
-676 -678 855 0
-681 856 0
-682 857 0
-679 856 0
-680 857 0
-679 -681 857 0
-679 -682 858 0
-680 -681 858 0
-680 -682 859 0
-685 860 0
-686 861 0
-683 860 0
-684 861 0
-683 -685 861 0
-683 -686 862 0
-684 -685 862 0
-684 -686 863 0
-689 864 0
-690 865 0
-687 864 0
-688 865 0
-687 -689 865 0
-687 -690 866 0
-688 -689 866 0
-688 -690 867 0
-693 868 0
-694 869 0
-691 868 0
-692 869 0
-691 -693 869 0
-691 -694 870 0
-692 -693 870 0
-692 -694 871 0
-697 872 0
-698 873 0
-695 872 0
-696 873 0
-695 -697 873 0
-695 -698 874 0
-696 -697 874 0
-696 -698 875 0
-701 876 0
-702 877 0
-699 876 0
-700 877 0
-699 -701 877 0
-699 -702 878 0
-700 -701 878 0
-700 -702 879 0
-705 880 0
-706 881 0
-703 880 0
-704 881 0
-703 -705 881 0
-703 -706 882 0
-704 -705 882 0
-704 -706 883 0
-709 884 0
-710 885 0
-707 884 0
-708 885 0
-707 -709 885 0
-707 -710 886 0
-708 -709 886 0
-708 -710 887 0
-713 888 0
-714 889 0
-711 888 0
-712 889 0
-711 -713 889 0
-711 -714 890 0
-712 -713 890 0
-712 -714 891 0
-717 892 0
-718 893 0
-715 892 0
-716 893 0
-715 -717 893 0
-715 -718 894 0
-716 -717 894 0
-716 -718 895 0
-721 896 0
-722 897 0
-719 896 0
-720 897 0
-719 -721 897 0
-719 -722 898 0
-720 -721 898 0
-720 -722 899 0
-725 900 0
-726 901 0
-723 900 0
-724 901 0
-723 -725 901 0
-723 -726 902 0
-724 -725 902 0
-724 -726 903 0
-729 904 0
-730 905 0
-727 904 0
-728 905 0
-727 -729 905 0
-727 -730 906 0
-728 -729 906 0
-728 -730 907 0
-733 908 0
-734 909 0
-731 908 0
-732 909 0
-731 -733 909 0
-731 -734 910 0
-732 -733 910 0
-732 -734 911 0
-737 912 0
-738 913 0
-735 912 0
-736 913 0
-735 -737 913 0
-735 -738 914 0
-736 -737 914 0
-736 -738 915 0
-741 916 0
-742 917 0
-739 916 0
-740 917 0
-739 -741 917 0
-739 -742 918 0
-740 -741 918 0
-740 -742 919 0
-745 920 0
-746 921 0
-743 920 0
-744 921 0
-743 -745 921 0
-743 -746 922 0
-744 -745 922 0
-744 -746 923 0
-749 924 0
-750 925 0
-747 924 0
-748 925 0
-747 -749 925 0
-747 -750 926 0
-748 -749 926 0
-748 -750 927 0
-753 928 0
-754 929 0
-751 928 0
-752 929 0
-751 -753 929 0
-751 -754 930 0
-752 -753 930 0
-752 -754 931 0
-757 932 0
-758 933 0
-755 932 0
-756 933 0
-755 -757 933 0
-755 -758 934 0
-756 -757 934 0
-756 -758 935 0
-761 936 0
-762 937 0
-759 936 0
-760 937 0
-759 -761 937 0
-759 -762 938 0
-760 -761 938 0
-760 -762 939 0
-765 940 0
-766 941 0
-763 940 0
-764 941 0
-763 -765 941 0
-763 -766 942 0
-764 -765 942 0
-764 -766 943 0
-769 944 0
-770 945 0
-767 944 0
-768 945 0
-767 -769 945 0
-767 -770 946 0
-768 -769 946 0
-768 -770 947 0
-773 948 0
-774 949 0
-771 948 0
-772 949 0
-771 -773 949 0
-771 -774 950 0
-772 -773 950 0
-772 -774 951 0
-777 952 0
-778 953 0
-775 952 0
-776 953 0
-775 -777 953 0
-775 -778 954 0
-776 -777 954 0
-776 -778 955 0
-781 956 0
-782 957 0
-779 956 0
-780 957 0
-779 -781 957 0
-779 -782 958 0
-780 -781 958 0
-780 -782 959 0
-785 960 0
-786 961 0
-783 960 0
-784 961 0
-783 -785 961 0
-783 -786 962 0
-784 -785 962 0
-784 -786 963 0
-789 964 0
-790 965 0
-787 964 0
-788 965 0
-787 -789 965 0
-787 -790 966 0
-788 -789 966 0
-788 -790 967 0
-793 968 0
-794 969 0
-791 968 0
-792 969 0
-791 -793 969 0
-791 -794 970 0
-792 -793 970 0
-792 -794 971 0
-797 972 0
-798 973 0
-795 972 0
-796 973 0
-795 -797 973 0
-795 -798 974 0
-796 -797 974 0
-796 -798 975 0
-801 976 0
-802 977 0
-799 976 0
-800 977 0
-799 -801 977 0
-799 -802 978 0
-800 -801 978 0
-800 -802 979 0
-805 980 0
-806 981 0
-803 980 0
-804 981 0
-803 -805 981 0
-803 -806 982 0
-804 -805 982 0
-804 -806 983 0
-809 984 0
-810 985 0
-807 984 0
-808 985 0
-807 -809 985 0
-807 -810 986 0
-808 -809 986 0
-808 -810 987 0
-813 988 0
-814 989 0
-811 988 0
-812 989 0
-811 -813 989 0
-811 -814 990 0
-812 -813 990 0
-812 -814 991 0
-817 992 0
-818 993 0
-815 992 0
-816 993 0
-815 -817 993 0
-815 -818 994 0
-816 -817 994 0
-816 -818 995 0
-821 996 0
-822 997 0
-819 996 0
-820 997 0
-819 -821 997 0
-819 -822 998 0
-820 -821 998 0
-820 -822 999 0
-825 1000 0
-826 1001 0
-823 1000 0
-824 1001 0
-823 -825 1001 0
-823 -826 1002 0
-824 -825 1002 0
-824 -826 1003 0
-829 1004 0
-830 1005 0
-827 1004 0
-828 1005 0
-827 -829 1005 0
-827 -830 1006 0
-828 -829 1006 0
-828 -830 1007 0
-833 1008 0
-834 1009 0
-831 1008 0
-832 1009 0
-831 -833 1009 0
-831 -834 1010 0
-832 -833 1010 0
-832 -834 1011 0
-837 1012 0
-838 1013 0
-835 1012 0
-836 1013 0
-835 -837 1013 0
-835 -838 1014 0
-836 -837 1014 0
-836 -838 1015 0
-841 1016 0
-842 1017 0
-839 1016 0
-840 1017 0
-839 -841 1017 0
-839 -842 1018 0
-840 -841 1018 0
-840 -842 1019 0
-845 1020 0
-846 1021 0
-843 1020 0
-844 1021 0
-843 -845 1021 0
-843 -846 1022 0
-844 -845 1022 0
-844 -846 1023 0
-849 1024 0
-850 1025 0
-851 1026 0
-847 1024 0
-848 1025 0
-847 -849 1025 0
-847 -850 1026 0
-847 -851 1027 0
-848 -849 1026 0
-848 -850 1027 0
-848 -851 1028 0
-856 1029 0
-857 1030 0
-858 1031 0
-859 1032 0
-852 1029 0
-853 1030 0
-854 1031 0
-855 1032 0
-852 -856 1030 0
-852 -857 1031 0
-852 -858 1032 0
-852 -859 1033 0
-853 -856 1031 0
-853 -857 1032 0
-853 -858 1033 0
-853 -859 1034 0
-854 -856 1032 0
-854 -857 1033 0
-854 -858 1034 0
-854 -859 1035 0
-855 -856 1033 0
-855 -857 1034 0
-855 -858 1035 0
-855 -859 1036 0
-864 1037 0
-865 1038 0
-866 1039 0
-867 1040 0
-860 1037 0
-861 1038 0
-862 1039 0
-863 1040 0
-860 -864 1038 0
-860 -865 1039 0
-860 -866 1040 0
-860 -867 1041 0
-861 -864 1039 0
-861 -865 1040 0
-861 -866 1041 0
-861 -867 1042 0
-862 -864 1040 0
-862 -865 1041 0
-862 -866 1042 0
-862 -867 1043 0
-863 -864 1041 0
-863 -865 1042 0
-863 -866 1043 0
-863 -867 1044 0
-872 1045 0
-873 1046 0
-874 1047 0
-875 1048 0
-868 1045 0
-869 1046 0
-870 1047 0
-871 1048 0
-868 -872 1046 0
-868 -873 1047 0
-868 -874 1048 0
-868 -875 1049 0
-869 -872 1047 0
-869 -873 1048 0
-869 -874 1049 0
-869 -875 1050 0
-870 -872 1048 0
-870 -873 1049 0
-870 -874 1050 0
-870 -875 1051 0
-871 -872 1049 0
-871 -873 1050 0
-871 -874 1051 0
-871 -875 1052 0
-880 1053 0
-881 1054 0
-882 1055 0
-883 1056 0
-876 1053 0
-877 1054 0
-878 1055 0
-879 1056 0
-876 -880 1054 0
-876 -881 1055 0
-876 -882 1056 0
-876 -883 1057 0
-877 -880 1055 0
-877 -881 1056 0
-877 -882 1057 0
-877 -883 1058 0
-878 -880 1056 0
-878 -881 1057 0
-878 -882 1058 0
-878 -883 1059 0
-879 -880 1057 0
-879 -881 1058 0
-879 -882 1059 0
-879 -883 1060 0
-888 1061 0
-889 1062 0
-890 1063 0
-891 1064 0
-884 1061 0
-885 1062 0
-886 1063 0
-887 1064 0
-884 -888 1062 0
-884 -889 1063 0
-884 -890 1064 0
-884 -891 1065 0
-885 -888 1063 0
-885 -889 1064 0
-885 -890 1065 0
-885 -891 1066 0
-886 -888 1064 0
-886 -889 1065 0
-886 -890 1066 0
-886 -891 1067 0
-887 -888 1065 0
-887 -889 1066 0
-887 -890 1067 0
-887 -891 1068 0
-896 1069 0
-897 1070 0
-898 1071 0
-899 1072 0
-892 1069 0
-893 1070 0
-894 1071 0
-895 1072 0
-892 -896 1070 0
-892 -897 1071 0
-892 -898 1072 0
-892 -899 1073 0
-893 -896 1071 0
-893 -897 1072 0
-893 -898 1073 0
-893 -899 1074 0
-894 -896 1072 0
-894 -897 1073 0
-894 -898 1074 0
-894 -899 1075 0
-895 -896 1073 0
-895 -897 1074 0
-895 -898 1075 0
-895 -899 1076 0
-904 1077 0
-905 1078 0
-906 1079 0
-907 1080 0
-900 1077 0
-901 1078 0
-902 1079 0
-903 1080 0
-900 -904 1078 0
-900 -905 1079 0
-900 -906 1080 0
-900 -907 1081 0
-901 -904 1079 0
-901 -905 1080 0
-901 -906 1081 0
-901 -907 1082 0
-902 -904 1080 0
-902 -905 1081 0
-902 -906 1082 0
-902 -907 1083 0
-903 -904 1081 0
-903 -905 1082 0
-903 -906 1083 0
-903 -907 1084 0
-912 1085 0
-913 1086 0
-914 1087 0
-915 1088 0
-908 1085 0
-909 1086 0
-910 1087 0
-911 1088 0
-908 -912 1086 0
-908 -913 1087 0
-908 -914 1088 0
-908 -915 1089 0
-909 -912 1087 0
-909 -913 1088 0
-909 -914 1089 0
-909 -915 1090 0
-910 -912 1088 0
-910 -913 1089 0
-910 -914 1090 0
-910 -915 1091 0
-911 -912 1089 0
-911 -913 1090 0
-911 -914 1091 0
-911 -915 1092 0
-920 1093 0
-921 1094 0
-922 1095 0
-923 1096 0
-916 1093 0
-917 1094 0
-918 1095 0
-919 1096 0
-916 -920 1094 0
-916 -921 1095 0
-916 -922 1096 0
-916 -923 1097 0
-917 -920 1095 0
-917 -921 1096 0
-917 -922 1097 0
-917 -923 1098 0
-918 -920 1096 0
-918 -921 1097 0
-918 -922 1098 0
-918 -923 1099 0
-919 -920 1097 0
-919 -921 1098 0
-919 -922 1099 0
-919 -923 1100 0
-928 1101 0
-929 1102 0
-930 1103 0
-931 1104 0
-924 1101 0
-925 1102 0
-926 1103 0
-927 1104 0
-924 -928 1102 0
-924 -929 1103 0
-924 -930 1104 0
-924 -931 1105 0
-925 -928 1103 0
-925 -929 1104 0
-925 -930 1105 0
-925 -931 1106 0
-926 -928 1104 0
-926 -929 1105 0
-926 -930 1106 0
-926 -931 1107 0
-927 -928 1105 0
-927 -929 1106 0
-927 -930 1107 0
-927 -931 1108 0
-936 1109 0
-937 1110 0
-938 1111 0
-939 1112 0
-932 1109 0
-933 1110 0
-934 1111 0
-935 1112 0
-932 -936 1110 0
-932 -937 1111 0
-932 -938 1112 0
-932 -939 1113 0
-933 -936 1111 0
-933 -937 1112 0
-933 -938 1113 0
-933 -939 1114 0
-934 -936 1112 0
-934 -937 1113 0
-934 -938 1114 0
-934 -939 1115 0
-935 -936 1113 0
-935 -937 1114 0
-935 -938 1115 0
-935 -939 1116 0
-944 1117 0
-945 1118 0
-946 1119 0
-947 1120 0
-940 1117 0
-941 1118 0
-942 1119 0
-943 1120 0
-940 -944 1118 0
-940 -945 1119 0
-940 -946 1120 0
-940 -947 1121 0
-941 -944 1119 0
-941 -945 1120 0
-941 -946 1121 0
-941 -947 1122 0
-942 -944 1120 0
-942 -945 1121 0
-942 -946 1122 0
-942 -947 1123 0
-943 -944 1121 0
-943 -945 1122 0
-943 -946 1123 0
-943 -947 1124 0
-952 1125 0
-953 1126 0
-954 1127 0
-955 1128 0
-948 1125 0
-949 1126 0
-950 1127 0
-951 1128 0
-948 -952 1126 0
-948 -953 1127 0
-948 -954 1128 0
-948 -955 1129 0
-949 -952 1127 0
-949 -953 1128 0
-949 -954 1129 0
-949 -955 1130 0
-950 -952 1128 0
-950 -953 1129 0
-950 -954 1130 0
-950 -955 1131 0
-951 -952 1129 0
-951 -953 1130 0
-951 -954 1131 0
-951 -955 1132 0
-960 1133 0
-961 1134 0
-962 1135 0
-963 1136 0
-956 1133 0
-957 1134 0
-958 1135 0
-959 1136 0
-956 -960 1134 0
-956 -961 1135 0
-956 -962 1136 0
-956 -963 1137 0
-957 -960 1135 0
-957 -961 1136 0
-957 -962 1137 0
-957 -963 1138 0
-958 -960 1136 0
-958 -961 1137 0
-958 -962 1138 0
-958 -963 1139 0
-959 -960 1137 0
-959 -961 1138 0
-959 -962 1139 0
-959 -963 1140 0
-968 1141 0
-969 1142 0
-970 1143 0
-971 1144 0
-964 1141 0
-965 1142 0
-966 1143 0
-967 1144 0
-964 -968 1142 0
-964 -969 1143 0
-964 -970 1144 0
-964 -971 1145 0
-965 -968 1143 0
-965 -969 1144 0
-965 -970 1145 0
-965 -971 1146 0
-966 -968 1144 0
-966 -969 1145 0
-966 -970 1146 0
-966 -971 1147 0
-967 -968 1145 0
-967 -969 1146 0
-967 -970 1147 0
-967 -971 1148 0
-976 1149 0
-977 1150 0
-978 1151 0
-979 1152 0
-972 1149 0
-973 1150 0
-974 1151 0
-975 1152 0
-972 -976 1150 0
-972 -977 1151 0
-972 -978 1152 0
-972 -979 1153 0
-973 -976 1151 0
-973 -977 1152 0
-973 -978 1153 0
-973 -979 1154 0
-974 -976 1152 0
-974 -977 1153 0
-974 -978 1154 0
-974 -979 1155 0
-975 -976 1153 0
-975 -977 1154 0
-975 -978 1155 0
-975 -979 1156 0
-984 1157 0
-985 1158 0
-986 1159 0
-987 1160 0
-980 1157 0
-981 1158 0
-982 1159 0
-983 1160 0
-980 -984 1158 0
-980 -985 1159 0
-980 -986 1160 0
-980 -987 1161 0
-981 -984 1159 0
-981 -985 1160 0
-981 -986 1161 0
-981 -987 1162 0
-982 -984 1160 0
-982 -985 1161 0
-982 -986 1162 0
-982 -987 1163 0
-983 -984 1161 0
-983 -985 1162 0
-983 -986 1163 0
-983 -987 1164 0
-992 1165 0
-993 1166 0
-994 1167 0
-995 1168 0
-988 1165 0
-989 1166 0
-990 1167 0
-991 1168 0
-988 -992 1166 0
-988 -993 1167 0
-988 -994 1168 0
-988 -995 1169 0
-989 -992 1167 0
-989 -993 1168 0
-989 -994 1169 0
-989 -995 1170 0
-990 -992 1168 0
-990 -993 1169 0
-990 -994 1170 0
-990 -995 1171 0
-991 -992 1169 0
-991 -993 1170 0
-991 -994 1171 0
-991 -995 1172 0
-1000 1173 0
-1001 1174 0
-1002 1175 0
-1003 1176 0
-996 1173 0
-997 1174 0
-998 1175 0
-999 1176 0
-996 -1000 1174 0
-996 -1001 1175 0
-996 -1002 1176 0
-996 -1003 1177 0
-997 -1000 1175 0
-997 -1001 1176 0
-997 -1002 1177 0
-997 -1003 1178 0
-998 -1000 1176 0
-998 -1001 1177 0
-998 -1002 1178 0
-998 -1003 1179 0
-999 -1000 1177 0
-999 -1001 1178 0
-999 -1002 1179 0
-999 -1003 1180 0
-1008 1181 0
-1009 1182 0
-1010 1183 0
-1011 1184 0
-1004 1181 0
-1005 1182 0
-1006 1183 0
-1007 1184 0
-1004 -1008 1182 0
-1004 -1009 1183 0
-1004 -1010 1184 0
-1004 -1011 1185 0
-1005 -1008 1183 0
-1005 -1009 1184 0
-1005 -1010 1185 0
-1005 -1011 1186 0
-1006 -1008 1184 0
-1006 -1009 1185 0
-1006 -1010 1186 0
-1006 -1011 1187 0
-1007 -1008 1185 0
-1007 -1009 1186 0
-1007 -1010 1187 0
-1007 -1011 1188 0
-1016 1189 0
-1017 1190 0
-1018 1191 0
-1019 1192 0
-1012 1189 0
-1013 1190 0
-1014 1191 0
-1015 1192 0
-1012 -1016 1190 0
-1012 -1017 1191 0
-1012 -1018 1192 0
-1012 -1019 1193 0
-1013 -1016 1191 0
-1013 -1017 1192 0
-1013 -1018 1193 0
-1013 -1019 1194 0
-1014 -1016 1192 0
-1014 -1017 1193 0
-1014 -1018 1194 0
-1014 -1019 1195 0
-1015 -1016 1193 0
-1015 -1017 1194 0
-1015 -1018 1195 0
-1015 -1019 1196 0
-1024 1197 0
-1025 1198 0
-1026 1199 0
-1027 1200 0
-1028 1201 0
-1020 1197 0
-1021 1198 0
-1022 1199 0
-1023 1200 0
-1020 -1024 1198 0
-1020 -1025 1199 0
-1020 -1026 1200 0
-1020 -1027 1201 0
-1020 -1028 1202 0
-1021 -1024 1199 0
-1021 -1025 1200 0
-1021 -1026 1201 0
-1021 -1027 1202 0
-1021 -1028 1203 0
-1022 -1024 1200 0
-1022 -1025 1201 0
-1022 -1026 1202 0
-1022 -1027 1203 0
-1022 -1028 1204 0
-1023 -1024 1201 0
-1023 -1025 1202 0
-1023 -1026 1203 0
-1023 -1027 1204 0
-1023 -1028 1205 0
-1037 1206 0
-1038 1207 0
-1039 1208 0
-1040 1209 0
-1041 1210 0
-1042 1211 0
-1043 1212 0
-1044 1213 0
-1029 1206 0
-1030 1207 0
-1031 1208 0
-1032 1209 0
-1033 1210 0
-1034 1211 0
-1035 1212 0
-1036 1213 0
-1029 -1037 1207 0
-1029 -1038 1208 0
-1029 -1039 1209 0
-1029 -1040 1210 0
-1029 -1041 1211 0
-1029 -1042 1212 0
-1029 -1043 1213 0
-1029 -1044 1214 0
-1030 -1037 1208 0
-1030 -1038 1209 0
-1030 -1039 1210 0
-1030 -1040 1211 0
-1030 -1041 1212 0
-1030 -1042 1213 0
-1030 -1043 1214 0
-1030 -1044 1215 0
-1031 -1037 1209 0
-1031 -1038 1210 0
-1031 -1039 1211 0
-1031 -1040 1212 0
-1031 -1041 1213 0
-1031 -1042 1214 0
-1031 -1043 1215 0
-1031 -1044 1216 0
-1032 -1037 1210 0
-1032 -1038 1211 0
-1032 -1039 1212 0
-1032 -1040 1213 0
-1032 -1041 1214 0
-1032 -1042 1215 0
-1032 -1043 1216 0
-1032 -1044 1217 0
-1033 -1037 1211 0
-1033 -1038 1212 0
-1033 -1039 1213 0
-1033 -1040 1214 0
-1033 -1041 1215 0
-1033 -1042 1216 0
-1033 -1043 1217 0
-1033 -1044 1218 0
-1034 -1037 1212 0
-1034 -1038 1213 0
-1034 -1039 1214 0
-1034 -1040 1215 0
-1034 -1041 1216 0
-1034 -1042 1217 0
-1034 -1043 1218 0
-1034 -1044 1219 0
-1035 -1037 1213 0
-1035 -1038 1214 0
-1035 -1039 1215 0
-1035 -1040 1216 0
-1035 -1041 1217 0
-1035 -1042 1218 0
-1035 -1043 1219 0
-1036 -1037 1214 0
-1036 -1038 1215 0
-1036 -1039 1216 0
-1036 -1040 1217 0
-1036 -1041 1218 0
-1036 -1042 1219 0
-1053 1220 0
-1054 1221 0
-1055 1222 0
-1056 1223 0
-1057 1224 0
-1058 1225 0
-1059 1226 0
-1060 1227 0
-1045 1220 0
-1046 1221 0
-1047 1222 0
-1048 1223 0
-1049 1224 0
-1050 1225 0
-1051 1226 0
-1052 1227 0
-1045 -1053 1221 0
-1045 -1054 1222 0
-1045 -1055 1223 0
-1045 -1056 1224 0
-1045 -1057 1225 0
-1045 -1058 1226 0
-1045 -1059 1227 0
-1045 -1060 1228 0
-1046 -1053 1222 0
-1046 -1054 1223 0
-1046 -1055 1224 0
-1046 -1056 1225 0
-1046 -1057 1226 0
-1046 -1058 1227 0
-1046 -1059 1228 0
-1046 -1060 1229 0
-1047 -1053 1223 0
-1047 -1054 1224 0
-1047 -1055 1225 0
-1047 -1056 1226 0
-1047 -1057 1227 0
-1047 -1058 1228 0
-1047 -1059 1229 0
-1047 -1060 1230 0
-1048 -1053 1224 0
-1048 -1054 1225 0
-1048 -1055 1226 0
-1048 -1056 1227 0
-1048 -1057 1228 0
-1048 -1058 1229 0
-1048 -1059 1230 0
-1048 -1060 1231 0
-1049 -1053 1225 0
-1049 -1054 1226 0
-1049 -1055 1227 0
-1049 -1056 1228 0
-1049 -1057 1229 0
-1049 -1058 1230 0
-1049 -1059 1231 0
-1049 -1060 1232 0
-1050 -1053 1226 0
-1050 -1054 1227 0
-1050 -1055 1228 0
-1050 -1056 1229 0
-1050 -1057 1230 0
-1050 -1058 1231 0
-1050 -1059 1232 0
-1050 -1060 1233 0
-1051 -1053 1227 0
-1051 -1054 1228 0
-1051 -1055 1229 0
-1051 -1056 1230 0
-1051 -1057 1231 0
-1051 -1058 1232 0
-1051 -1059 1233 0
-1052 -1053 1228 0
-1052 -1054 1229 0
-1052 -1055 1230 0
-1052 -1056 1231 0
-1052 -1057 1232 0
-1052 -1058 1233 0
-1069 1234 0
-1070 1235 0
-1071 1236 0
-1072 1237 0
-1073 1238 0
-1074 1239 0
-1075 1240 0
-1076 1241 0
-1061 1234 0
-1062 1235 0
-1063 1236 0
-1064 1237 0
-1065 1238 0
-1066 1239 0
-1067 1240 0
-1068 1241 0
-1061 -1069 1235 0
-1061 -1070 1236 0
-1061 -1071 1237 0
-1061 -1072 1238 0
-1061 -1073 1239 0
-1061 -1074 1240 0
-1061 -1075 1241 0
-1061 -1076 1242 0
-1062 -1069 1236 0
-1062 -1070 1237 0
-1062 -1071 1238 0
-1062 -1072 1239 0
-1062 -1073 1240 0
-1062 -1074 1241 0
-1062 -1075 1242 0
-1062 -1076 1243 0
-1063 -1069 1237 0
-1063 -1070 1238 0
-1063 -1071 1239 0
-1063 -1072 1240 0
-1063 -1073 1241 0
-1063 -1074 1242 0
-1063 -1075 1243 0
-1063 -1076 1244 0
-1064 -1069 1238 0
-1064 -1070 1239 0
-1064 -1071 1240 0
-1064 -1072 1241 0
-1064 -1073 1242 0
-1064 -1074 1243 0
-1064 -1075 1244 0
-1064 -1076 1245 0
-1065 -1069 1239 0
-1065 -1070 1240 0
-1065 -1071 1241 0
-1065 -1072 1242 0
-1065 -1073 1243 0
-1065 -1074 1244 0
-1065 -1075 1245 0
-1065 -1076 1246 0
-1066 -1069 1240 0
-1066 -1070 1241 0
-1066 -1071 1242 0
-1066 -1072 1243 0
-1066 -1073 1244 0
-1066 -1074 1245 0
-1066 -1075 1246 0
-1066 -1076 1247 0
-1067 -1069 1241 0
-1067 -1070 1242 0
-1067 -1071 1243 0
-1067 -1072 1244 0
-1067 -1073 1245 0
-1067 -1074 1246 0
-1067 -1075 1247 0
-1068 -1069 1242 0
-1068 -1070 1243 0
-1068 -1071 1244 0
-1068 -1072 1245 0
-1068 -1073 1246 0
-1068 -1074 1247 0
-1085 1248 0
-1086 1249 0
-1087 1250 0
-1088 1251 0
-1089 1252 0
-1090 1253 0
-1091 1254 0
-1092 1255 0
-1077 1248 0
-1078 1249 0
-1079 1250 0
-1080 1251 0
-1081 1252 0
-1082 1253 0
-1083 1254 0
-1084 1255 0
-1077 -1085 1249 0
-1077 -1086 1250 0
-1077 -1087 1251 0
-1077 -1088 1252 0
-1077 -1089 1253 0
-1077 -1090 1254 0
-1077 -1091 1255 0
-1077 -1092 1256 0
-1078 -1085 1250 0
-1078 -1086 1251 0
-1078 -1087 1252 0
-1078 -1088 1253 0
-1078 -1089 1254 0
-1078 -1090 1255 0
-1078 -1091 1256 0
-1078 -1092 1257 0
-1079 -1085 1251 0
-1079 -1086 1252 0
-1079 -1087 1253 0
-1079 -1088 1254 0
-1079 -1089 1255 0
-1079 -1090 1256 0
-1079 -1091 1257 0
-1079 -1092 1258 0
-1080 -1085 1252 0
-1080 -1086 1253 0
-1080 -1087 1254 0
-1080 -1088 1255 0
-1080 -1089 1256 0
-1080 -1090 1257 0
-1080 -1091 1258 0
-1080 -1092 1259 0
-1081 -1085 1253 0
-1081 -1086 1254 0
-1081 -1087 1255 0
-1081 -1088 1256 0
-1081 -1089 1257 0
-1081 -1090 1258 0
-1081 -1091 1259 0
-1081 -1092 1260 0
-1082 -1085 1254 0
-1082 -1086 1255 0
-1082 -1087 1256 0
-1082 -1088 1257 0
-1082 -1089 1258 0
-1082 -1090 1259 0
-1082 -1091 1260 0
-1082 -1092 1261 0
-1083 -1085 1255 0
-1083 -1086 1256 0
-1083 -1087 1257 0
-1083 -1088 1258 0
-1083 -1089 1259 0
-1083 -1090 1260 0
-1083 -1091 1261 0
-1084 -1085 1256 0
-1084 -1086 1257 0
-1084 -1087 1258 0
-1084 -1088 1259 0
-1084 -1089 1260 0
-1084 -1090 1261 0
-1101 1262 0
-1102 1263 0
-1103 1264 0
-1104 1265 0
-1105 1266 0
-1106 1267 0
-1107 1268 0
-1108 1269 0
-1093 1262 0
-1094 1263 0
-1095 1264 0
-1096 1265 0
-1097 1266 0
-1098 1267 0
-1099 1268 0
-1100 1269 0
-1093 -1101 1263 0
-1093 -1102 1264 0
-1093 -1103 1265 0
-1093 -1104 1266 0
-1093 -1105 1267 0
-1093 -1106 1268 0
-1093 -1107 1269 0
-1093 -1108 1270 0
-1094 -1101 1264 0
-1094 -1102 1265 0
-1094 -1103 1266 0
-1094 -1104 1267 0
-1094 -1105 1268 0
-1094 -1106 1269 0
-1094 -1107 1270 0
-1094 -1108 1271 0
-1095 -1101 1265 0
-1095 -1102 1266 0
-1095 -1103 1267 0
-1095 -1104 1268 0
-1095 -1105 1269 0
-1095 -1106 1270 0
-1095 -1107 1271 0
-1095 -1108 1272 0
-1096 -1101 1266 0
-1096 -1102 1267 0
-1096 -1103 1268 0
-1096 -1104 1269 0
-1096 -1105 1270 0
-1096 -1106 1271 0
-1096 -1107 1272 0
-1096 -1108 1273 0
-1097 -1101 1267 0
-1097 -1102 1268 0
-1097 -1103 1269 0
-1097 -1104 1270 0
-1097 -1105 1271 0
-1097 -1106 1272 0
-1097 -1107 1273 0
-1097 -1108 1274 0
-1098 -1101 1268 0
-1098 -1102 1269 0
-1098 -1103 1270 0
-1098 -1104 1271 0
-1098 -1105 1272 0
-1098 -1106 1273 0
-1098 -1107 1274 0
-1098 -1108 1275 0
-1099 -1101 1269 0
-1099 -1102 1270 0
-1099 -1103 1271 0
-1099 -1104 1272 0
-1099 -1105 1273 0
-1099 -1106 1274 0
-1099 -1107 1275 0
-1100 -1101 1270 0
-1100 -1102 1271 0
-1100 -1103 1272 0
-1100 -1104 1273 0
-1100 -1105 1274 0
-1100 -1106 1275 0
-1117 1276 0
-1118 1277 0
-1119 1278 0
-1120 1279 0
-1121 1280 0
-1122 1281 0
-1123 1282 0
-1124 1283 0
-1109 1276 0
-1110 1277 0
-1111 1278 0
-1112 1279 0
-1113 1280 0
-1114 1281 0
-1115 1282 0
-1116 1283 0
-1109 -1117 1277 0
-1109 -1118 1278 0
-1109 -1119 1279 0
-1109 -1120 1280 0
-1109 -1121 1281 0
-1109 -1122 1282 0
-1109 -1123 1283 0
-1109 -1124 1284 0
-1110 -1117 1278 0
-1110 -1118 1279 0
-1110 -1119 1280 0
-1110 -1120 1281 0
-1110 -1121 1282 0
-1110 -1122 1283 0
-1110 -1123 1284 0
-1110 -1124 1285 0
-1111 -1117 1279 0
-1111 -1118 1280 0
-1111 -1119 1281 0
-1111 -1120 1282 0
-1111 -1121 1283 0
-1111 -1122 1284 0
-1111 -1123 1285 0
-1111 -1124 1286 0
-1112 -1117 1280 0
-1112 -1118 1281 0
-1112 -1119 1282 0
-1112 -1120 1283 0
-1112 -1121 1284 0
-1112 -1122 1285 0
-1112 -1123 1286 0
-1112 -1124 1287 0
-1113 -1117 1281 0
-1113 -1118 1282 0
-1113 -1119 1283 0
-1113 -1120 1284 0
-1113 -1121 1285 0
-1113 -1122 1286 0
-1113 -1123 1287 0
-1113 -1124 1288 0
-1114 -1117 1282 0
-1114 -1118 1283 0
-1114 -1119 1284 0
-1114 -1120 1285 0
-1114 -1121 1286 0
-1114 -1122 1287 0
-1114 -1123 1288 0
-1114 -1124 1289 0
-1115 -1117 1283 0
-1115 -1118 1284 0
-1115 -1119 1285 0
-1115 -1120 1286 0
-1115 -1121 1287 0
-1115 -1122 1288 0
-1115 -1123 1289 0
-1116 -1117 1284 0
-1116 -1118 1285 0
-1116 -1119 1286 0
-1116 -1120 1287 0
-1116 -1121 1288 0
-1116 -1122 1289 0
-1133 1290 0
-1134 1291 0
-1135 1292 0
-1136 1293 0
-1137 1294 0
-1138 1295 0
-1139 1296 0
-1140 1297 0
-1125 1290 0
-1126 1291 0
-1127 1292 0
-1128 1293 0
-1129 1294 0
-1130 1295 0
-1131 1296 0
-1132 1297 0
-1125 -1133 1291 0
-1125 -1134 1292 0
-1125 -1135 1293 0
-1125 -1136 1294 0
-1125 -1137 1295 0
-1125 -1138 1296 0
-1125 -1139 1297 0
-1125 -1140 1298 0
-1126 -1133 1292 0
-1126 -1134 1293 0
-1126 -1135 1294 0
-1126 -1136 1295 0
-1126 -1137 1296 0
-1126 -1138 1297 0
-1126 -1139 1298 0
-1126 -1140 1299 0
-1127 -1133 1293 0
-1127 -1134 1294 0
-1127 -1135 1295 0
-1127 -1136 1296 0
-1127 -1137 1297 0
-1127 -1138 1298 0
-1127 -1139 1299 0
-1127 -1140 1300 0
-1128 -1133 1294 0
-1128 -1134 1295 0
-1128 -1135 1296 0
-1128 -1136 1297 0
-1128 -1137 1298 0
-1128 -1138 1299 0
-1128 -1139 1300 0
-1128 -1140 1301 0
-1129 -1133 1295 0
-1129 -1134 1296 0
-1129 -1135 1297 0
-1129 -1136 1298 0
-1129 -1137 1299 0
-1129 -1138 1300 0
-1129 -1139 1301 0
-1129 -1140 1302 0
-1130 -1133 1296 0
-1130 -1134 1297 0
-1130 -1135 1298 0
-1130 -1136 1299 0
-1130 -1137 1300 0
-1130 -1138 1301 0
-1130 -1139 1302 0
-1130 -1140 1303 0
-1131 -1133 1297 0
-1131 -1134 1298 0
-1131 -1135 1299 0
-1131 -1136 1300 0
-1131 -1137 1301 0
-1131 -1138 1302 0
-1131 -1139 1303 0
-1132 -1133 1298 0
-1132 -1134 1299 0
-1132 -1135 1300 0
-1132 -1136 1301 0
-1132 -1137 1302 0
-1132 -1138 1303 0
-1149 1304 0
-1150 1305 0
-1151 1306 0
-1152 1307 0
-1153 1308 0
-1154 1309 0
-1155 1310 0
-1156 1311 0
-1141 1304 0
-1142 1305 0
-1143 1306 0
-1144 1307 0
-1145 1308 0
-1146 1309 0
-1147 1310 0
-1148 1311 0
-1141 -1149 1305 0
-1141 -1150 1306 0
-1141 -1151 1307 0
-1141 -1152 1308 0
-1141 -1153 1309 0
-1141 -1154 1310 0
-1141 -1155 1311 0
-1141 -1156 1312 0
-1142 -1149 1306 0
-1142 -1150 1307 0
-1142 -1151 1308 0
-1142 -1152 1309 0
-1142 -1153 1310 0
-1142 -1154 1311 0
-1142 -1155 1312 0
-1142 -1156 1313 0
-1143 -1149 1307 0
-1143 -1150 1308 0
-1143 -1151 1309 0
-1143 -1152 1310 0
-1143 -1153 1311 0
-1143 -1154 1312 0
-1143 -1155 1313 0
-1143 -1156 1314 0
-1144 -1149 1308 0
-1144 -1150 1309 0
-1144 -1151 1310 0
-1144 -1152 1311 0
-1144 -1153 1312 0
-1144 -1154 1313 0
-1144 -1155 1314 0
-1144 -1156 1315 0
-1145 -1149 1309 0
-1145 -1150 1310 0
-1145 -1151 1311 0
-1145 -1152 1312 0
-1145 -1153 1313 0
-1145 -1154 1314 0
-1145 -1155 1315 0
-1145 -1156 1316 0
-1146 -1149 1310 0
-1146 -1150 1311 0
-1146 -1151 1312 0
-1146 -1152 1313 0
-1146 -1153 1314 0
-1146 -1154 1315 0
-1146 -1155 1316 0
-1146 -1156 1317 0
-1147 -1149 1311 0
-1147 -1150 1312 0
-1147 -1151 1313 0
-1147 -1152 1314 0
-1147 -1153 1315 0
-1147 -1154 1316 0
-1147 -1155 1317 0
-1148 -1149 1312 0
-1148 -1150 1313 0
-1148 -1151 1314 0
-1148 -1152 1315 0
-1148 -1153 1316 0
-1148 -1154 1317 0
-1165 1318 0
-1166 1319 0
-1167 1320 0
-1168 1321 0
-1169 1322 0
-1170 1323 0
-1171 1324 0
-1172 1325 0
-1157 1318 0
-1158 1319 0
-1159 1320 0
-1160 1321 0
-1161 1322 0
-1162 1323 0
-1163 1324 0
-1164 1325 0
-1157 -1165 1319 0
-1157 -1166 1320 0
-1157 -1167 1321 0
-1157 -1168 1322 0
-1157 -1169 1323 0
-1157 -1170 1324 0
-1157 -1171 1325 0
-1157 -1172 1326 0
-1158 -1165 1320 0
-1158 -1166 1321 0
-1158 -1167 1322 0
-1158 -1168 1323 0
-1158 -1169 1324 0
-1158 -1170 1325 0
-1158 -1171 1326 0
-1158 -1172 1327 0
-1159 -1165 1321 0
-1159 -1166 1322 0
-1159 -1167 1323 0
-1159 -1168 1324 0
-1159 -1169 1325 0
-1159 -1170 1326 0
-1159 -1171 1327 0
-1159 -1172 1328 0
-1160 -1165 1322 0
-1160 -1166 1323 0
-1160 -1167 1324 0
-1160 -1168 1325 0
-1160 -1169 1326 0
-1160 -1170 1327 0
-1160 -1171 1328 0
-1160 -1172 1329 0
-1161 -1165 1323 0
-1161 -1166 1324 0
-1161 -1167 1325 0
-1161 -1168 1326 0
-1161 -1169 1327 0
-1161 -1170 1328 0
-1161 -1171 1329 0
-1161 -1172 1330 0
-1162 -1165 1324 0
-1162 -1166 1325 0
-1162 -1167 1326 0
-1162 -1168 1327 0
-1162 -1169 1328 0
-1162 -1170 1329 0
-1162 -1171 1330 0
-1162 -1172 1331 0
-1163 -1165 1325 0
-1163 -1166 1326 0
-1163 -1167 1327 0
-1163 -1168 1328 0
-1163 -1169 1329 0
-1163 -1170 1330 0
-1163 -1171 1331 0
-1164 -1165 1326 0
-1164 -1166 1327 0
-1164 -1167 1328 0
-1164 -1168 1329 0
-1164 -1169 1330 0
-1164 -1170 1331 0
-1181 1332 0
-1182 1333 0
-1183 1334 0
-1184 1335 0
-1185 1336 0
-1186 1337 0
-1187 1338 0
-1188 1339 0
-1173 1332 0
-1174 1333 0
-1175 1334 0
-1176 1335 0
-1177 1336 0
-1178 1337 0
-1179 1338 0
-1180 1339 0
-1173 -1181 1333 0
-1173 -1182 1334 0
-1173 -1183 1335 0
-1173 -1184 1336 0
-1173 -1185 1337 0
-1173 -1186 1338 0
-1173 -1187 1339 0
-1173 -1188 1340 0
-1174 -1181 1334 0
-1174 -1182 1335 0
-1174 -1183 1336 0
-1174 -1184 1337 0
-1174 -1185 1338 0
-1174 -1186 1339 0
-1174 -1187 1340 0
-1174 -1188 1341 0
-1175 -1181 1335 0
-1175 -1182 1336 0
-1175 -1183 1337 0
-1175 -1184 1338 0
-1175 -1185 1339 0
-1175 -1186 1340 0
-1175 -1187 1341 0
-1175 -1188 1342 0
-1176 -1181 1336 0
-1176 -1182 1337 0
-1176 -1183 1338 0
-1176 -1184 1339 0
-1176 -1185 1340 0
-1176 -1186 1341 0
-1176 -1187 1342 0
-1176 -1188 1343 0
-1177 -1181 1337 0
-1177 -1182 1338 0
-1177 -1183 1339 0
-1177 -1184 1340 0
-1177 -1185 1341 0
-1177 -1186 1342 0
-1177 -1187 1343 0
-1177 -1188 1344 0
-1178 -1181 1338 0
-1178 -1182 1339 0
-1178 -1183 1340 0
-1178 -1184 1341 0
-1178 -1185 1342 0
-1178 -1186 1343 0
-1178 -1187 1344 0
-1178 -1188 1345 0
-1179 -1181 1339 0
-1179 -1182 1340 0
-1179 -1183 1341 0
-1179 -1184 1342 0
-1179 -1185 1343 0
-1179 -1186 1344 0
-1179 -1187 1345 0
-1180 -1181 1340 0
-1180 -1182 1341 0
-1180 -1183 1342 0
-1180 -1184 1343 0
-1180 -1185 1344 0
-1180 -1186 1345 0
-1197 1346 0
-1198 1347 0
-1199 1348 0
-1200 1349 0
-1201 1350 0
-1202 1351 0
-1203 1352 0
-1204 1353 0
-1205 1354 0
-1189 1346 0
-1190 1347 0
-1191 1348 0
-1192 1349 0
-1193 1350 0
-1194 1351 0
-1195 1352 0
-1196 1353 0
-1189 -1197 1347 0
-1189 -1198 1348 0
-1189 -1199 1349 0
-1189 -1200 1350 0
-1189 -1201 1351 0
-1189 -1202 1352 0
-1189 -1203 1353 0
-1189 -1204 1354 0
-1189 -1205 1355 0
-1190 -1197 1348 0
-1190 -1198 1349 0
-1190 -1199 1350 0
-1190 -1200 1351 0
-1190 -1201 1352 0
-1190 -1202 1353 0
-1190 -1203 1354 0
-1190 -1204 1355 0
-1190 -1205 1356 0
-1191 -1197 1349 0
-1191 -1198 1350 0
-1191 -1199 1351 0
-1191 -1200 1352 0
-1191 -1201 1353 0
-1191 -1202 1354 0
-1191 -1203 1355 0
-1191 -1204 1356 0
-1191 -1205 1357 0
-1192 -1197 1350 0
-1192 -1198 1351 0
-1192 -1199 1352 0
-1192 -1200 1353 0
-1192 -1201 1354 0
-1192 -1202 1355 0
-1192 -1203 1356 0
-1192 -1204 1357 0
-1192 -1205 1358 0
-1193 -1197 1351 0
-1193 -1198 1352 0
-1193 -1199 1353 0
-1193 -1200 1354 0
-1193 -1201 1355 0
-1193 -1202 1356 0
-1193 -1203 1357 0
-1193 -1204 1358 0
-1193 -1205 1359 0
-1194 -1197 1352 0
-1194 -1198 1353 0
-1194 -1199 1354 0
-1194 -1200 1355 0
-1194 -1201 1356 0
-1194 -1202 1357 0
-1194 -1203 1358 0
-1194 -1204 1359 0
-1195 -1197 1353 0
-1195 -1198 1354 0
-1195 -1199 1355 0
-1195 -1200 1356 0
-1195 -1201 1357 0
-1195 -1202 1358 0
-1195 -1203 1359 0
-1196 -1197 1354 0
-1196 -1198 1355 0
-1196 -1199 1356 0
-1196 -1200 1357 0
-1196 -1201 1358 0
-1196 -1202 1359 0
-1220 1360 0
-1221 1361 0
-1222 1362 0
-1223 1363 0
-1224 1364 0
-1225 1365 0
-1226 1366 0
-1227 1367 0
-1228 1368 0
-1229 1369 0
-1230 1370 0
-1231 1371 0
-1232 1372 0
-1233 1373 0
-1206 1360 0
-1207 1361 0
-1208 1362 0
-1209 1363 0
-1210 1364 0
-1211 1365 0
-1212 1366 0
-1213 1367 0
-1214 1368 0
-1215 1369 0
-1216 1370 0
-1217 1371 0
-1218 1372 0
-1219 1373 0
-1206 -1220 1361 0
-1206 -1221 1362 0
-1206 -1222 1363 0
-1206 -1223 1364 0
-1206 -1224 1365 0
-1206 -1225 1366 0
-1206 -1226 1367 0
-1206 -1227 1368 0
-1206 -1228 1369 0
-1206 -1229 1370 0
-1206 -1230 1371 0
-1206 -1231 1372 0
-1206 -1232 1373 0
-1207 -1220 1362 0
-1207 -1221 1363 0
-1207 -1222 1364 0
-1207 -1223 1365 0
-1207 -1224 1366 0
-1207 -1225 1367 0
-1207 -1226 1368 0
-1207 -1227 1369 0
-1207 -1228 1370 0
-1207 -1229 1371 0
-1207 -1230 1372 0
-1207 -1231 1373 0
-1208 -1220 1363 0
-1208 -1221 1364 0
-1208 -1222 1365 0
-1208 -1223 1366 0
-1208 -1224 1367 0
-1208 -1225 1368 0
-1208 -1226 1369 0
-1208 -1227 1370 0
-1208 -1228 1371 0
-1208 -1229 1372 0
-1208 -1230 1373 0
-1209 -1220 1364 0
-1209 -1221 1365 0
-1209 -1222 1366 0
-1209 -1223 1367 0
-1209 -1224 1368 0
-1209 -1225 1369 0
-1209 -1226 1370 0
-1209 -1227 1371 0
-1209 -1228 1372 0
-1209 -1229 1373 0
-1210 -1220 1365 0
-1210 -1221 1366 0
-1210 -1222 1367 0
-1210 -1223 1368 0
-1210 -1224 1369 0
-1210 -1225 1370 0
-1210 -1226 1371 0
-1210 -1227 1372 0
-1210 -1228 1373 0
-1211 -1220 1366 0
-1211 -1221 1367 0
-1211 -1222 1368 0
-1211 -1223 1369 0
-1211 -1224 1370 0
-1211 -1225 1371 0
-1211 -1226 1372 0
-1211 -1227 1373 0
-1212 -1220 1367 0
-1212 -1221 1368 0
-1212 -1222 1369 0
-1212 -1223 1370 0
-1212 -1224 1371 0
-1212 -1225 1372 0
-1212 -1226 1373 0
-1213 -1220 1368 0
-1213 -1221 1369 0
-1213 -1222 1370 0
-1213 -1223 1371 0
-1213 -1224 1372 0
-1213 -1225 1373 0
-1214 -1220 1369 0
-1214 -1221 1370 0
-1214 -1222 1371 0
-1214 -1223 1372 0
-1214 -1224 1373 0
-1215 -1220 1370 0
-1215 -1221 1371 0
-1215 -1222 1372 0
-1215 -1223 1373 0
-1216 -1220 1371 0
-1216 -1221 1372 0
-1216 -1222 1373 0
-1217 -1220 1372 0
-1217 -1221 1373 0
-1218 -1220 1373 0
-1248 1374 0
-1249 1375 0
-1250 1376 0
-1251 1377 0
-1252 1378 0
-1253 1379 0
-1254 1380 0
-1255 1381 0
-1256 1382 0
-1257 1383 0
-1258 1384 0
-1259 1385 0
-1260 1386 0
-1261 1387 0
-1234 1374 0
-1235 1375 0
-1236 1376 0
-1237 1377 0
-1238 1378 0
-1239 1379 0
-1240 1380 0
-1241 1381 0
-1242 1382 0
-1243 1383 0
-1244 1384 0
-1245 1385 0
-1246 1386 0
-1247 1387 0
-1234 -1248 1375 0
-1234 -1249 1376 0
-1234 -1250 1377 0
-1234 -1251 1378 0
-1234 -1252 1379 0
-1234 -1253 1380 0
-1234 -1254 1381 0
-1234 -1255 1382 0
-1234 -1256 1383 0
-1234 -1257 1384 0
-1234 -1258 1385 0
-1234 -1259 1386 0
-1234 -1260 1387 0
-1235 -1248 1376 0
-1235 -1249 1377 0
-1235 -1250 1378 0
-1235 -1251 1379 0
-1235 -1252 1380 0
-1235 -1253 1381 0
-1235 -1254 1382 0
-1235 -1255 1383 0
-1235 -1256 1384 0
-1235 -1257 1385 0
-1235 -1258 1386 0
-1235 -1259 1387 0
-1236 -1248 1377 0
-1236 -1249 1378 0
-1236 -1250 1379 0
-1236 -1251 1380 0
-1236 -1252 1381 0
-1236 -1253 1382 0
-1236 -1254 1383 0
-1236 -1255 1384 0
-1236 -1256 1385 0
-1236 -1257 1386 0
-1236 -1258 1387 0
-1237 -1248 1378 0
-1237 -1249 1379 0
-1237 -1250 1380 0
-1237 -1251 1381 0
-1237 -1252 1382 0
-1237 -1253 1383 0
-1237 -1254 1384 0
-1237 -1255 1385 0
-1237 -1256 1386 0
-1237 -1257 1387 0
-1238 -1248 1379 0
-1238 -1249 1380 0
-1238 -1250 1381 0
-1238 -1251 1382 0
-1238 -1252 1383 0
-1238 -1253 1384 0
-1238 -1254 1385 0
-1238 -1255 1386 0
-1238 -1256 1387 0
-1239 -1248 1380 0
-1239 -1249 1381 0
-1239 -1250 1382 0
-1239 -1251 1383 0
-1239 -1252 1384 0
-1239 -1253 1385 0
-1239 -1254 1386 0
-1239 -1255 1387 0
-1240 -1248 1381 0
-1240 -1249 1382 0
-1240 -1250 1383 0
-1240 -1251 1384 0
-1240 -1252 1385 0
-1240 -1253 1386 0
-1240 -1254 1387 0
-1241 -1248 1382 0
-1241 -1249 1383 0
-1241 -1250 1384 0
-1241 -1251 1385 0
-1241 -1252 1386 0
-1241 -1253 1387 0
-1242 -1248 1383 0
-1242 -1249 1384 0
-1242 -1250 1385 0
-1242 -1251 1386 0
-1242 -1252 1387 0
-1243 -1248 1384 0
-1243 -1249 1385 0
-1243 -1250 1386 0
-1243 -1251 1387 0
-1244 -1248 1385 0
-1244 -1249 1386 0
-1244 -1250 1387 0
-1245 -1248 1386 0
-1245 -1249 1387 0
-1246 -1248 1387 0
-1276 1388 0
-1277 1389 0
-1278 1390 0
-1279 1391 0
-1280 1392 0
-1281 1393 0
-1282 1394 0
-1283 1395 0
-1284 1396 0
-1285 1397 0
-1286 1398 0
-1287 1399 0
-1288 1400 0
-1289 1401 0
-1262 1388 0
-1263 1389 0
-1264 1390 0
-1265 1391 0
-1266 1392 0
-1267 1393 0
-1268 1394 0
-1269 1395 0
-1270 1396 0
-1271 1397 0
-1272 1398 0
-1273 1399 0
-1274 1400 0
-1275 1401 0
-1262 -1276 1389 0
-1262 -1277 1390 0
-1262 -1278 1391 0
-1262 -1279 1392 0
-1262 -1280 1393 0
-1262 -1281 1394 0
-1262 -1282 1395 0
-1262 -1283 1396 0
-1262 -1284 1397 0
-1262 -1285 1398 0
-1262 -1286 1399 0
-1262 -1287 1400 0
-1262 -1288 1401 0
-1263 -1276 1390 0
-1263 -1277 1391 0
-1263 -1278 1392 0
-1263 -1279 1393 0
-1263 -1280 1394 0
-1263 -1281 1395 0
-1263 -1282 1396 0
-1263 -1283 1397 0
-1263 -1284 1398 0
-1263 -1285 1399 0
-1263 -1286 1400 0
-1263 -1287 1401 0
-1264 -1276 1391 0
-1264 -1277 1392 0
-1264 -1278 1393 0
-1264 -1279 1394 0
-1264 -1280 1395 0
-1264 -1281 1396 0
-1264 -1282 1397 0
-1264 -1283 1398 0
-1264 -1284 1399 0
-1264 -1285 1400 0
-1264 -1286 1401 0
-1265 -1276 1392 0
-1265 -1277 1393 0
-1265 -1278 1394 0
-1265 -1279 1395 0
-1265 -1280 1396 0
-1265 -1281 1397 0
-1265 -1282 1398 0
-1265 -1283 1399 0
-1265 -1284 1400 0
-1265 -1285 1401 0
-1266 -1276 1393 0
-1266 -1277 1394 0
-1266 -1278 1395 0
-1266 -1279 1396 0
-1266 -1280 1397 0
-1266 -1281 1398 0
-1266 -1282 1399 0
-1266 -1283 1400 0
-1266 -1284 1401 0
-1267 -1276 1394 0
-1267 -1277 1395 0
-1267 -1278 1396 0
-1267 -1279 1397 0
-1267 -1280 1398 0
-1267 -1281 1399 0
-1267 -1282 1400 0
-1267 -1283 1401 0
-1268 -1276 1395 0
-1268 -1277 1396 0
-1268 -1278 1397 0
-1268 -1279 1398 0
-1268 -1280 1399 0
-1268 -1281 1400 0
-1268 -1282 1401 0
-1269 -1276 1396 0
-1269 -1277 1397 0
-1269 -1278 1398 0
-1269 -1279 1399 0
-1269 -1280 1400 0
-1269 -1281 1401 0
-1270 -1276 1397 0
-1270 -1277 1398 0
-1270 -1278 1399 0
-1270 -1279 1400 0
-1270 -1280 1401 0
-1271 -1276 1398 0
-1271 -1277 1399 0
-1271 -1278 1400 0
-1271 -1279 1401 0
-1272 -1276 1399 0
-1272 -1277 1400 0
-1272 -1278 1401 0
-1273 -1276 1400 0
-1273 -1277 1401 0
-1274 -1276 1401 0
-1304 1402 0
-1305 1403 0
-1306 1404 0
-1307 1405 0
-1308 1406 0
-1309 1407 0
-1310 1408 0
-1311 1409 0
-1312 1410 0
-1313 1411 0
-1314 1412 0
-1315 1413 0
-1316 1414 0
-1317 1415 0
-1290 1402 0
-1291 1403 0
-1292 1404 0
-1293 1405 0
-1294 1406 0
-1295 1407 0
-1296 1408 0
-1297 1409 0
-1298 1410 0
-1299 1411 0
-1300 1412 0
-1301 1413 0
-1302 1414 0
-1303 1415 0
-1290 -1304 1403 0
-1290 -1305 1404 0
-1290 -1306 1405 0
-1290 -1307 1406 0
-1290 -1308 1407 0
-1290 -1309 1408 0
-1290 -1310 1409 0
-1290 -1311 1410 0
-1290 -1312 1411 0
-1290 -1313 1412 0
-1290 -1314 1413 0
-1290 -1315 1414 0
-1290 -1316 1415 0
-1291 -1304 1404 0
-1291 -1305 1405 0
-1291 -1306 1406 0
-1291 -1307 1407 0
-1291 -1308 1408 0
-1291 -1309 1409 0
-1291 -1310 1410 0
-1291 -1311 1411 0
-1291 -1312 1412 0
-1291 -1313 1413 0
-1291 -1314 1414 0
-1291 -1315 1415 0
-1292 -1304 1405 0
-1292 -1305 1406 0
-1292 -1306 1407 0
-1292 -1307 1408 0
-1292 -1308 1409 0
-1292 -1309 1410 0
-1292 -1310 1411 0
-1292 -1311 1412 0
-1292 -1312 1413 0
-1292 -1313 1414 0
-1292 -1314 1415 0
-1293 -1304 1406 0
-1293 -1305 1407 0
-1293 -1306 1408 0
-1293 -1307 1409 0
-1293 -1308 1410 0
-1293 -1309 1411 0
-1293 -1310 1412 0
-1293 -1311 1413 0
-1293 -1312 1414 0
-1293 -1313 1415 0
-1294 -1304 1407 0
-1294 -1305 1408 0
-1294 -1306 1409 0
-1294 -1307 1410 0
-1294 -1308 1411 0
-1294 -1309 1412 0
-1294 -1310 1413 0
-1294 -1311 1414 0
-1294 -1312 1415 0
-1295 -1304 1408 0
-1295 -1305 1409 0
-1295 -1306 1410 0
-1295 -1307 1411 0
-1295 -1308 1412 0
-1295 -1309 1413 0
-1295 -1310 1414 0
-1295 -1311 1415 0
-1296 -1304 1409 0
-1296 -1305 1410 0
-1296 -1306 1411 0
-1296 -1307 1412 0
-1296 -1308 1413 0
-1296 -1309 1414 0
-1296 -1310 1415 0
-1297 -1304 1410 0
-1297 -1305 1411 0
-1297 -1306 1412 0
-1297 -1307 1413 0
-1297 -1308 1414 0
-1297 -1309 1415 0
-1298 -1304 1411 0
-1298 -1305 1412 0
-1298 -1306 1413 0
-1298 -1307 1414 0
-1298 -1308 1415 0
-1299 -1304 1412 0
-1299 -1305 1413 0
-1299 -1306 1414 0
-1299 -1307 1415 0
-1300 -1304 1413 0
-1300 -1305 1414 0
-1300 -1306 1415 0
-1301 -1304 1414 0
-1301 -1305 1415 0
-1302 -1304 1415 0
-1332 1416 0
-1333 1417 0
-1334 1418 0
-1335 1419 0
-1336 1420 0
-1337 1421 0
-1338 1422 0
-1339 1423 0
-1340 1424 0
-1341 1425 0
-1342 1426 0
-1343 1427 0
-1344 1428 0
-1345 1429 0
-1318 1416 0
-1319 1417 0
-1320 1418 0
-1321 1419 0
-1322 1420 0
-1323 1421 0
-1324 1422 0
-1325 1423 0
-1326 1424 0
-1327 1425 0
-1328 1426 0
-1329 1427 0
-1330 1428 0
-1331 1429 0
-1318 -1332 1417 0
-1318 -1333 1418 0
-1318 -1334 1419 0
-1318 -1335 1420 0
-1318 -1336 1421 0
-1318 -1337 1422 0
-1318 -1338 1423 0
-1318 -1339 1424 0
-1318 -1340 1425 0
-1318 -1341 1426 0
-1318 -1342 1427 0
-1318 -1343 1428 0
-1318 -1344 1429 0
-1319 -1332 1418 0
-1319 -1333 1419 0
-1319 -1334 1420 0
-1319 -1335 1421 0
-1319 -1336 1422 0
-1319 -1337 1423 0
-1319 -1338 1424 0
-1319 -1339 1425 0
-1319 -1340 1426 0
-1319 -1341 1427 0
-1319 -1342 1428 0
-1319 -1343 1429 0
-1320 -1332 1419 0
-1320 -1333 1420 0
-1320 -1334 1421 0
-1320 -1335 1422 0
-1320 -1336 1423 0
-1320 -1337 1424 0
-1320 -1338 1425 0
-1320 -1339 1426 0
-1320 -1340 1427 0
-1320 -1341 1428 0
-1320 -1342 1429 0
-1321 -1332 1420 0
-1321 -1333 1421 0
-1321 -1334 1422 0
-1321 -1335 1423 0
-1321 -1336 1424 0
-1321 -1337 1425 0
-1321 -1338 1426 0
-1321 -1339 1427 0
-1321 -1340 1428 0
-1321 -1341 1429 0
-1322 -1332 1421 0
-1322 -1333 1422 0
-1322 -1334 1423 0
-1322 -1335 1424 0
-1322 -1336 1425 0
-1322 -1337 1426 0
-1322 -1338 1427 0
-1322 -1339 1428 0
-1322 -1340 1429 0
-1323 -1332 1422 0
-1323 -1333 1423 0
-1323 -1334 1424 0
-1323 -1335 1425 0
-1323 -1336 1426 0
-1323 -1337 1427 0
-1323 -1338 1428 0
-1323 -1339 1429 0
-1324 -1332 1423 0
-1324 -1333 1424 0
-1324 -1334 1425 0
-1324 -1335 1426 0
-1324 -1336 1427 0
-1324 -1337 1428 0
-1324 -1338 1429 0
-1325 -1332 1424 0
-1325 -1333 1425 0
-1325 -1334 1426 0
-1325 -1335 1427 0
-1325 -1336 1428 0
-1325 -1337 1429 0
-1326 -1332 1425 0
-1326 -1333 1426 0
-1326 -1334 1427 0
-1326 -1335 1428 0
-1326 -1336 1429 0
-1327 -1332 1426 0
-1327 -1333 1427 0
-1327 -1334 1428 0
-1327 -1335 1429 0
-1328 -1332 1427 0
-1328 -1333 1428 0
-1328 -1334 1429 0
-1329 -1332 1428 0
-1329 -1333 1429 0
-1330 -1332 1429 0
-1360 1430 0
-1361 1431 0
-1362 1432 0
-1363 1433 0
-1364 1434 0
-1365 1435 0
-1366 1436 0
-1367 1437 0
-1368 1438 0
-1369 1439 0
-1370 1440 0
-1371 1441 0
-1372 1442 0
-1373 1443 0
-1346 1430 0
-1347 1431 0
-1348 1432 0
-1349 1433 0
-1350 1434 0
-1351 1435 0
-1352 1436 0
-1353 1437 0
-1354 1438 0
-1355 1439 0
-1356 1440 0
-1357 1441 0
-1358 1442 0
-1359 1443 0
-1346 -1360 1431 0
-1346 -1361 1432 0
-1346 -1362 1433 0
-1346 -1363 1434 0
-1346 -1364 1435 0
-1346 -1365 1436 0
-1346 -1366 1437 0
-1346 -1367 1438 0
-1346 -1368 1439 0
-1346 -1369 1440 0
-1346 -1370 1441 0
-1346 -1371 1442 0
-1346 -1372 1443 0
-1347 -1360 1432 0
-1347 -1361 1433 0
-1347 -1362 1434 0
-1347 -1363 1435 0
-1347 -1364 1436 0
-1347 -1365 1437 0
-1347 -1366 1438 0
-1347 -1367 1439 0
-1347 -1368 1440 0
-1347 -1369 1441 0
-1347 -1370 1442 0
-1347 -1371 1443 0
-1348 -1360 1433 0
-1348 -1361 1434 0
-1348 -1362 1435 0
-1348 -1363 1436 0
-1348 -1364 1437 0
-1348 -1365 1438 0
-1348 -1366 1439 0
-1348 -1367 1440 0
-1348 -1368 1441 0
-1348 -1369 1442 0
-1348 -1370 1443 0
-1349 -1360 1434 0
-1349 -1361 1435 0
-1349 -1362 1436 0
-1349 -1363 1437 0
-1349 -1364 1438 0
-1349 -1365 1439 0
-1349 -1366 1440 0
-1349 -1367 1441 0
-1349 -1368 1442 0
-1349 -1369 1443 0
-1350 -1360 1435 0
-1350 -1361 1436 0
-1350 -1362 1437 0
-1350 -1363 1438 0
-1350 -1364 1439 0
-1350 -1365 1440 0
-1350 -1366 1441 0
-1350 -1367 1442 0
-1350 -1368 1443 0
-1351 -1360 1436 0
-1351 -1361 1437 0
-1351 -1362 1438 0
-1351 -1363 1439 0
-1351 -1364 1440 0
-1351 -1365 1441 0
-1351 -1366 1442 0
-1351 -1367 1443 0
-1352 -1360 1437 0
-1352 -1361 1438 0
-1352 -1362 1439 0
-1352 -1363 1440 0
-1352 -1364 1441 0
-1352 -1365 1442 0
-1352 -1366 1443 0
-1353 -1360 1438 0
-1353 -1361 1439 0
-1353 -1362 1440 0
-1353 -1363 1441 0
-1353 -1364 1442 0
-1353 -1365 1443 0
-1354 -1360 1439 0
-1354 -1361 1440 0
-1354 -1362 1441 0
-1354 -1363 1442 0
-1354 -1364 1443 0
-1355 -1360 1440 0
-1355 -1361 1441 0
-1355 -1362 1442 0
-1355 -1363 1443 0
-1356 -1360 1441 0
-1356 -1361 1442 0
-1356 -1362 1443 0
-1357 -1360 1442 0
-1357 -1361 1443 0
-1358 -1360 1443 0
-1388 1444 0
-1389 1445 0
-1390 1446 0
-1391 1447 0
-1392 1448 0
-1393 1449 0
-1394 1450 0
-1395 1451 0
-1396 1452 0
-1397 1453 0
-1398 1454 0
-1399 1455 0
-1400 1456 0
-1401 1457 0
-1374 1444 0
-1375 1445 0
-1376 1446 0
-1377 1447 0
-1378 1448 0
-1379 1449 0
-1380 1450 0
-1381 1451 0
-1382 1452 0
-1383 1453 0
-1384 1454 0
-1385 1455 0
-1386 1456 0
-1387 1457 0
-1374 -1388 1445 0
-1374 -1389 1446 0
-1374 -1390 1447 0
-1374 -1391 1448 0
-1374 -1392 1449 0
-1374 -1393 1450 0
-1374 -1394 1451 0
-1374 -1395 1452 0
-1374 -1396 1453 0
-1374 -1397 1454 0
-1374 -1398 1455 0
-1374 -1399 1456 0
-1374 -1400 1457 0
-1375 -1388 1446 0
-1375 -1389 1447 0
-1375 -1390 1448 0
-1375 -1391 1449 0
-1375 -1392 1450 0
-1375 -1393 1451 0
-1375 -1394 1452 0
-1375 -1395 1453 0
-1375 -1396 1454 0
-1375 -1397 1455 0
-1375 -1398 1456 0
-1375 -1399 1457 0
-1376 -1388 1447 0
-1376 -1389 1448 0
-1376 -1390 1449 0
-1376 -1391 1450 0
-1376 -1392 1451 0
-1376 -1393 1452 0
-1376 -1394 1453 0
-1376 -1395 1454 0
-1376 -1396 1455 0
-1376 -1397 1456 0
-1376 -1398 1457 0
-1377 -1388 1448 0
-1377 -1389 1449 0
-1377 -1390 1450 0
-1377 -1391 1451 0
-1377 -1392 1452 0
-1377 -1393 1453 0
-1377 -1394 1454 0
-1377 -1395 1455 0
-1377 -1396 1456 0
-1377 -1397 1457 0
-1378 -1388 1449 0
-1378 -1389 1450 0
-1378 -1390 1451 0
-1378 -1391 1452 0
-1378 -1392 1453 0
-1378 -1393 1454 0
-1378 -1394 1455 0
-1378 -1395 1456 0
-1378 -1396 1457 0
-1379 -1388 1450 0
-1379 -1389 1451 0
-1379 -1390 1452 0
-1379 -1391 1453 0
-1379 -1392 1454 0
-1379 -1393 1455 0
-1379 -1394 1456 0
-1379 -1395 1457 0
-1380 -1388 1451 0
-1380 -1389 1452 0
-1380 -1390 1453 0
-1380 -1391 1454 0
-1380 -1392 1455 0
-1380 -1393 1456 0
-1380 -1394 1457 0
-1381 -1388 1452 0
-1381 -1389 1453 0
-1381 -1390 1454 0
-1381 -1391 1455 0
-1381 -1392 1456 0
-1381 -1393 1457 0
-1382 -1388 1453 0
-1382 -1389 1454 0
-1382 -1390 1455 0
-1382 -1391 1456 0
-1382 -1392 1457 0
-1383 -1388 1454 0
-1383 -1389 1455 0
-1383 -1390 1456 0
-1383 -1391 1457 0
-1384 -1388 1455 0
-1384 -1389 1456 0
-1384 -1390 1457 0
-1385 -1388 1456 0
-1385 -1389 1457 0
-1386 -1388 1457 0
-1416 1458 0
-1417 1459 0
-1418 1460 0
-1419 1461 0
-1420 1462 0
-1421 1463 0
-1422 1464 0
-1423 1465 0
-1424 1466 0
-1425 1467 0
-1426 1468 0
-1427 1469 0
-1428 1470 0
-1429 1471 0
-1402 1458 0
-1403 1459 0
-1404 1460 0
-1405 1461 0
-1406 1462 0
-1407 1463 0
-1408 1464 0
-1409 1465 0
-1410 1466 0
-1411 1467 0
-1412 1468 0
-1413 1469 0
-1414 1470 0
-1415 1471 0
-1402 -1416 1459 0
-1402 -1417 1460 0
-1402 -1418 1461 0
-1402 -1419 1462 0
-1402 -1420 1463 0
-1402 -1421 1464 0
-1402 -1422 1465 0
-1402 -1423 1466 0
-1402 -1424 1467 0
-1402 -1425 1468 0
-1402 -1426 1469 0
-1402 -1427 1470 0
-1402 -1428 1471 0
-1403 -1416 1460 0
-1403 -1417 1461 0
-1403 -1418 1462 0
-1403 -1419 1463 0
-1403 -1420 1464 0
-1403 -1421 1465 0
-1403 -1422 1466 0
-1403 -1423 1467 0
-1403 -1424 1468 0
-1403 -1425 1469 0
-1403 -1426 1470 0
-1403 -1427 1471 0
-1404 -1416 1461 0
-1404 -1417 1462 0
-1404 -1418 1463 0
-1404 -1419 1464 0
-1404 -1420 1465 0
-1404 -1421 1466 0
-1404 -1422 1467 0
-1404 -1423 1468 0
-1404 -1424 1469 0
-1404 -1425 1470 0
-1404 -1426 1471 0
-1405 -1416 1462 0
-1405 -1417 1463 0
-1405 -1418 1464 0
-1405 -1419 1465 0
-1405 -1420 1466 0
-1405 -1421 1467 0
-1405 -1422 1468 0
-1405 -1423 1469 0
-1405 -1424 1470 0
-1405 -1425 1471 0
-1406 -1416 1463 0
-1406 -1417 1464 0
-1406 -1418 1465 0
-1406 -1419 1466 0
-1406 -1420 1467 0
-1406 -1421 1468 0
-1406 -1422 1469 0
-1406 -1423 1470 0
-1406 -1424 1471 0
-1407 -1416 1464 0
-1407 -1417 1465 0
-1407 -1418 1466 0
-1407 -1419 1467 0
-1407 -1420 1468 0
-1407 -1421 1469 0
-1407 -1422 1470 0
-1407 -1423 1471 0
-1408 -1416 1465 0
-1408 -1417 1466 0
-1408 -1418 1467 0
-1408 -1419 1468 0
-1408 -1420 1469 0
-1408 -1421 1470 0
-1408 -1422 1471 0
-1409 -1416 1466 0
-1409 -1417 1467 0
-1409 -1418 1468 0
-1409 -1419 1469 0
-1409 -1420 1470 0
-1409 -1421 1471 0
-1410 -1416 1467 0
-1410 -1417 1468 0
-1410 -1418 1469 0
-1410 -1419 1470 0
-1410 -1420 1471 0
-1411 -1416 1468 0
-1411 -1417 1469 0
-1411 -1418 1470 0
-1411 -1419 1471 0
-1412 -1416 1469 0
-1412 -1417 1470 0
-1412 -1418 1471 0
-1413 -1416 1470 0
-1413 -1417 1471 0
-1414 -1416 1471 0
-1444 1472 0
-1445 1473 0
-1446 1474 0
-1447 1475 0
-1448 1476 0
-1449 1477 0
-1450 1478 0
-1451 1479 0
-1452 1480 0
-1453 1481 0
-1454 1482 0
-1455 1483 0
-1456 1484 0
-1457 1485 0
-1430 1472 0
-1431 1473 0
-1432 1474 0
-1433 1475 0
-1434 1476 0
-1435 1477 0
-1436 1478 0
-1437 1479 0
-1438 1480 0
-1439 1481 0
-1440 1482 0
-1441 1483 0
-1442 1484 0
-1443 1485 0
-1430 -1444 1473 0
-1430 -1445 1474 0
-1430 -1446 1475 0
-1430 -1447 1476 0
-1430 -1448 1477 0
-1430 -1449 1478 0
-1430 -1450 1479 0
-1430 -1451 1480 0
-1430 -1452 1481 0
-1430 -1453 1482 0
-1430 -1454 1483 0
-1430 -1455 1484 0
-1430 -1456 1485 0
-1431 -1444 1474 0
-1431 -1445 1475 0
-1431 -1446 1476 0
-1431 -1447 1477 0
-1431 -1448 1478 0
-1431 -1449 1479 0
-1431 -1450 1480 0
-1431 -1451 1481 0
-1431 -1452 1482 0
-1431 -1453 1483 0
-1431 -1454 1484 0
-1431 -1455 1485 0
-1432 -1444 1475 0
-1432 -1445 1476 0
-1432 -1446 1477 0
-1432 -1447 1478 0
-1432 -1448 1479 0
-1432 -1449 1480 0
-1432 -1450 1481 0
-1432 -1451 1482 0
-1432 -1452 1483 0
-1432 -1453 1484 0
-1432 -1454 1485 0
-1433 -1444 1476 0
-1433 -1445 1477 0
-1433 -1446 1478 0
-1433 -1447 1479 0
-1433 -1448 1480 0
-1433 -1449 1481 0
-1433 -1450 1482 0
-1433 -1451 1483 0
-1433 -1452 1484 0
-1433 -1453 1485 0
-1434 -1444 1477 0
-1434 -1445 1478 0
-1434 -1446 1479 0
-1434 -1447 1480 0
-1434 -1448 1481 0
-1434 -1449 1482 0
-1434 -1450 1483 0
-1434 -1451 1484 0
-1434 -1452 1485 0
-1435 -1444 1478 0
-1435 -1445 1479 0
-1435 -1446 1480 0
-1435 -1447 1481 0
-1435 -1448 1482 0
-1435 -1449 1483 0
-1435 -1450 1484 0
-1435 -1451 1485 0
-1436 -1444 1479 0
-1436 -1445 1480 0
-1436 -1446 1481 0
-1436 -1447 1482 0
-1436 -1448 1483 0
-1436 -1449 1484 0
-1436 -1450 1485 0
-1437 -1444 1480 0
-1437 -1445 1481 0
-1437 -1446 1482 0
-1437 -1447 1483 0
-1437 -1448 1484 0
-1437 -1449 1485 0
-1438 -1444 1481 0
-1438 -1445 1482 0
-1438 -1446 1483 0
-1438 -1447 1484 0
-1438 -1448 1485 0
-1439 -1444 1482 0
-1439 -1445 1483 0
-1439 -1446 1484 0
-1439 -1447 1485 0
-1440 -1444 1483 0
-1440 -1445 1484 0
-1440 -1446 1485 0
-1441 -1444 1484 0
-1441 -1445 1485 0
-1442 -1444 1485 0
-1472 1486 0
-1473 1487 0
-1474 1488 0
-1475 1489 0
-1476 1490 0
-1477 1491 0
-1478 1492 0
-1479 1493 0
-1480 1494 0
-1481 1495 0
-1482 1496 0
-1483 1497 0
-1484 1498 0
-1485 1499 0
-1458 1486 0
-1459 1487 0
-1460 1488 0
-1461 1489 0
-1462 1490 0
-1463 1491 0
-1464 1492 0
-1465 1493 0
-1466 1494 0
-1467 1495 0
-1468 1496 0
-1469 1497 0
-1470 1498 0
-1471 1499 0
-1458 -1472 1487 0
-1458 -1473 1488 0
-1458 -1474 1489 0
-1458 -1475 1490 0
-1458 -1476 1491 0
-1458 -1477 1492 0
-1458 -1478 1493 0
-1458 -1479 1494 0
-1458 -1480 1495 0
-1458 -1481 1496 0
-1458 -1482 1497 0
-1458 -1483 1498 0
-1458 -1484 1499 0
-1459 -1472 1488 0
-1459 -1473 1489 0
-1459 -1474 1490 0
-1459 -1475 1491 0
-1459 -1476 1492 0
-1459 -1477 1493 0
-1459 -1478 1494 0
-1459 -1479 1495 0
-1459 -1480 1496 0
-1459 -1481 1497 0
-1459 -1482 1498 0
-1459 -1483 1499 0
-1460 -1472 1489 0
-1460 -1473 1490 0
-1460 -1474 1491 0
-1460 -1475 1492 0
-1460 -1476 1493 0
-1460 -1477 1494 0
-1460 -1478 1495 0
-1460 -1479 1496 0
-1460 -1480 1497 0
-1460 -1481 1498 0
-1460 -1482 1499 0
-1461 -1472 1490 0
-1461 -1473 1491 0
-1461 -1474 1492 0
-1461 -1475 1493 0
-1461 -1476 1494 0
-1461 -1477 1495 0
-1461 -1478 1496 0
-1461 -1479 1497 0
-1461 -1480 1498 0
-1461 -1481 1499 0
-1462 -1472 1491 0
-1462 -1473 1492 0
-1462 -1474 1493 0
-1462 -1475 1494 0
-1462 -1476 1495 0
-1462 -1477 1496 0
-1462 -1478 1497 0
-1462 -1479 1498 0
-1462 -1480 1499 0
-1463 -1472 1492 0
-1463 -1473 1493 0
-1463 -1474 1494 0
-1463 -1475 1495 0
-1463 -1476 1496 0
-1463 -1477 1497 0
-1463 -1478 1498 0
-1463 -1479 1499 0
-1464 -1472 1493 0
-1464 -1473 1494 0
-1464 -1474 1495 0
-1464 -1475 1496 0
-1464 -1476 1497 0
-1464 -1477 1498 0
-1464 -1478 1499 0
-1465 -1472 1494 0
-1465 -1473 1495 0
-1465 -1474 1496 0
-1465 -1475 1497 0
-1465 -1476 1498 0
-1465 -1477 1499 0
-1466 -1472 1495 0
-1466 -1473 1496 0
-1466 -1474 1497 0
-1466 -1475 1498 0
-1466 -1476 1499 0
-1467 -1472 1496 0
-1467 -1473 1497 0
-1467 -1474 1498 0
-1467 -1475 1499 0
-1468 -1472 1497 0
-1468 -1473 1498 0
-1468 -1474 1499 0
-1469 -1472 1498 0
-1469 -1473 1499 0
-1470 -1472 1499 0
-1500 21 0
-1500 487 0
-1501 66 0
-1501 466 0
-1502 78 0
-1502 504 0
-1503 79 0
-1503 531 0
-1504 107 0
-1504 530 0
-1505 170 0
-1505 532 0
-1506 172 0
-1506 516 0
-1507 173 0
-1507 529 0
-1508 196 0
-1508 387 0
-1509 202 0
-1509 394 0
-1510 202 0
-1510 524 0
-1511 246 0
-1511 378 0
-1512 253 0
-1512 379 0
-1513 256 0
-1513 523 0
-1514 258 0
-1514 483 0
-1515 296 0
-1515 397 0
-1516 317 0
-1516 447 0
-1517 325 0
-1517 462 0
-1518 325 0
-1518 465 0
-1519 327 0
-1519 511 0
-1520 329 0
-1520 474 0
-1521 329 0
-1521 495 0
-1522 341 0
-1522 468 0
1500 1501 1502 1503 1504 1505 1506 1507 1508 1509 1510 1511 1512 1513 1514 1515 1516 1517 1518 1519 1520 1521 1522 0
-1523 9 0
-1523 417 0
-1524 44 0
-1524 438 0
-1525 56 0
-1525 406 0
-1526 68 0
-1526 514 0
-1527 92 0
-1527 522 0
-1528 94 0
-1528 387 0
-1529 151 0
-1529 395 0
-1530 212 0
-1530 466 0
-1531 268 0
-1531 383 0
-1532 387 0
-1532 388 0
-1533 471 0
-1533 514 0
1500 1523 1524 1525 1526 1527 1528 1529 1530 1531 1532 1533 0
514 383 395 0
-1534 2 0
-1534 463 0
-1535 11 0
-1535 416 0
-1536 26 0
-1536 374 0
-1537 35 0
-1537 439 0
-1538 40 0
-1538 401 0
-1539 51 0
-1539 469 0
-1540 75 0
-1540 368 0
-1541 75 0
-1541 424 0
-1542 75 0
-1542 456 0
-1543 104 0
-1543 483 0
-1544 135 0
-1544 420 0
-1545 137 0
-1545 393 0
-1546 175 0
-1546 457 0
-1547 227 0
-1547 389 0
-1548 306 0
-1548 414 0
-1549 336 0
-1549 476 0
-1550 352 0
-1550 503 0
-1551 363 0
-1551 401 0
-1552 379 0
-1552 381 0
-1553 402 0
-1553 404 0
1534 1535 1536 1537 1538 1539 1540 1541 1542 1543 1544 1545 1546 1547 1548 1549 1550 1551 1552 1553 0
-1554 36 0
-1554 469 0
-1555 144 0
-1555 505 0
-1556 156 0
-1556 369 0
-1557 167 0
-1557 390 0
-1558 175 0
-1558 453 0
-1559 216 0
-1559 529 0
-1560 246 0
-1560 502 0
-1561 368 0
-1561 439 0
-1562 380 0
-1562 382 0
-1563 424 0
-1563 453 0
1534 1537 1543 1554 1555 1556 1557 1558 1559 1560 1561 1562 1563 0
453 369 0
-1564 15 0
-1564 440 0
-1565 27 0
-1565 420 0
-1566 87 0
-1566 465 0
-1567 88 0
-1567 391 0
-1568 230 0
-1568 490 0
-1569 235 0
-1569 514 0
-1570 255 0
-1570 375 0
-1571 255 0
-1571 512 0
-1572 278 0
-1572 467 0
1512 1564 1565 1566 1567 1568 1569 1570 1571 1572 0
-1573 41 0
-1573 475 0
-1574 115 0
-1574 444 0
-1575 180 0
-1575 480 0
-1576 210 0
-1576 376 0
-1577 277 0
-1577 388 0
-1578 279 0
-1578 378 0
-1579 295 0
-1579 439 0
-1580 320 0
-1580 488 0
-1581 328 0
-1581 430 0
-1582 331 0
-1582 508 0
-1583 335 0
-1583 478 0
-1584 342 0
-1584 447 0
-1585 342 0
-1585 502 0
-1586 376 0
-1586 378 0
-1587 459 0
-1587 482 0
1573 1574 1575 1576 1577 1578 1579 1580 1581 1582 1583 1584 1585 1586 1587 0
388 444 0
-1588 30 0
-1588 466 0
-1589 95 0
-1589 439 0
-1590 249 0
-1590 366 0
-1591 285 0
-1591 528 0
-1592 293 0
-1592 440 0
-1593 465 0
-1593 466 0
1588 1589 1590 1591 1592 1593 0
-1594 15 0
-1594 364 0
-1595 22 0
-1595 471 0
-1596 29 0
-1596 410 0
-1597 79 0
-1597 365 0
-1598 81 0
-1598 529 0
-1599 96 0
-1599 441 0
-1600 124 0
-1600 370 0
-1601 145 0
-1601 458 0
-1602 177 0
-1602 445 0
-1603 184 0
-1603 411 0
-1604 213 0
-1604 442 0
-1605 217 0
-1605 402 0
-1606 324 0
-1606 424 0
-1607 326 0
-1607 419 0
-1608 327 0
-1608 468 0
-1609 337 0
-1609 388 0
-1610 341 0
-1610 393 0
-1611 341 0
-1611 498 0
-1612 341 0
-1612 510 0
1544 1546 1548 1558 1594 1595 1596 1597 1598 1599 1600 1601 1602 1603 1604 1605 1606 1607 1608 1609 1610 1611 1612 0
441 365 0
-1613 3 0
-1613 410 0
-1614 12 0
-1614 487 0
-1615 78 0
-1615 398 0
-1616 93 0
-1616 511 0
-1617 125 0
-1617 507 0
-1618 171 0
-1618 531 0
-1619 266 0
-1619 430 0
-1620 394 0
-1620 411 0
1501 1507 1508 1521 1613 1614 1615 1616 1617 1618 1619 1620 0
-1621 34 0
-1621 523 0
-1622 41 0
-1622 522 0
-1623 59 0
-1623 413 0
-1624 75 0
-1624 436 0
-1625 97 0
-1625 396 0
-1626 129 0
-1626 516 0
-1627 130 0
-1627 438 0
-1628 183 0
-1628 473 0
-1629 198 0
-1629 418 0
-1630 256 0
-1630 465 0
-1631 268 0
-1631 422 0
-1632 398 0
-1632 523 0
1501 1502 1508 1511 1519 1521 1531 1621 1622 1623 1624 1625 1626 1627 1628 1629 1630 1631 1632 0
422 383 0
-1633 20 0
-1633 437 0
-1634 160 0
-1634 390 0
-1635 275 0
-1635 382 0
1560 1633 1634 1635 0
-1636 5 0
-1636 442 0
-1637 17 0
-1637 500 0
-1638 19 0
-1638 392 0
-1639 20 0
-1639 467 0
-1640 118 0
-1640 421 0
-1641 157 0
-1641 361 0
-1642 175 0
-1642 446 0
-1643 176 0
-1643 492 0
-1644 176 0
-1644 530 0
-1645 194 0
-1645 376 0
-1646 199 0
-1646 528 0
-1647 273 0
-1647 450 0
-1648 285 0
-1648 394 0
-1649 290 0
-1649 399 0
1539 1636 1637 1638 1639 1640 1641 1642 1643 1644 1645 1646 1647 1648 1649 0
399 492 0
-1650 46 0
-1650 494 0
-1651 76 0
-1651 531 0
-1652 86 0
-1652 523 0
-1653 115 0
-1653 386 0
-1654 124 0
-1654 519 0
-1655 133 0
-1655 406 0
-1656 208 0
-1656 389 0
-1657 212 0
-1657 415 0
-1658 323 0
-1658 438 0
1615 1650 1651 1652 1653 1654 1655 1656 1657 1658 0
-1659 34 0
-1659 471 0
-1660 206 0
-1660 487 0
-1661 335 0
-1661 520 0
1503 1576 1650 1653 1656 1658 1659 1660 1661 0
471 389 386 531 494 487 0
-1662 18 0
-1662 374 0
-1663 99 0
-1663 373 0
-1664 123 0
-1664 454 0
-1665 162 0
-1665 392 0
-1666 169 0
-1666 368 0
-1667 181 0
-1667 530 0
-1668 188 0
-1668 413 0
-1669 192 0
-1669 430 0
-1670 219 0
-1670 385 0
-1671 262 0
-1671 450 0
-1672 270 0
-1672 375 0
-1673 336 0
-1673 371 0
-1674 340 0
-1674 517 0
-1675 383 0
-1675 386 0
-1676 508 0
-1676 515 0
1576 1579 1591 1608 1629 1662 1663 1664 1665 1666 1667 1668 1669 1670 1671 1672 1673 1674 1675 1676 0
-1677 33 0
-1677 436 0
-1678 63 0
-1678 523 0
-1679 90 0
-1679 454 0
-1680 99 0
-1680 491 0
-1681 161 0
-1681 379 0
-1682 164 0
-1682 366 0
-1683 189 0
-1683 507 0
-1684 253 0
-1684 467 0
-1685 261 0
-1685 471 0
-1686 265 0
-1686 495 0
-1687 281 0
-1687 414 0
-1688 334 0
-1688 448 0
-1689 420 0
-1689 440 0
1509 1510 1537 1540 1546 1591 1608 1616 1677 1678 1679 1680 1681 1682 1683 1684 1685 1686 1687 1688 1689 0
454 368 0
-1690 6 0
-1690 514 0
-1691 28 0
-1691 470 0
-1692 83 0
-1692 410 0
-1693 83 0
-1693 532 0
-1694 194 0
-1694 500 0
-1695 208 0
-1695 391 0
-1696 208 0
-1696 523 0
-1697 253 0
-1697 471 0
-1698 297 0
-1698 384 0
-1699 335 0
-1699 378 0
-1700 340 0
-1700 459 0
-1701 417 0
-1701 418 0
1512 1583 1607 1638 1671 1690 1691 1692 1693 1694 1695 1696 1697 1698 1699 1700 1701 0
-1702 80 0
-1702 532 0
-1703 137 0
-1703 410 0
-1704 146 0
-1704 396 0
-1705 196 0
-1705 384 0
-1706 277 0
-1706 470 0
-1707 311 0
-1707 417 0
-1708 311 0
-1708 419 0
-1709 347 0
-1709 459 0
1527 1617 1638 1671 1690 1695 1696 1702 1703 1704 1705 1706 1707 1708 1709 0
396 507 0
-1710 5 0
-1710 438 0
-1711 30 0
-1711 524 0
-1712 53 0
-1712 411 0
-1713 74 0
-1713 400 0
-1714 74 0
-1714 465 0
-1715 112 0
-1715 506 0
-1716 127 0
-1716 480 0
-1717 175 0
-1717 532 0
-1718 185 0
-1718 519 0
-1719 187 0
-1719 468 0
-1720 224 0
-1720 380 0
-1721 241 0
-1721 383 0
-1722 242 0
-1722 382 0
-1723 255 0
-1723 473 0
-1724 474 0
-1724 523 0
1710 1711 1712 1713 1714 1715 1716 1717 1718 1719 1720 1721 1722 1723 1724 0
-1725 142 0
-1725 506 0
-1726 175 0
-1726 411 0
-1727 203 0
-1727 468 0
-1728 305 0
-1728 473 0
-1729 325 0
-1729 472 0
-1730 383 0
-1730 416 0
-1731 389 0
-1731 413 0
1520 1710 1717 1718 1725 1726 1727 1728 1729 1730 1731 0
438 468 472 519 532 416 413 474 411 0
-1732 32 0
-1732 484 0
-1733 32 0
-1733 527 0
-1734 43 0
-1734 500 0
-1735 105 0
-1735 408 0
-1736 124 0
-1736 441 0
-1737 187 0
-1737 464 0
-1738 198 0
-1738 373 0
-1739 203 0
-1739 450 0
-1740 210 0
-1740 439 0
-1741 250 0
-1741 427 0
-1742 283 0
-1742 418 0
-1743 313 0
-1743 462 0
-1744 313 0
-1744 463 0
-1745 342 0
-1745 378 0
1576 1644 1732 1733 1734 1735 1736 1737 1738 1739 1740 1741 1742 1743 1744 1745 0
-1746 4 0
-1746 499 0
-1747 17 0
-1747 420 0
-1748 25 0
-1748 433 0
-1749 74 0
-1749 484 0
-1750 74 0
-1750 530 0
-1751 91 0
-1751 521 0
-1752 101 0
-1752 418 0
-1753 119 0
-1753 372 0
-1754 188 0
-1754 450 0
-1755 194 0
-1755 416 0
-1756 252 0
-1756 386 0
-1757 280 0
-1757 376 0
-1758 319 0
-1758 497 0
-1759 324 0
-1759 425 0
-1760 438 0
-1760 439 0
1592 1604 1668 1685 1738 1746 1747 1748 1749 1750 1751 1752 1753 1754 1755 1756 1757 1758 1759 1760 0
372 416 530 440 439 497 484 499 0
-1761 77 0
-1761 530 0
-1762 117 0
-1762 398 0
-1763 204 0
-1763 401 0
-1764 257 0
-1764 466 0
-1765 377 0
-1765 499 0
1538 1649 1696 1756 1761 1762 1763 1764 1765 0
-1766 135 0
-1766 401 0
-1767 162 0
-1767 398 0
-1768 242 0
-1768 399 0
1696 1756 1761 1764 1765 1766 1767 1768 0
-1769 108 0
-1769 529 0
-1770 228 0
-1770 530 0
-1771 269 0
-1771 421 0
-1772 283 0
-1772 371 0
1506 1585 1629 1745 1764 1769 1770 1771 1772 0
378 530 466 421 371 502 0
-1773 218 0
-1773 371 0
-1774 328 0
-1774 443 0
1640 1644 1764 1773 1774 0
-1775 45 0
-1775 463 0
-1776 260 0
-1776 511 0
-1777 270 0
-1777 512 0
1672 1775 1776 1777 0
375 512 0
-1778 73 0
-1778 442 0
-1779 109 0
-1779 531 0
-1780 204 0
-1780 380 0
-1781 205 0
-1781 497 0
-1782 289 0
-1782 401 0
-1783 340 0
-1783 382 0
-1784 340 0
-1784 419 0
-1785 340 0
-1785 450 0
1516 1715 1753 1778 1779 1780 1781 1782 1783 1784 1785 0
-1786 190 0
-1786 447 0
1715 1753 1778 1779 1780 1781 1782 1786 0
531 442 506 0
-1787 84 0
-1787 470 0
-1788 116 0
-1788 453 0
-1789 200 0
-1789 476 0
-1790 228 0
-1790 486 0
-1791 260 0
-1791 462 0
-1792 279 0
-1792 478 0
-1793 336 0
-1793 375 0
1578 1673 1697 1707 1787 1788 1789 1790 1791 1792 1793 0
-1794 5 0
-1794 453 0
1583 1697 1699 1706 1707 1743 1794 0
378 478 0
-1795 76 0
-1795 471 0
-1796 119 0
-1796 467 0
-1797 148 0
-1797 374 0
-1798 168 0
-1798 379 0
-1799 294 0
-1799 523 0
-1800 298 0
-1800 431 0
-1801 475 0
-1801 522 0
1611 1656 1693 1795 1796 1797 1798 1799 1800 1801 0
-1499 0
