p cnf 2789 6019
1 0
2 0
3 0
4 0
5 0
6 0
7 0
8 0
9 0
10 0
11 0
12 0
13 0
14 0
15 0
16 0
17 0
18 0
19 0
20 0
21 0
22 0
23 0
24 0
25 0
26 0
27 0
28 0
29 0
30 0
31 0
32 0
33 0
34 0
35 0
36 0
37 0
38 0
39 0
40 0
41 0
42 0
43 0
44 0
45 0
46 0
47 0
48 0
49 0
50 0
51 0
52 0
53 0
54 0
55 0
56 0
57 0
58 0
59 0
60 0
61 0
62 0
63 0
64 0
65 0
66 0
67 0
68 0
69 0
70 0
71 0
72 0
73 0
74 0
75 0
76 0
77 0
78 0
79 0
80 0
81 0
82 0
83 0
84 0
85 0
86 0
87 0
88 0
89 0
90 0
91 0
92 0
93 0
94 0
95 0
96 0
97 0
98 0
99 0
100 0
101 0
102 0
103 0
104 0
105 0
106 0
107 0
108 0
109 0
110 0
111 0
112 0
113 0
114 0
115 0
116 0
117 0
118 0
119 0
120 0
121 0
122 0
123 0
124 0
125 0
126 0
127 0
128 0
129 0
130 0
131 0
132 0
133 0
134 0
135 0
136 0
137 0
138 0
139 0
140 0
141 0
142 0
143 0
144 0
145 0
146 0
147 0
148 0
149 0
150 0
151 0
152 0
153 0
154 0
155 0
156 0
157 0
158 0
159 0
160 0
161 0
162 0
163 0
164 0
165 0
166 0
167 0
168 0
169 0
170 0
171 0
172 0
173 0
174 0
175 0
176 0
177 0
178 0
179 0
180 0
181 0
182 0
183 0
184 0
185 0
186 0
187 0
188 0
189 0
190 0
191 0
192 0
193 0
194 0
195 0
196 0
197 0
198 0
199 0
200 0
201 0
202 0
203 0
204 0
205 0
206 0
207 0
208 0
209 0
210 0
211 0
212 0
213 0
214 0
215 0
216 0
217 0
218 0
219 0
220 0
221 0
222 0
223 0
224 0
225 0
226 0
227 0
228 0
229 0
230 0
231 0
232 0
233 0
234 0
235 0
236 0
237 0
238 0
239 0
240 0
241 0
242 0
243 0
244 0
245 0
246 0
247 0
248 0
249 0
250 0
251 0
252 0
253 0
254 0
255 0
256 0
257 0
258 0
259 0
260 0
261 0
262 0
263 0
264 0
265 0
266 0
267 0
268 0
269 0
270 0
271 0
272 0
273 0
274 0
275 0
276 0
277 0
278 0
279 0
280 0
281 0
282 0
283 0
284 0
285 0
286 0
287 0
288 0
289 0
290 0
291 0
292 0
293 0
294 0
295 0
296 0
297 0
298 0
299 0
300 0
301 0
302 0
303 0
304 0
305 0
306 0
307 0
308 0
309 0
310 0
311 0
312 0
313 0
314 0
315 0
316 0
317 0
318 0
319 0
320 0
321 0
322 0
323 0
324 0
325 0
326 0
327 0
328 0
329 0
330 0
331 0
332 0
333 0
334 0
335 0
336 0
337 0
338 0
339 0
340 0
341 0
342 0
343 0
344 0
345 0
346 0
347 0
348 0
349 0
350 0
351 0
352 0
353 0
354 0
355 0
356 0
357 0
358 0
359 0
360 0
361 0
362 0
363 0
364 0
365 0
366 0
367 0
368 0
369 0
370 0
371 0
372 0
373 0
374 0
375 0
376 0
377 0
378 0
379 0
380 0
381 0
382 0
383 0
384 0
385 0
386 0
387 0
388 0
389 0
390 0
391 0
392 0
393 0
394 0
395 0
396 0
397 0
398 0
399 0
400 0
401 0
402 0
403 0
404 0
405 0
406 0
407 0
408 0
409 0
410 0
411 0
412 0
413 0
414 0
415 0
416 0
417 0
418 0
419 0
420 0
421 0
422 0
423 0
424 0
425 0
426 0
427 0
428 0
429 0
430 0
431 0
432 0
433 0
434 0
435 0
436 0
437 0
438 0
439 0
440 0
441 0
442 0
443 0
444 0
445 0
446 0
447 0
448 0
449 0
450 0
451 0
452 0
453 0
454 0
455 0
456 0
457 0
458 0
459 0
460 0
461 0
462 0
463 0
464 0
465 0
466 0
467 0
468 0
469 0
470 0
471 0
472 0
473 0
474 0
475 0
476 0
477 0
478 0
479 0
480 0
481 0
482 0
483 0
484 0
485 0
486 0
487 0
488 0
489 0
490 0
491 0
492 0
493 0
494 0
495 0
496 0
497 0
498 0
499 0
500 0
-501 502 506 507 519 523 527 531 532 0
-502 501 503 508 511 524 528 533 534 535 0
-503 502 504 512 515 529 536 537 538 539 0
-504 503 505 509 513 516 520 540 541 542 0
-505 504 506 514 517 525 543 544 545 546 0
-506 501 505 518 521 526 530 547 548 549 0
-507 501 761 0
-507 -761 762 0
-507 508 -761 763 0
-507 -763 764 0
-507 527 -763 765 0
-507 -765 766 0
-507 559 -765 767 0
-507 -767 768 0
-507 560 -767 769 0
-507 -769 770 0
-507 609 -769 0
-507 508 762 0
-507 527 -762 764 0
-507 559 -764 766 0
-507 560 -766 768 0
-507 609 -768 770 0
-507 612 -770 0
-509 504 513 587 589 602 607 617 0
-511 502 508 512 555 556 606 0
-514 505 513 517 595 596 633 638 647 0
-515 503 512 516 569 570 637 0
-518 506 517 521 560 561 660 666 676 0
-519 501 771 0
-519 -771 772 0
-519 521 -771 773 0
-519 -773 774 0
-519 523 -773 775 0
-519 -775 776 0
-519 556 -775 777 0
-519 -777 778 0
-519 557 -777 779 0
-519 -779 780 0
-519 662 -779 781 0
-519 -781 782 0
-519 682 -781 0
-519 521 772 0
-519 523 -772 774 0
-519 556 -774 776 0
-519 557 -776 778 0
-519 662 -778 780 0
-519 682 -780 782 0
-519 686 -782 0
-520 504 516 579 580 665 694 0
-524 502 523 528 570 571 702 707 711 0
-525 505 526 588 589 687 714 0
-529 503 528 580 581 610 703 718 724 0
-530 506 526 527 595 597 708 0
-534 502 537 556 671 686 700 711 735 0
-535 502 783 0
-535 -783 784 0
-535 542 -783 785 0
-535 -785 786 0
-535 549 -785 787 0
-535 -787 788 0
-535 655 -787 789 0
-535 -789 790 0
-535 672 -789 0
-535 542 784 0
-535 549 -784 786 0
-535 655 -786 788 0
-535 672 -788 790 0
-535 736 -790 0
-539 503 791 0
-539 -791 792 0
-539 546 -791 793 0
-539 -793 794 0
-539 680 -793 795 0
-539 -795 796 0
-539 693 -795 0
-539 546 792 0
-539 680 -792 794 0
-539 693 -794 796 0
-539 730 -796 0
-542 504 797 0
-542 -797 798 0
-542 535 -797 799 0
-542 -799 800 0
-542 549 -799 801 0
-542 -801 802 0
-542 629 -801 803 0
-542 -803 804 0
-542 697 -803 0
-542 535 798 0
-542 549 -798 800 0
-542 629 -800 802 0
-542 697 -802 804 0
-542 733 -804 0
-546 505 805 0
-546 -805 806 0
-546 539 -805 807 0
-546 -807 808 0
-546 621 -807 809 0
-546 -809 810 0
-546 656 -809 0
-546 539 806 0
-546 621 -806 808 0
-546 656 -808 810 0
-546 731 -810 0
-548 506 545 560 609 630 650 0
-549 506 811 0
-549 -811 812 0
-549 535 -811 813 0
-549 -813 814 0
-549 542 -813 815 0
-549 -815 816 0
-549 624 -815 817 0
-549 -817 818 0
-549 651 -817 0
-549 535 812 0
-549 542 -812 814 0
-549 624 -814 816 0
-549 651 -816 818 0
-549 734 -818 0
-550 556 819 0
-550 -819 820 0
-550 631 -819 821 0
-550 -821 822 0
-550 671 -821 0
-550 631 820 0
-550 671 -820 822 0
-550 743 -822 0
-551 560 823 0
-551 -823 824 0
-551 641 -823 825 0
-551 -825 826 0
-551 650 -825 0
-551 641 824 0
-551 650 -824 826 0
-551 742 -826 0
-552 570 827 0
-552 -827 828 0
-552 658 -827 829 0
-552 -829 830 0
-552 692 -829 0
-552 658 828 0
-552 692 -828 830 0
-552 744 -830 0
-553 595 831 0
-553 -831 832 0
-553 619 -831 833 0
-553 -833 834 0
-553 623 -833 0
-553 619 832 0
-553 623 -832 834 0
-553 741 -834 0
-554 614 710 0
-555 511 835 0
-555 -835 836 0
-555 556 -835 0
-555 556 836 0
-555 614 -836 0
-557 519 837 0
-557 -837 838 0
-557 556 -837 839 0
-557 -839 840 0
-557 710 -839 0
-557 556 838 0
-557 710 -838 840 0
-557 735 -840 0
-558 696 722 0
-559 507 841 0
-559 -841 842 0
-559 560 -841 0
-559 560 842 0
-559 722 -842 0
-561 518 843 0
-561 -843 844 0
-561 560 -843 845 0
-561 -845 846 0
-561 696 -845 0
-561 560 844 0
-561 696 -844 846 0
-561 732 -846 0
-562 575 847 0
-562 -847 848 0
-562 582 -847 0
-562 582 848 0
-562 585 -848 0
-563 573 849 0
-563 -849 850 0
-563 583 -849 0
-563 583 850 0
-563 599 -850 0
-564 565 851 0
-564 -851 852 0
-564 572 -851 0
-564 572 852 0
-564 598 -852 0
-565 564 853 0
-565 -853 854 0
-565 584 -853 0
-565 584 854 0
-565 591 -854 0
-566 582 0
-566 601 0
-567 576 0
-567 583 0
-568 643 723 0
-569 515 855 0
-569 -855 856 0
-569 570 -855 0
-569 570 856 0
-569 643 -856 0
-571 524 857 0
-571 -857 858 0
-571 570 -857 859 0
-571 -859 860 0
-571 723 -859 0
-571 570 858 0
-571 723 -858 860 0
-571 737 -860 0
-572 564 861 0
-572 -861 862 0
-572 591 -861 0
-572 591 862 0
-572 600 -862 0
-573 563 863 0
-573 -863 864 0
-573 590 -863 0
-573 590 864 0
-573 593 -864 0
-574 575 865 0
-574 -865 866 0
-574 582 -865 0
-574 582 866 0
-574 601 -866 0
-575 562 867 0
-575 -867 868 0
-575 574 -867 0
-575 574 868 0
-575 592 -868 0
-576 567 0
-576 590 0
-577 584 0
-577 591 0
-578 616 673 0
-579 520 869 0
-579 -869 870 0
-579 580 -869 0
-579 580 870 0
-579 673 -870 0
-581 529 871 0
-581 -871 872 0
-581 580 -871 873 0
-581 -873 874 0
-581 616 -873 0
-581 580 872 0
-581 616 -872 874 0
-581 738 -874 0
-582 562 875 0
-582 -875 876 0
-582 566 -875 0
-582 566 876 0
-582 574 -876 0
-583 563 877 0
-583 -877 878 0
-583 567 -877 0
-583 567 878 0
-583 590 -878 0
-584 565 0
-584 577 0
-585 562 0
-585 592 0
-586 646 695 0
-587 509 879 0
-587 -879 880 0
-587 589 -879 881 0
-587 -881 882 0
-587 646 -881 0
-587 589 880 0
-587 646 -880 882 0
-587 739 -882 0
-588 525 883 0
-588 -883 884 0
-588 589 -883 0
-588 589 884 0
-588 695 -884 0
-590 573 885 0
-590 -885 886 0
-590 576 -885 0
-590 576 886 0
-590 583 -886 0
-591 565 887 0
-591 -887 888 0
-591 572 -887 0
-591 572 888 0
-591 577 -888 0
-592 575 0
-592 585 0
-593 573 0
-593 599 0
-594 675 715 0
-596 514 889 0
-596 -889 890 0
-596 595 -889 891 0
-596 -891 892 0
-596 675 -891 0
-596 595 890 0
-596 675 -890 892 0
-596 740 -892 0
-597 530 893 0
-597 -893 894 0
-597 595 -893 0
-597 595 894 0
-597 715 -894 0
-598 564 0
-598 600 0
-599 563 0
-599 593 0
-600 572 0
-600 598 0
-601 566 0
-601 574 0
-602 509 895 0
-602 -895 896 0
-602 607 -895 897 0
-602 -897 898 0
-602 659 -897 0
-602 607 896 0
-602 659 -896 898 0
-602 727 -898 0
-604 605 0
-604 642 0
-605 604 0
-605 697 0
-611 510 719 747 0
-614 508 554 555 0
-615 510 899 0
-615 -899 900 0
-615 616 -899 0
-615 616 900 0
-615 643 -900 0
-616 578 581 613 615 738 0
-618 510 901 0
-618 -901 902 0
-618 620 -901 0
-618 620 902 0
-618 727 -902 0
-619 544 903 0
-619 -903 904 0
-619 553 -903 905 0
-619 -905 906 0
-619 595 -905 0
-619 553 904 0
-619 595 -904 906 0
-619 620 -906 0
-620 545 907 0
-620 -907 908 0
-620 617 -907 909 0
-620 -909 910 0
-620 618 -909 911 0
-620 -911 912 0
-620 619 -911 0
-620 617 908 0
-620 618 -908 910 0
-620 619 -910 912 0
-620 741 -912 0
-621 546 913 0
-621 -913 914 0
-621 636 -913 915 0
-621 -915 916 0
-621 656 -915 917 0
-621 -917 918 0
-621 672 -917 0
-621 636 914 0
-621 656 -914 916 0
-621 672 -916 918 0
-621 736 -918 0
-622 612 623 633 649 741 749 0
-623 547 919 0
-623 -919 920 0
-623 553 -919 921 0
-623 -921 922 0
-623 595 -921 923 0
-623 -923 924 0
-623 622 -923 0
-623 553 920 0
-623 595 -920 922 0
-623 622 -922 924 0
-623 633 -924 0
-624 549 925 0
-624 -925 926 0
-624 651 -925 927 0
-624 -927 928 0
-624 680 -927 929 0
-624 -929 930 0
-624 720 -929 0
-624 651 926 0
-624 680 -926 928 0
-624 720 -928 930 0
-624 730 -930 0
-625 510 626 747 0
-626 625 645 749 0
-628 629 931 0
-628 -931 932 0
-628 642 -931 933 0
-628 -933 934 0
-628 685 -933 0
-628 642 932 0
-628 685 -932 934 0
-628 733 -934 0
-629 542 935 0
-629 -935 936 0
-629 628 -935 937 0
-629 -937 938 0
-629 684 -937 0
-629 628 936 0
-629 684 -936 938 0
-629 697 -938 0
-631 531 939 0
-631 -939 940 0
-631 550 -939 941 0
-631 -941 942 0
-631 556 -941 0
-631 550 940 0
-631 556 -940 942 0
-631 668 -942 0
-632 540 943 0
-632 -943 944 0
-632 580 -943 945 0
-632 -945 946 0
-632 713 -945 0
-632 580 944 0
-632 713 -944 946 0
-632 718 -946 0
-633 514 947 0
-633 -947 948 0
-633 622 -947 949 0
-633 -949 950 0
-633 623 -949 951 0
-633 -951 952 0
-633 638 -951 0
-633 622 948 0
-633 623 -948 950 0
-633 638 -950 952 0
-633 749 -952 0
-635 636 0
-635 672 0
-636 621 0
-636 635 0
-641 532 953 0
-641 -953 954 0
-641 551 -953 955 0
-641 -955 956 0
-641 560 -955 957 0
-641 -957 958 0
-641 640 -957 0
-641 551 954 0
-641 560 -954 956 0
-641 640 -956 958 0
-641 660 -958 0
-642 604 959 0
-642 -959 960 0
-642 628 -959 961 0
-642 -961 962 0
-642 697 -961 0
-642 628 960 0
-642 697 -960 962 0
-642 733 -962 0
-643 512 963 0
-643 -963 964 0
-643 568 -963 965 0
-643 -965 966 0
-643 569 -965 967 0
-643 -967 968 0
-643 615 -967 0
-643 568 964 0
-643 569 -964 966 0
-643 615 -966 968 0
-643 645 -968 0
-646 513 969 0
-646 -969 970 0
-646 586 -969 971 0
-646 -971 972 0
-646 587 -971 973 0
-646 -973 974 0
-646 644 -973 0
-646 586 970 0
-646 587 -970 972 0
-646 644 -972 974 0
-646 739 -974 0
-647 514 975 0
-647 -975 976 0
-647 543 -975 977 0
-647 -977 978 0
-647 627 -977 979 0
-647 -979 980 0
-647 649 -979 0
-647 543 976 0
-647 627 -976 978 0
-647 649 -978 980 0
-647 748 -980 0
-649 622 647 648 0
-650 548 981 0
-650 -981 982 0
-650 551 -981 983 0
-650 -983 984 0
-650 560 -983 0
-650 551 982 0
-650 560 -982 984 0
-650 648 -984 0
-651 549 985 0
-651 -985 986 0
-651 624 -985 987 0
-651 -987 988 0
-651 664 -987 989 0
-651 -989 990 0
-651 693 -989 0
-651 624 986 0
-651 664 -986 988 0
-651 693 -988 990 0
-651 730 -990 0
-653 627 652 754 0
-655 535 991 0
-655 -991 992 0
-655 656 -991 993 0
-655 -993 994 0
-655 672 -993 995 0
-655 -995 996 0
-655 705 -995 0
-655 656 992 0
-655 672 -992 994 0
-655 705 -994 996 0
-655 731 -996 0
-656 546 997 0
-656 -997 998 0
-656 621 -997 999 0
-656 -999 1000 0
-656 655 -999 1001 0
-656 -1001 1002 0
-656 706 -1001 0
-656 621 998 0
-656 655 -998 1000 0
-656 706 -1000 1002 0
-656 736 -1002 0
-658 533 1003 0
-658 -1003 1004 0
-658 552 -1003 1005 0
-658 -1005 1006 0
-658 570 -1005 0
-658 552 1004 0
-658 570 -1004 1006 0
-658 689 -1006 0
-659 543 1007 0
-659 -1007 1008 0
-659 589 -1007 1009 0
-659 -1009 1010 0
-659 602 -1009 0
-659 589 1008 0
-659 602 -1008 1010 0
-659 727 -1010 0
-660 518 1011 0
-660 -1011 1012 0
-660 640 -1011 1013 0
-660 -1013 1014 0
-660 641 -1013 1015 0
-660 -1015 1016 0
-660 666 -1015 0
-660 640 1012 0
-660 641 -1012 1014 0
-660 666 -1014 1016 0
-660 754 -1016 0
-661 662 667 0
-663 664 0
-663 693 0
-664 651 0
-664 663 0
-667 522 661 756 0
-669 640 1017 0
-669 -1017 1018 0
-669 662 -1017 1019 0
-669 -1019 1020 0
-669 668 -1019 0
-669 662 1018 0
-669 668 -1018 1020 0
-669 676 -1020 0
-671 534 1021 0
-671 -1021 1022 0
-671 550 -1021 1023 0
-671 -1023 1024 0
-671 556 -1023 1025 0
-671 -1025 1026 0
-671 670 -1025 0
-671 550 1022 0
-671 556 -1022 1024 0
-671 670 -1024 1026 0
-671 682 -1026 0
-672 535 1027 0
-672 -1027 1028 0
-672 621 -1027 1029 0
-672 -1029 1030 0
-672 635 -1029 1031 0
-672 -1031 1032 0
-672 655 -1031 0
-672 621 1028 0
-672 635 -1028 1030 0
-672 655 -1030 1032 0
-672 731 -1032 0
-673 516 1033 0
-673 -1033 1034 0
-673 578 -1033 1035 0
-673 -1035 1036 0
-673 579 -1035 0
-673 578 1034 0
-673 579 -1034 1036 0
-673 627 -1036 0
-675 517 1037 0
-675 -1037 1038 0
-675 594 -1037 1039 0
-675 -1039 1040 0
-675 596 -1039 1041 0
-675 -1041 1042 0
-675 674 -1041 0
-675 594 1038 0
-675 596 -1038 1040 0
-675 674 -1040 1042 0
-675 740 -1042 0
-676 518 1043 0
-676 -1043 1044 0
-676 547 -1043 1045 0
-676 -1045 1046 0
-676 654 -1045 1047 0
-676 -1047 1048 0
-676 669 -1047 0
-676 547 1044 0
-676 654 -1044 1046 0
-676 669 -1046 1048 0
-676 753 -1048 0
-678 654 677 0
-680 539 1049 0
-680 -1049 1050 0
-680 624 -1049 1051 0
-680 -1051 1052 0
-680 693 -1051 1053 0
-680 -1053 1054 0
-680 721 -1053 0
-680 624 1050 0
-680 693 -1050 1052 0
-680 721 -1052 1054 0
-680 734 -1054 0
-681 536 1055 0
-681 -1055 1056 0
-681 580 -1055 0
-681 580 1056 0
-681 712 -1056 0
-682 519 1057 0
-682 -1057 1058 0
-682 670 -1057 1059 0
-682 -1059 1060 0
-682 671 -1059 0
-682 670 1058 0
-682 671 -1058 1060 0
-682 686 -1060 0
-684 629 0
-684 685 0
-685 628 0
-685 684 0
-689 658 662 690 744 0
-690 522 1061 0
-690 -1061 1062 0
-690 670 -1061 0
-690 670 1062 0
-690 689 -1062 0
-691 537 1063 0
-691 -1063 1064 0
-691 692 -1063 1065 0
-691 -1065 1066 0
-691 694 -1065 1067 0
-691 -1067 1068 0
-691 702 -1067 1069 0
-691 -1069 1070 0
-691 744 -1069 0
-691 692 1064 0
-691 694 -1064 1066 0
-691 702 -1066 1068 0
-691 744 -1068 1070 0
-691 758 -1070 0
-692 538 1071 0
-692 -1071 1072 0
-692 552 -1071 1073 0
-692 -1073 1074 0
-692 570 -1073 1075 0
-692 -1075 1076 0
-692 691 -1075 0
-692 552 1072 0
-692 570 -1072 1074 0
-692 691 -1074 1076 0
-692 702 -1076 0
-693 539 1077 0
-693 -1077 1078 0
-693 651 -1077 1079 0
-693 -1079 1080 0
-693 663 -1079 1081 0
-693 -1081 1082 0
-693 680 -1081 0
-693 651 1078 0
-693 663 -1078 1080 0
-693 680 -1080 1082 0
-693 734 -1082 0
-695 586 588 654 0
-696 521 558 561 732 0
-697 542 1083 0
-697 -1083 1084 0
-697 605 -1083 1085 0
-697 -1085 1086 0
-697 629 -1085 0
-697 605 1084 0
-697 629 -1084 1086 0
-697 642 -1086 0
-698 522 699 756 0
-699 679 698 758 0
-701 541 1087 0
-701 -1087 1088 0
-701 589 -1087 0
-701 589 1088 0
-701 725 -1088 0
-702 524 1089 0
-702 -1089 1090 0
-702 691 -1089 1091 0
-702 -1091 1092 0
-702 692 -1091 1093 0
-702 -1093 1094 0
-702 707 -1093 0
-702 691 1090 0
-702 692 -1090 1092 0
-702 707 -1092 1094 0
-702 758 -1094 0
-704 703 709 0
-705 655 0
-705 706 0
-706 656 0
-706 705 0
-710 523 1095 0
-710 -1095 1096 0
-710 554 -1095 1097 0
-710 -1097 1098 0
-710 557 -1097 1099 0
-710 -1099 1100 0
-710 630 -1099 0
-710 554 1096 0
-710 557 -1096 1098 0
-710 630 -1098 1100 0
-710 735 -1100 0
-711 524 1101 0
-711 -1101 1102 0
-711 534 -1101 1103 0
-711 -1103 1104 0
-711 700 -1103 0
-711 534 1102 0
-711 700 -1102 1104 0
-711 757 -1104 0
-713 632 714 718 726 745 0
-715 526 1105 0
-715 -1105 1106 0
-715 594 -1105 1107 0
-715 -1107 1108 0
-715 597 -1107 0
-715 594 1106 0
-715 597 -1106 1108 0
-715 679 -1108 0
-717 700 716 0
-718 529 1109 0
-718 -1109 1110 0
-718 610 -1109 1111 0
-718 -1111 1112 0
-718 632 -1111 0
-718 610 1110 0
-718 632 -1110 1112 0
-718 713 -1112 0
-719 611 617 752 0
-720 624 0
-720 721 0
-721 680 0
-721 720 0
-722 527 1113 0
-722 -1113 1114 0
-722 558 -1113 1115 0
-722 -1115 1116 0
-722 559 -1115 0
-722 558 1114 0
-722 559 -1114 1116 0
-722 700 -1116 0
-723 528 1117 0
-723 -1117 1118 0
-723 568 -1117 1119 0
-723 -1119 1120 0
-723 571 -1119 1121 0
-723 -1121 1122 0
-723 657 -1121 1123 0
-723 -1123 1124 0
-723 737 -1123 0
-723 568 1118 0
-723 571 -1118 1120 0
-723 657 -1120 1122 0
-723 737 -1122 1124 0
-723 752 -1124 0
-724 529 1125 0
-724 -1125 1126 0
-724 538 -1125 1127 0
-724 -1127 1128 0
-724 703 -1127 1129 0
-724 -1129 1130 0
-724 726 -1129 0
-724 538 1126 0
-724 703 -1126 1128 0
-724 726 -1128 1130 0
-724 751 -1130 0
-725 701 703 726 746 0
-726 617 1131 0
-726 -1131 1132 0
-726 713 -1131 1133 0
-726 -1133 1134 0
-726 724 -1133 0
-726 713 1132 0
-726 724 -1132 1134 0
-726 725 -1134 0
-730 539 1135 0
-730 -1135 1136 0
-730 624 -1135 0
-730 624 1136 0
-730 651 -1136 0
-731 546 1137 0
-731 -1137 1138 0
-731 655 -1137 0
-731 655 1138 0
-731 672 -1138 0
-732 532 1139 0
-732 -1139 1140 0
-732 561 -1139 1141 0
-732 -1141 1142 0
-732 666 -1141 0
-732 561 1140 0
-732 666 -1140 1142 0
-732 696 -1142 0
-733 542 1143 0
-733 -1143 1144 0
-733 628 -1143 0
-733 628 1144 0
-733 642 -1144 0
-734 549 1145 0
-734 -1145 1146 0
-734 680 -1145 0
-734 680 1146 0
-734 693 -1146 0
-735 534 1147 0
-735 -1147 1148 0
-735 557 -1147 1149 0
-735 -1149 1150 0
-735 686 -1149 0
-735 557 1148 0
-735 686 -1148 1150 0
-735 710 -1150 0
-736 535 1151 0
-736 -1151 1152 0
-736 621 -1151 0
-736 621 1152 0
-736 656 -1152 0
-737 538 1153 0
-737 -1153 1154 0
-737 571 -1153 1155 0
-737 -1155 1156 0
-737 707 -1155 1157 0
-737 -1157 1158 0
-737 723 -1157 0
-737 571 1154 0
-737 707 -1154 1156 0
-737 723 -1156 1158 0
-737 752 -1158 0
-738 540 1159 0
-738 -1159 1160 0
-738 581 -1159 1161 0
-738 -1161 1162 0
-738 610 -1161 0
-738 581 1160 0
-738 610 -1160 1162 0
-738 616 -1162 0
-739 543 1163 0
-739 -1163 1164 0
-739 587 -1163 1165 0
-739 -1165 1166 0
-739 607 -1165 0
-739 587 1164 0
-739 607 -1164 1166 0
-739 646 -1166 0
-740 547 1167 0
-740 -1167 1168 0
-740 596 -1167 1169 0
-740 -1169 1170 0
-740 638 -1169 0
-740 596 1168 0
-740 638 -1168 1170 0
-740 675 -1170 0
-741 553 620 622 0
-742 551 640 648 0
-743 550 668 670 0
-744 552 689 691 0
-745 712 713 0
-746 725 727 0
-747 611 0
-747 625 0
-748 603 1171 0
-748 -1171 1172 0
-748 607 -1171 1173 0
-748 -1173 1174 0
-748 647 -1173 0
-748 607 1172 0
-748 647 -1172 1174 0
-748 750 -1174 0
-749 622 1175 0
-749 -1175 1176 0
-749 626 -1175 0
-749 626 1176 0
-749 633 -1176 0
-750 608 1177 0
-750 -1177 1178 0
-750 652 -1177 0
-750 652 1178 0
-750 748 -1178 0
-751 610 1179 0
-751 -1179 1180 0
-751 724 -1179 1181 0
-751 -1181 1182 0
-751 728 -1181 0
-751 724 1180 0
-751 728 -1180 1182 0
-751 760 -1182 0
-752 719 1183 0
-752 -1183 1184 0
-752 723 -1183 0
-752 723 1184 0
-752 737 -1184 0
-753 634 1185 0
-753 -1185 1186 0
-753 638 -1185 1187 0
-753 -1187 1188 0
-753 676 -1187 0
-753 638 1186 0
-753 676 -1186 1188 0
-753 755 -1188 0
-754 640 1189 0
-754 -1189 1190 0
-754 653 -1189 0
-754 653 1190 0
-754 660 -1190 0
-755 639 1191 0
-755 -1191 1192 0
-755 677 -1191 0
-755 677 1192 0
-755 753 -1192 0
-756 667 0
-756 698 0
-757 683 1193 0
-757 -1193 1194 0
-757 686 -1193 1195 0
-757 -1195 1196 0
-757 711 -1195 0
-757 686 1194 0
-757 711 -1194 1196 0
-757 759 -1196 0
-758 691 1197 0
-758 -1197 1198 0
-758 699 -1197 0
-758 699 1198 0
-758 702 -1198 0
-759 688 1199 0
-759 -1199 1200 0
-759 716 -1199 0
-759 716 1200 0
-759 757 -1200 0
-760 709 1201 0
-760 -1201 1202 0
-760 729 -1201 0
-760 729 1202 0
-760 751 -1202 0
-502 1203 0
-501 1203 0
-501 -502 1204 0
-504 1205 0
-503 1205 0
-503 -504 1206 0
-506 1207 0
-505 1207 0
-505 -506 1208 0
-508 1209 0
-507 1209 0
-507 -508 1210 0
-510 1211 0
-509 1211 0
-509 -510 1212 0
-512 1213 0
-511 1213 0
-511 -512 1214 0
-514 1215 0
-513 1215 0
-513 -514 1216 0
-516 1217 0
-515 1217 0
-515 -516 1218 0
-518 1219 0
-517 1219 0
-517 -518 1220 0
-520 1221 0
-519 1221 0
-519 -520 1222 0
-522 1223 0
-521 1223 0
-521 -522 1224 0
-524 1225 0
-523 1225 0
-523 -524 1226 0
-526 1227 0
-525 1227 0
-525 -526 1228 0
-528 1229 0
-527 1229 0
-527 -528 1230 0
-530 1231 0
-529 1231 0
-529 -530 1232 0
-532 1233 0
-531 1233 0
-531 -532 1234 0
-534 1235 0
-533 1235 0
-533 -534 1236 0
-536 1237 0
-535 1237 0
-535 -536 1238 0
-538 1239 0
-537 1239 0
-537 -538 1240 0
-540 1241 0
-539 1241 0
-539 -540 1242 0
-542 1243 0
-541 1243 0
-541 -542 1244 0
-544 1245 0
-543 1245 0
-543 -544 1246 0
-546 1247 0
-545 1247 0
-545 -546 1248 0
-548 1249 0
-547 1249 0
-547 -548 1250 0
-550 1251 0
-549 1251 0
-549 -550 1252 0
-552 1253 0
-551 1253 0
-551 -552 1254 0
-554 1255 0
-553 1255 0
-553 -554 1256 0
-556 1257 0
-555 1257 0
-555 -556 1258 0
-558 1259 0
-557 1259 0
-557 -558 1260 0
-560 1261 0
-559 1261 0
-559 -560 1262 0
-562 1263 0
-561 1263 0
-561 -562 1264 0
-564 1265 0
-563 1265 0
-563 -564 1266 0
-566 1267 0
-565 1267 0
-565 -566 1268 0
-568 1269 0
-567 1269 0
-567 -568 1270 0
-570 1271 0
-569 1271 0
-569 -570 1272 0
-572 1273 0
-571 1273 0
-571 -572 1274 0
-574 1275 0
-573 1275 0
-573 -574 1276 0
-576 1277 0
-575 1277 0
-575 -576 1278 0
-578 1279 0
-577 1279 0
-577 -578 1280 0
-580 1281 0
-579 1281 0
-579 -580 1282 0
-582 1283 0
-581 1283 0
-581 -582 1284 0
-584 1285 0
-583 1285 0
-583 -584 1286 0
-586 1287 0
-585 1287 0
-585 -586 1288 0
-588 1289 0
-587 1289 0
-587 -588 1290 0
-590 1291 0
-589 1291 0
-589 -590 1292 0
-592 1293 0
-591 1293 0
-591 -592 1294 0
-594 1295 0
-593 1295 0
-593 -594 1296 0
-596 1297 0
-595 1297 0
-595 -596 1298 0
-598 1299 0
-597 1299 0
-597 -598 1300 0
-600 1301 0
-599 1301 0
-599 -600 1302 0
-602 1303 0
-601 1303 0
-601 -602 1304 0
-604 1305 0
-603 1305 0
-603 -604 1306 0
-606 1307 0
-605 1307 0
-605 -606 1308 0
-608 1309 0
-607 1309 0
-607 -608 1310 0
-610 1311 0
-609 1311 0
-609 -610 1312 0
-612 1313 0
-611 1313 0
-611 -612 1314 0
-614 1315 0
-613 1315 0
-613 -614 1316 0
-616 1317 0
-615 1317 0
-615 -616 1318 0
-618 1319 0
-617 1319 0
-617 -618 1320 0
-620 1321 0
-619 1321 0
-619 -620 1322 0
-622 1323 0
-621 1323 0
-621 -622 1324 0
-624 1325 0
-623 1325 0
-623 -624 1326 0
-626 1327 0
-625 1327 0
-625 -626 1328 0
-628 1329 0
-627 1329 0
-627 -628 1330 0
-630 1331 0
-629 1331 0
-629 -630 1332 0
-632 1333 0
-631 1333 0
-631 -632 1334 0
-634 1335 0
-633 1335 0
-633 -634 1336 0
-636 1337 0
-635 1337 0
-635 -636 1338 0
-638 1339 0
-637 1339 0
-637 -638 1340 0
-640 1341 0
-639 1341 0
-639 -640 1342 0
-642 1343 0
-641 1343 0
-641 -642 1344 0
-644 1345 0
-643 1345 0
-643 -644 1346 0
-646 1347 0
-645 1347 0
-645 -646 1348 0
-648 1349 0
-647 1349 0
-647 -648 1350 0
-650 1351 0
-649 1351 0
-649 -650 1352 0
-652 1353 0
-651 1353 0
-651 -652 1354 0
-654 1355 0
-653 1355 0
-653 -654 1356 0
-656 1357 0
-655 1357 0
-655 -656 1358 0
-658 1359 0
-657 1359 0
-657 -658 1360 0
-660 1361 0
-659 1361 0
-659 -660 1362 0
-662 1363 0
-661 1363 0
-661 -662 1364 0
-664 1365 0
-663 1365 0
-663 -664 1366 0
-666 1367 0
-665 1367 0
-665 -666 1368 0
-668 1369 0
-667 1369 0
-667 -668 1370 0
-670 1371 0
-669 1371 0
-669 -670 1372 0
-672 1373 0
-671 1373 0
-671 -672 1374 0
-674 1375 0
-673 1375 0
-673 -674 1376 0
-676 1377 0
-675 1377 0
-675 -676 1378 0
-678 1379 0
-677 1379 0
-677 -678 1380 0
-680 1381 0
-679 1381 0
-679 -680 1382 0
-682 1383 0
-681 1383 0
-681 -682 1384 0
-684 1385 0
-683 1385 0
-683 -684 1386 0
-686 1387 0
-685 1387 0
-685 -686 1388 0
-688 1389 0
-687 1389 0
-687 -688 1390 0
-690 1391 0
-689 1391 0
-689 -690 1392 0
-692 1393 0
-691 1393 0
-691 -692 1394 0
-694 1395 0
-693 1395 0
-693 -694 1396 0
-696 1397 0
-695 1397 0
-695 -696 1398 0
-698 1399 0
-697 1399 0
-697 -698 1400 0
-700 1401 0
-699 1401 0
-699 -700 1402 0
-702 1403 0
-701 1403 0
-701 -702 1404 0
-704 1405 0
-703 1405 0
-703 -704 1406 0
-706 1407 0
-705 1407 0
-705 -706 1408 0
-708 1409 0
-707 1409 0
-707 -708 1410 0
-710 1411 0
-709 1411 0
-709 -710 1412 0
-712 1413 0
-711 1413 0
-711 -712 1414 0
-714 1415 0
-713 1415 0
-713 -714 1416 0
-716 1417 0
-715 1417 0
-715 -716 1418 0
-718 1419 0
-717 1419 0
-717 -718 1420 0
-720 1421 0
-719 1421 0
-719 -720 1422 0
-722 1423 0
-721 1423 0
-721 -722 1424 0
-724 1425 0
-723 1425 0
-723 -724 1426 0
-726 1427 0
-725 1427 0
-725 -726 1428 0
-728 1429 0
-727 1429 0
-727 -728 1430 0
-730 1431 0
-729 1431 0
-729 -730 1432 0
-732 1433 0
-731 1433 0
-731 -732 1434 0
-734 1435 0
-733 1435 0
-733 -734 1436 0
-736 1437 0
-735 1437 0
-735 -736 1438 0
-738 1439 0
-737 1439 0
-737 -738 1440 0
-740 1441 0
-739 1441 0
-739 -740 1442 0
-742 1443 0
-741 1443 0
-741 -742 1444 0
-744 1445 0
-743 1445 0
-743 -744 1446 0
-746 1447 0
-745 1447 0
-745 -746 1448 0
-748 1449 0
-747 1449 0
-747 -748 1450 0
-750 1451 0
-749 1451 0
-749 -750 1452 0
-752 1453 0
-751 1453 0
-751 -752 1454 0
-754 1455 0
-753 1455 0
-753 -754 1456 0
-756 1457 0
-755 1457 0
-755 -756 1458 0
-758 1459 0
-757 1459 0
-757 -758 1460 0
-760 1461 0
-759 1461 0
-759 -760 1462 0
-1205 1463 0
-1206 1464 0
-1203 1463 0
-1204 1464 0
-1203 -1205 1464 0
-1203 -1206 1465 0
-1204 -1205 1465 0
-1204 -1206 1466 0
-1209 1467 0
-1210 1468 0
-1207 1467 0
-1208 1468 0
-1207 -1209 1468 0
-1207 -1210 1469 0
-1208 -1209 1469 0
-1208 -1210 1470 0
-1213 1471 0
-1214 1472 0
-1211 1471 0
-1212 1472 0
-1211 -1213 1472 0
-1211 -1214 1473 0
-1212 -1213 1473 0
-1212 -1214 1474 0
-1217 1475 0
-1218 1476 0
-1215 1475 0
-1216 1476 0
-1215 -1217 1476 0
-1215 -1218 1477 0
-1216 -1217 1477 0
-1216 -1218 1478 0
-1221 1479 0
-1222 1480 0
-1219 1479 0
-1220 1480 0
-1219 -1221 1480 0
-1219 -1222 1481 0
-1220 -1221 1481 0
-1220 -1222 1482 0
-1225 1483 0
-1226 1484 0
-1223 1483 0
-1224 1484 0
-1223 -1225 1484 0
-1223 -1226 1485 0
-1224 -1225 1485 0
-1224 -1226 1486 0
-1229 1487 0
-1230 1488 0
-1227 1487 0
-1228 1488 0
-1227 -1229 1488 0
-1227 -1230 1489 0
-1228 -1229 1489 0
-1228 -1230 1490 0
-1233 1491 0
-1234 1492 0
-1231 1491 0
-1232 1492 0
-1231 -1233 1492 0
-1231 -1234 1493 0
-1232 -1233 1493 0
-1232 -1234 1494 0
-1237 1495 0
-1238 1496 0
-1235 1495 0
-1236 1496 0
-1235 -1237 1496 0
-1235 -1238 1497 0
-1236 -1237 1497 0
-1236 -1238 1498 0
-1241 1499 0
-1242 1500 0
-1239 1499 0
-1240 1500 0
-1239 -1241 1500 0
-1239 -1242 1501 0
-1240 -1241 1501 0
-1240 -1242 1502 0
-1245 1503 0
-1246 1504 0
-1243 1503 0
-1244 1504 0
-1243 -1245 1504 0
-1243 -1246 1505 0
-1244 -1245 1505 0
-1244 -1246 1506 0
-1249 1507 0
-1250 1508 0
-1247 1507 0
-1248 1508 0
-1247 -1249 1508 0
-1247 -1250 1509 0
-1248 -1249 1509 0
-1248 -1250 1510 0
-1253 1511 0
-1254 1512 0
-1251 1511 0
-1252 1512 0
-1251 -1253 1512 0
-1251 -1254 1513 0
-1252 -1253 1513 0
-1252 -1254 1514 0
-1257 1515 0
-1258 1516 0
-1255 1515 0
-1256 1516 0
-1255 -1257 1516 0
-1255 -1258 1517 0
-1256 -1257 1517 0
-1256 -1258 1518 0
-1261 1519 0
-1262 1520 0
-1259 1519 0
-1260 1520 0
-1259 -1261 1520 0
-1259 -1262 1521 0
-1260 -1261 1521 0
-1260 -1262 1522 0
-1265 1523 0
-1266 1524 0
-1263 1523 0
-1264 1524 0
-1263 -1265 1524 0
-1263 -1266 1525 0
-1264 -1265 1525 0
-1264 -1266 1526 0
-1269 1527 0
-1270 1528 0
-1267 1527 0
-1268 1528 0
-1267 -1269 1528 0
-1267 -1270 1529 0
-1268 -1269 1529 0
-1268 -1270 1530 0
-1273 1531 0
-1274 1532 0
-1271 1531 0
-1272 1532 0
-1271 -1273 1532 0
-1271 -1274 1533 0
-1272 -1273 1533 0
-1272 -1274 1534 0
-1277 1535 0
-1278 1536 0
-1275 1535 0
-1276 1536 0
-1275 -1277 1536 0
-1275 -1278 1537 0
-1276 -1277 1537 0
-1276 -1278 1538 0
-1281 1539 0
-1282 1540 0
-1279 1539 0
-1280 1540 0
-1279 -1281 1540 0
-1279 -1282 1541 0
-1280 -1281 1541 0
-1280 -1282 1542 0
-1285 1543 0
-1286 1544 0
-1283 1543 0
-1284 1544 0
-1283 -1285 1544 0
-1283 -1286 1545 0
-1284 -1285 1545 0
-1284 -1286 1546 0
-1289 1547 0
-1290 1548 0
-1287 1547 0
-1288 1548 0
-1287 -1289 1548 0
-1287 -1290 1549 0
-1288 -1289 1549 0
-1288 -1290 1550 0
-1293 1551 0
-1294 1552 0
-1291 1551 0
-1292 1552 0
-1291 -1293 1552 0
-1291 -1294 1553 0
-1292 -1293 1553 0
-1292 -1294 1554 0
-1297 1555 0
-1298 1556 0
-1295 1555 0
-1296 1556 0
-1295 -1297 1556 0
-1295 -1298 1557 0
-1296 -1297 1557 0
-1296 -1298 1558 0
-1301 1559 0
-1302 1560 0
-1299 1559 0
-1300 1560 0
-1299 -1301 1560 0
-1299 -1302 1561 0
-1300 -1301 1561 0
-1300 -1302 1562 0
-1305 1563 0
-1306 1564 0
-1303 1563 0
-1304 1564 0
-1303 -1305 1564 0
-1303 -1306 1565 0
-1304 -1305 1565 0
-1304 -1306 1566 0
-1309 1567 0
-1310 1568 0
-1307 1567 0
-1308 1568 0
-1307 -1309 1568 0
-1307 -1310 1569 0
-1308 -1309 1569 0
-1308 -1310 1570 0
-1313 1571 0
-1314 1572 0
-1311 1571 0
-1312 1572 0
-1311 -1313 1572 0
-1311 -1314 1573 0
-1312 -1313 1573 0
-1312 -1314 1574 0
-1317 1575 0
-1318 1576 0
-1315 1575 0
-1316 1576 0
-1315 -1317 1576 0
-1315 -1318 1577 0
-1316 -1317 1577 0
-1316 -1318 1578 0
-1321 1579 0
-1322 1580 0
-1319 1579 0
-1320 1580 0
-1319 -1321 1580 0
-1319 -1322 1581 0
-1320 -1321 1581 0
-1320 -1322 1582 0
-1325 1583 0
-1326 1584 0
-1323 1583 0
-1324 1584 0
-1323 -1325 1584 0
-1323 -1326 1585 0
-1324 -1325 1585 0
-1324 -1326 1586 0
-1329 1587 0
-1330 1588 0
-1327 1587 0
-1328 1588 0
-1327 -1329 1588 0
-1327 -1330 1589 0
-1328 -1329 1589 0
-1328 -1330 1590 0
-1333 1591 0
-1334 1592 0
-1331 1591 0
-1332 1592 0
-1331 -1333 1592 0
-1331 -1334 1593 0
-1332 -1333 1593 0
-1332 -1334 1594 0
-1337 1595 0
-1338 1596 0
-1335 1595 0
-1336 1596 0
-1335 -1337 1596 0
-1335 -1338 1597 0
-1336 -1337 1597 0
-1336 -1338 1598 0
-1341 1599 0
-1342 1600 0
-1339 1599 0
-1340 1600 0
-1339 -1341 1600 0
-1339 -1342 1601 0
-1340 -1341 1601 0
-1340 -1342 1602 0
-1345 1603 0
-1346 1604 0
-1343 1603 0
-1344 1604 0
-1343 -1345 1604 0
-1343 -1346 1605 0
-1344 -1345 1605 0
-1344 -1346 1606 0
-1349 1607 0
-1350 1608 0
-1347 1607 0
-1348 1608 0
-1347 -1349 1608 0
-1347 -1350 1609 0
-1348 -1349 1609 0
-1348 -1350 1610 0
-1353 1611 0
-1354 1612 0
-1351 1611 0
-1352 1612 0
-1351 -1353 1612 0
-1351 -1354 1613 0
-1352 -1353 1613 0
-1352 -1354 1614 0
-1357 1615 0
-1358 1616 0
-1355 1615 0
-1356 1616 0
-1355 -1357 1616 0
-1355 -1358 1617 0
-1356 -1357 1617 0
-1356 -1358 1618 0
-1361 1619 0
-1362 1620 0
-1359 1619 0
-1360 1620 0
-1359 -1361 1620 0
-1359 -1362 1621 0
-1360 -1361 1621 0
-1360 -1362 1622 0
-1365 1623 0
-1366 1624 0
-1363 1623 0
-1364 1624 0
-1363 -1365 1624 0
-1363 -1366 1625 0
-1364 -1365 1625 0
-1364 -1366 1626 0
-1369 1627 0
-1370 1628 0
-1367 1627 0
-1368 1628 0
-1367 -1369 1628 0
-1367 -1370 1629 0
-1368 -1369 1629 0
-1368 -1370 1630 0
-1373 1631 0
-1374 1632 0
-1371 1631 0
-1372 1632 0
-1371 -1373 1632 0
-1371 -1374 1633 0
-1372 -1373 1633 0
-1372 -1374 1634 0
-1377 1635 0
-1378 1636 0
-1375 1635 0
-1376 1636 0
-1375 -1377 1636 0
-1375 -1378 1637 0
-1376 -1377 1637 0
-1376 -1378 1638 0
-1381 1639 0
-1382 1640 0
-1379 1639 0
-1380 1640 0
-1379 -1381 1640 0
-1379 -1382 1641 0
-1380 -1381 1641 0
-1380 -1382 1642 0
-1385 1643 0
-1386 1644 0
-1383 1643 0
-1384 1644 0
-1383 -1385 1644 0
-1383 -1386 1645 0
-1384 -1385 1645 0
-1384 -1386 1646 0
-1389 1647 0
-1390 1648 0
-1387 1647 0
-1388 1648 0
-1387 -1389 1648 0
-1387 -1390 1649 0
-1388 -1389 1649 0
-1388 -1390 1650 0
-1393 1651 0
-1394 1652 0
-1391 1651 0
-1392 1652 0
-1391 -1393 1652 0
-1391 -1394 1653 0
-1392 -1393 1653 0
-1392 -1394 1654 0
-1397 1655 0
-1398 1656 0
-1395 1655 0
-1396 1656 0
-1395 -1397 1656 0
-1395 -1398 1657 0
-1396 -1397 1657 0
-1396 -1398 1658 0
-1401 1659 0
-1402 1660 0
-1399 1659 0
-1400 1660 0
-1399 -1401 1660 0
-1399 -1402 1661 0
-1400 -1401 1661 0
-1400 -1402 1662 0
-1405 1663 0
-1406 1664 0
-1403 1663 0
-1404 1664 0
-1403 -1405 1664 0
-1403 -1406 1665 0
-1404 -1405 1665 0
-1404 -1406 1666 0
-1409 1667 0
-1410 1668 0
-1407 1667 0
-1408 1668 0
-1407 -1409 1668 0
-1407 -1410 1669 0
-1408 -1409 1669 0
-1408 -1410 1670 0
-1413 1671 0
-1414 1672 0
-1411 1671 0
-1412 1672 0
-1411 -1413 1672 0
-1411 -1414 1673 0
-1412 -1413 1673 0
-1412 -1414 1674 0
-1417 1675 0
-1418 1676 0
-1415 1675 0
-1416 1676 0
-1415 -1417 1676 0
-1415 -1418 1677 0
-1416 -1417 1677 0
-1416 -1418 1678 0
-1421 1679 0
-1422 1680 0
-1419 1679 0
-1420 1680 0
-1419 -1421 1680 0
-1419 -1422 1681 0
-1420 -1421 1681 0
-1420 -1422 1682 0
-1425 1683 0
-1426 1684 0
-1423 1683 0
-1424 1684 0
-1423 -1425 1684 0
-1423 -1426 1685 0
-1424 -1425 1685 0
-1424 -1426 1686 0
-1429 1687 0
-1430 1688 0
-1427 1687 0
-1428 1688 0
-1427 -1429 1688 0
-1427 -1430 1689 0
-1428 -1429 1689 0
-1428 -1430 1690 0
-1433 1691 0
-1434 1692 0
-1431 1691 0
-1432 1692 0
-1431 -1433 1692 0
-1431 -1434 1693 0
-1432 -1433 1693 0
-1432 -1434 1694 0
-1437 1695 0
-1438 1696 0
-1435 1695 0
-1436 1696 0
-1435 -1437 1696 0
-1435 -1438 1697 0
-1436 -1437 1697 0
-1436 -1438 1698 0
-1441 1699 0
-1442 1700 0
-1439 1699 0
-1440 1700 0
-1439 -1441 1700 0
-1439 -1442 1701 0
-1440 -1441 1701 0
-1440 -1442 1702 0
-1445 1703 0
-1446 1704 0
-1443 1703 0
-1444 1704 0
-1443 -1445 1704 0
-1443 -1446 1705 0
-1444 -1445 1705 0
-1444 -1446 1706 0
-1449 1707 0
-1450 1708 0
-1447 1707 0
-1448 1708 0
-1447 -1449 1708 0
-1447 -1450 1709 0
-1448 -1449 1709 0
-1448 -1450 1710 0
-1453 1711 0
-1454 1712 0
-1451 1711 0
-1452 1712 0
-1451 -1453 1712 0
-1451 -1454 1713 0
-1452 -1453 1713 0
-1452 -1454 1714 0
-1457 1715 0
-1458 1716 0
-1455 1715 0
-1456 1716 0
-1455 -1457 1716 0
-1455 -1458 1717 0
-1456 -1457 1717 0
-1456 -1458 1718 0
-1461 1719 0
-1462 1720 0
-1459 1719 0
-1460 1720 0
-1459 -1461 1720 0
-1459 -1462 1721 0
-1460 -1461 1721 0
-1460 -1462 1722 0
-1467 1723 0
-1468 1724 0
-1469 1725 0
-1470 1726 0
-1463 1723 0
-1464 1724 0
-1465 1725 0
-1466 1726 0
-1463 -1467 1724 0
-1463 -1468 1725 0
-1463 -1469 1726 0
-1463 -1470 1727 0
-1464 -1467 1725 0
-1464 -1468 1726 0
-1464 -1469 1727 0
-1464 -1470 1728 0
-1465 -1467 1726 0
-1465 -1468 1727 0
-1465 -1469 1728 0
-1465 -1470 1729 0
-1466 -1467 1727 0
-1466 -1468 1728 0
-1466 -1469 1729 0
-1466 -1470 1730 0
-1475 1731 0
-1476 1732 0
-1477 1733 0
-1478 1734 0
-1471 1731 0
-1472 1732 0
-1473 1733 0
-1474 1734 0
-1471 -1475 1732 0
-1471 -1476 1733 0
-1471 -1477 1734 0
-1471 -1478 1735 0
-1472 -1475 1733 0
-1472 -1476 1734 0
-1472 -1477 1735 0
-1472 -1478 1736 0
-1473 -1475 1734 0
-1473 -1476 1735 0
-1473 -1477 1736 0
-1473 -1478 1737 0
-1474 -1475 1735 0
-1474 -1476 1736 0
-1474 -1477 1737 0
-1474 -1478 1738 0
-1483 1739 0
-1484 1740 0
-1485 1741 0
-1486 1742 0
-1479 1739 0
-1480 1740 0
-1481 1741 0
-1482 1742 0
-1479 -1483 1740 0
-1479 -1484 1741 0
-1479 -1485 1742 0
-1479 -1486 1743 0
-1480 -1483 1741 0
-1480 -1484 1742 0
-1480 -1485 1743 0
-1480 -1486 1744 0
-1481 -1483 1742 0
-1481 -1484 1743 0
-1481 -1485 1744 0
-1481 -1486 1745 0
-1482 -1483 1743 0
-1482 -1484 1744 0
-1482 -1485 1745 0
-1482 -1486 1746 0
-1491 1747 0
-1492 1748 0
-1493 1749 0
-1494 1750 0
-1487 1747 0
-1488 1748 0
-1489 1749 0
-1490 1750 0
-1487 -1491 1748 0
-1487 -1492 1749 0
-1487 -1493 1750 0
-1487 -1494 1751 0
-1488 -1491 1749 0
-1488 -1492 1750 0
-1488 -1493 1751 0
-1488 -1494 1752 0
-1489 -1491 1750 0
-1489 -1492 1751 0
-1489 -1493 1752 0
-1489 -1494 1753 0
-1490 -1491 1751 0
-1490 -1492 1752 0
-1490 -1493 1753 0
-1490 -1494 1754 0
-1499 1755 0
-1500 1756 0
-1501 1757 0
-1502 1758 0
-1495 1755 0
-1496 1756 0
-1497 1757 0
-1498 1758 0
-1495 -1499 1756 0
-1495 -1500 1757 0
-1495 -1501 1758 0
-1495 -1502 1759 0
-1496 -1499 1757 0
-1496 -1500 1758 0
-1496 -1501 1759 0
-1496 -1502 1760 0
-1497 -1499 1758 0
-1497 -1500 1759 0
-1497 -1501 1760 0
-1497 -1502 1761 0
-1498 -1499 1759 0
-1498 -1500 1760 0
-1498 -1501 1761 0
-1498 -1502 1762 0
-1507 1763 0
-1508 1764 0
-1509 1765 0
-1510 1766 0
-1503 1763 0
-1504 1764 0
-1505 1765 0
-1506 1766 0
-1503 -1507 1764 0
-1503 -1508 1765 0
-1503 -1509 1766 0
-1503 -1510 1767 0
-1504 -1507 1765 0
-1504 -1508 1766 0
-1504 -1509 1767 0
-1504 -1510 1768 0
-1505 -1507 1766 0
-1505 -1508 1767 0
-1505 -1509 1768 0
-1505 -1510 1769 0
-1506 -1507 1767 0
-1506 -1508 1768 0
-1506 -1509 1769 0
-1506 -1510 1770 0
-1515 1771 0
-1516 1772 0
-1517 1773 0
-1518 1774 0
-1511 1771 0
-1512 1772 0
-1513 1773 0
-1514 1774 0
-1511 -1515 1772 0
-1511 -1516 1773 0
-1511 -1517 1774 0
-1511 -1518 1775 0
-1512 -1515 1773 0
-1512 -1516 1774 0
-1512 -1517 1775 0
-1512 -1518 1776 0
-1513 -1515 1774 0
-1513 -1516 1775 0
-1513 -1517 1776 0
-1513 -1518 1777 0
-1514 -1515 1775 0
-1514 -1516 1776 0
-1514 -1517 1777 0
-1514 -1518 1778 0
-1523 1779 0
-1524 1780 0
-1525 1781 0
-1526 1782 0
-1519 1779 0
-1520 1780 0
-1521 1781 0
-1522 1782 0
-1519 -1523 1780 0
-1519 -1524 1781 0
-1519 -1525 1782 0
-1519 -1526 1783 0
-1520 -1523 1781 0
-1520 -1524 1782 0
-1520 -1525 1783 0
-1520 -1526 1784 0
-1521 -1523 1782 0
-1521 -1524 1783 0
-1521 -1525 1784 0
-1521 -1526 1785 0
-1522 -1523 1783 0
-1522 -1524 1784 0
-1522 -1525 1785 0
-1522 -1526 1786 0
-1531 1787 0
-1532 1788 0
-1533 1789 0
-1534 1790 0
-1527 1787 0
-1528 1788 0
-1529 1789 0
-1530 1790 0
-1527 -1531 1788 0
-1527 -1532 1789 0
-1527 -1533 1790 0
-1527 -1534 1791 0
-1528 -1531 1789 0
-1528 -1532 1790 0
-1528 -1533 1791 0
-1528 -1534 1792 0
-1529 -1531 1790 0
-1529 -1532 1791 0
-1529 -1533 1792 0
-1529 -1534 1793 0
-1530 -1531 1791 0
-1530 -1532 1792 0
-1530 -1533 1793 0
-1530 -1534 1794 0
-1539 1795 0
-1540 1796 0
-1541 1797 0
-1542 1798 0
-1535 1795 0
-1536 1796 0
-1537 1797 0
-1538 1798 0
-1535 -1539 1796 0
-1535 -1540 1797 0
-1535 -1541 1798 0
-1535 -1542 1799 0
-1536 -1539 1797 0
-1536 -1540 1798 0
-1536 -1541 1799 0
-1536 -1542 1800 0
-1537 -1539 1798 0
-1537 -1540 1799 0
-1537 -1541 1800 0
-1537 -1542 1801 0
-1538 -1539 1799 0
-1538 -1540 1800 0
-1538 -1541 1801 0
-1538 -1542 1802 0
-1547 1803 0
-1548 1804 0
-1549 1805 0
-1550 1806 0
-1543 1803 0
-1544 1804 0
-1545 1805 0
-1546 1806 0
-1543 -1547 1804 0
-1543 -1548 1805 0
-1543 -1549 1806 0
-1543 -1550 1807 0
-1544 -1547 1805 0
-1544 -1548 1806 0
-1544 -1549 1807 0
-1544 -1550 1808 0
-1545 -1547 1806 0
-1545 -1548 1807 0
-1545 -1549 1808 0
-1545 -1550 1809 0
-1546 -1547 1807 0
-1546 -1548 1808 0
-1546 -1549 1809 0
-1546 -1550 1810 0
-1555 1811 0
-1556 1812 0
-1557 1813 0
-1558 1814 0
-1551 1811 0
-1552 1812 0
-1553 1813 0
-1554 1814 0
-1551 -1555 1812 0
-1551 -1556 1813 0
-1551 -1557 1814 0
-1551 -1558 1815 0
-1552 -1555 1813 0
-1552 -1556 1814 0
-1552 -1557 1815 0
-1552 -1558 1816 0
-1553 -1555 1814 0
-1553 -1556 1815 0
-1553 -1557 1816 0
-1553 -1558 1817 0
-1554 -1555 1815 0
-1554 -1556 1816 0
-1554 -1557 1817 0
-1554 -1558 1818 0
-1563 1819 0
-1564 1820 0
-1565 1821 0
-1566 1822 0
-1559 1819 0
-1560 1820 0
-1561 1821 0
-1562 1822 0
-1559 -1563 1820 0
-1559 -1564 1821 0
-1559 -1565 1822 0
-1559 -1566 1823 0
-1560 -1563 1821 0
-1560 -1564 1822 0
-1560 -1565 1823 0
-1560 -1566 1824 0
-1561 -1563 1822 0
-1561 -1564 1823 0
-1561 -1565 1824 0
-1561 -1566 1825 0
-1562 -1563 1823 0
-1562 -1564 1824 0
-1562 -1565 1825 0
-1562 -1566 1826 0
-1571 1827 0
-1572 1828 0
-1573 1829 0
-1574 1830 0
-1567 1827 0
-1568 1828 0
-1569 1829 0
-1570 1830 0
-1567 -1571 1828 0
-1567 -1572 1829 0
-1567 -1573 1830 0
-1567 -1574 1831 0
-1568 -1571 1829 0
-1568 -1572 1830 0
-1568 -1573 1831 0
-1568 -1574 1832 0
-1569 -1571 1830 0
-1569 -1572 1831 0
-1569 -1573 1832 0
-1569 -1574 1833 0
-1570 -1571 1831 0
-1570 -1572 1832 0
-1570 -1573 1833 0
-1570 -1574 1834 0
-1579 1835 0
-1580 1836 0
-1581 1837 0
-1582 1838 0
-1575 1835 0
-1576 1836 0
-1577 1837 0
-1578 1838 0
-1575 -1579 1836 0
-1575 -1580 1837 0
-1575 -1581 1838 0
-1575 -1582 1839 0
-1576 -1579 1837 0
-1576 -1580 1838 0
-1576 -1581 1839 0
-1576 -1582 1840 0
-1577 -1579 1838 0
-1577 -1580 1839 0
-1577 -1581 1840 0
-1577 -1582 1841 0
-1578 -1579 1839 0
-1578 -1580 1840 0
-1578 -1581 1841 0
-1578 -1582 1842 0
-1587 1843 0
-1588 1844 0
-1589 1845 0
-1590 1846 0
-1583 1843 0
-1584 1844 0
-1585 1845 0
-1586 1846 0
-1583 -1587 1844 0
-1583 -1588 1845 0
-1583 -1589 1846 0
-1583 -1590 1847 0
-1584 -1587 1845 0
-1584 -1588 1846 0
-1584 -1589 1847 0
-1584 -1590 1848 0
-1585 -1587 1846 0
-1585 -1588 1847 0
-1585 -1589 1848 0
-1585 -1590 1849 0
-1586 -1587 1847 0
-1586 -1588 1848 0
-1586 -1589 1849 0
-1586 -1590 1850 0
-1595 1851 0
-1596 1852 0
-1597 1853 0
-1598 1854 0
-1591 1851 0
-1592 1852 0
-1593 1853 0
-1594 1854 0
-1591 -1595 1852 0
-1591 -1596 1853 0
-1591 -1597 1854 0
-1591 -1598 1855 0
-1592 -1595 1853 0
-1592 -1596 1854 0
-1592 -1597 1855 0
-1592 -1598 1856 0
-1593 -1595 1854 0
-1593 -1596 1855 0
-1593 -1597 1856 0
-1593 -1598 1857 0
-1594 -1595 1855 0
-1594 -1596 1856 0
-1594 -1597 1857 0
-1594 -1598 1858 0
-1603 1859 0
-1604 1860 0
-1605 1861 0
-1606 1862 0
-1599 1859 0
-1600 1860 0
-1601 1861 0
-1602 1862 0
-1599 -1603 1860 0
-1599 -1604 1861 0
-1599 -1605 1862 0
-1599 -1606 1863 0
-1600 -1603 1861 0
-1600 -1604 1862 0
-1600 -1605 1863 0
-1600 -1606 1864 0
-1601 -1603 1862 0
-1601 -1604 1863 0
-1601 -1605 1864 0
-1601 -1606 1865 0
-1602 -1603 1863 0
-1602 -1604 1864 0
-1602 -1605 1865 0
-1602 -1606 1866 0
-1611 1867 0
-1612 1868 0
-1613 1869 0
-1614 1870 0
-1607 1867 0
-1608 1868 0
-1609 1869 0
-1610 1870 0
-1607 -1611 1868 0
-1607 -1612 1869 0
-1607 -1613 1870 0
-1607 -1614 1871 0
-1608 -1611 1869 0
-1608 -1612 1870 0
-1608 -1613 1871 0
-1608 -1614 1872 0
-1609 -1611 1870 0
-1609 -1612 1871 0
-1609 -1613 1872 0
-1609 -1614 1873 0
-1610 -1611 1871 0
-1610 -1612 1872 0
-1610 -1613 1873 0
-1610 -1614 1874 0
-1619 1875 0
-1620 1876 0
-1621 1877 0
-1622 1878 0
-1615 1875 0
-1616 1876 0
-1617 1877 0
-1618 1878 0
-1615 -1619 1876 0
-1615 -1620 1877 0
-1615 -1621 1878 0
-1615 -1622 1879 0
-1616 -1619 1877 0
-1616 -1620 1878 0
-1616 -1621 1879 0
-1616 -1622 1880 0
-1617 -1619 1878 0
-1617 -1620 1879 0
-1617 -1621 1880 0
-1617 -1622 1881 0
-1618 -1619 1879 0
-1618 -1620 1880 0
-1618 -1621 1881 0
-1618 -1622 1882 0
-1627 1883 0
-1628 1884 0
-1629 1885 0
-1630 1886 0
-1623 1883 0
-1624 1884 0
-1625 1885 0
-1626 1886 0
-1623 -1627 1884 0
-1623 -1628 1885 0
-1623 -1629 1886 0
-1623 -1630 1887 0
-1624 -1627 1885 0
-1624 -1628 1886 0
-1624 -1629 1887 0
-1624 -1630 1888 0
-1625 -1627 1886 0
-1625 -1628 1887 0
-1625 -1629 1888 0
-1625 -1630 1889 0
-1626 -1627 1887 0
-1626 -1628 1888 0
-1626 -1629 1889 0
-1626 -1630 1890 0
-1635 1891 0
-1636 1892 0
-1637 1893 0
-1638 1894 0
-1631 1891 0
-1632 1892 0
-1633 1893 0
-1634 1894 0
-1631 -1635 1892 0
-1631 -1636 1893 0
-1631 -1637 1894 0
-1631 -1638 1895 0
-1632 -1635 1893 0
-1632 -1636 1894 0
-1632 -1637 1895 0
-1632 -1638 1896 0
-1633 -1635 1894 0
-1633 -1636 1895 0
-1633 -1637 1896 0
-1633 -1638 1897 0
-1634 -1635 1895 0
-1634 -1636 1896 0
-1634 -1637 1897 0
-1634 -1638 1898 0
-1643 1899 0
-1644 1900 0
-1645 1901 0
-1646 1902 0
-1639 1899 0
-1640 1900 0
-1641 1901 0
-1642 1902 0
-1639 -1643 1900 0
-1639 -1644 1901 0
-1639 -1645 1902 0
-1639 -1646 1903 0
-1640 -1643 1901 0
-1640 -1644 1902 0
-1640 -1645 1903 0
-1640 -1646 1904 0
-1641 -1643 1902 0
-1641 -1644 1903 0
-1641 -1645 1904 0
-1641 -1646 1905 0
-1642 -1643 1903 0
-1642 -1644 1904 0
-1642 -1645 1905 0
-1642 -1646 1906 0
-1651 1907 0
-1652 1908 0
-1653 1909 0
-1654 1910 0
-1647 1907 0
-1648 1908 0
-1649 1909 0
-1650 1910 0
-1647 -1651 1908 0
-1647 -1652 1909 0
-1647 -1653 1910 0
-1647 -1654 1911 0
-1648 -1651 1909 0
-1648 -1652 1910 0
-1648 -1653 1911 0
-1648 -1654 1912 0
-1649 -1651 1910 0
-1649 -1652 1911 0
-1649 -1653 1912 0
-1649 -1654 1913 0
-1650 -1651 1911 0
-1650 -1652 1912 0
-1650 -1653 1913 0
-1650 -1654 1914 0
-1659 1915 0
-1660 1916 0
-1661 1917 0
-1662 1918 0
-1655 1915 0
-1656 1916 0
-1657 1917 0
-1658 1918 0
-1655 -1659 1916 0
-1655 -1660 1917 0
-1655 -1661 1918 0
-1655 -1662 1919 0
-1656 -1659 1917 0
-1656 -1660 1918 0
-1656 -1661 1919 0
-1656 -1662 1920 0
-1657 -1659 1918 0
-1657 -1660 1919 0
-1657 -1661 1920 0
-1657 -1662 1921 0
-1658 -1659 1919 0
-1658 -1660 1920 0
-1658 -1661 1921 0
-1658 -1662 1922 0
-1667 1923 0
-1668 1924 0
-1669 1925 0
-1670 1926 0
-1663 1923 0
-1664 1924 0
-1665 1925 0
-1666 1926 0
-1663 -1667 1924 0
-1663 -1668 1925 0
-1663 -1669 1926 0
-1663 -1670 1927 0
-1664 -1667 1925 0
-1664 -1668 1926 0
-1664 -1669 1927 0
-1664 -1670 1928 0
-1665 -1667 1926 0
-1665 -1668 1927 0
-1665 -1669 1928 0
-1665 -1670 1929 0
-1666 -1667 1927 0
-1666 -1668 1928 0
-1666 -1669 1929 0
-1666 -1670 1930 0
-1675 1931 0
-1676 1932 0
-1677 1933 0
-1678 1934 0
-1671 1931 0
-1672 1932 0
-1673 1933 0
-1674 1934 0
-1671 -1675 1932 0
-1671 -1676 1933 0
-1671 -1677 1934 0
-1671 -1678 1935 0
-1672 -1675 1933 0
-1672 -1676 1934 0
-1672 -1677 1935 0
-1672 -1678 1936 0
-1673 -1675 1934 0
-1673 -1676 1935 0
-1673 -1677 1936 0
-1673 -1678 1937 0
-1674 -1675 1935 0
-1674 -1676 1936 0
-1674 -1677 1937 0
-1674 -1678 1938 0
-1683 1939 0
-1684 1940 0
-1685 1941 0
-1686 1942 0
-1679 1939 0
-1680 1940 0
-1681 1941 0
-1682 1942 0
-1679 -1683 1940 0
-1679 -1684 1941 0
-1679 -1685 1942 0
-1679 -1686 1943 0
-1680 -1683 1941 0
-1680 -1684 1942 0
-1680 -1685 1943 0
-1680 -1686 1944 0
-1681 -1683 1942 0
-1681 -1684 1943 0
-1681 -1685 1944 0
-1681 -1686 1945 0
-1682 -1683 1943 0
-1682 -1684 1944 0
-1682 -1685 1945 0
-1682 -1686 1946 0
-1691 1947 0
-1692 1948 0
-1693 1949 0
-1694 1950 0
-1687 1947 0
-1688 1948 0
-1689 1949 0
-1690 1950 0
-1687 -1691 1948 0
-1687 -1692 1949 0
-1687 -1693 1950 0
-1687 -1694 1951 0
-1688 -1691 1949 0
-1688 -1692 1950 0
-1688 -1693 1951 0
-1688 -1694 1952 0
-1689 -1691 1950 0
-1689 -1692 1951 0
-1689 -1693 1952 0
-1689 -1694 1953 0
-1690 -1691 1951 0
-1690 -1692 1952 0
-1690 -1693 1953 0
-1690 -1694 1954 0
-1699 1955 0
-1700 1956 0
-1701 1957 0
-1702 1958 0
-1695 1955 0
-1696 1956 0
-1697 1957 0
-1698 1958 0
-1695 -1699 1956 0
-1695 -1700 1957 0
-1695 -1701 1958 0
-1695 -1702 1959 0
-1696 -1699 1957 0
-1696 -1700 1958 0
-1696 -1701 1959 0
-1696 -1702 1960 0
-1697 -1699 1958 0
-1697 -1700 1959 0
-1697 -1701 1960 0
-1697 -1702 1961 0
-1698 -1699 1959 0
-1698 -1700 1960 0
-1698 -1701 1961 0
-1698 -1702 1962 0
-1707 1963 0
-1708 1964 0
-1709 1965 0
-1710 1966 0
-1703 1963 0
-1704 1964 0
-1705 1965 0
-1706 1966 0
-1703 -1707 1964 0
-1703 -1708 1965 0
-1703 -1709 1966 0
-1703 -1710 1967 0
-1704 -1707 1965 0
-1704 -1708 1966 0
-1704 -1709 1967 0
-1704 -1710 1968 0
-1705 -1707 1966 0
-1705 -1708 1967 0
-1705 -1709 1968 0
-1705 -1710 1969 0
-1706 -1707 1967 0
-1706 -1708 1968 0
-1706 -1709 1969 0
-1706 -1710 1970 0
-1715 1971 0
-1716 1972 0
-1717 1973 0
-1718 1974 0
-1711 1971 0
-1712 1972 0
-1713 1973 0
-1714 1974 0
-1711 -1715 1972 0
-1711 -1716 1973 0
-1711 -1717 1974 0
-1711 -1718 1975 0
-1712 -1715 1973 0
-1712 -1716 1974 0
-1712 -1717 1975 0
-1712 -1718 1976 0
-1713 -1715 1974 0
-1713 -1716 1975 0
-1713 -1717 1976 0
-1713 -1718 1977 0
-1714 -1715 1975 0
-1714 -1716 1976 0
-1714 -1717 1977 0
-1714 -1718 1978 0
-1723 1979 0
-1724 1980 0
-1725 1981 0
-1726 1982 0
-1727 1983 0
-1728 1984 0
-1729 1985 0
-1730 1986 0
-1719 1979 0
-1720 1980 0
-1721 1981 0
-1722 1982 0
-1719 -1723 1980 0
-1719 -1724 1981 0
-1719 -1725 1982 0
-1719 -1726 1983 0
-1719 -1727 1984 0
-1719 -1728 1985 0
-1719 -1729 1986 0
-1719 -1730 1987 0
-1720 -1723 1981 0
-1720 -1724 1982 0
-1720 -1725 1983 0
-1720 -1726 1984 0
-1720 -1727 1985 0
-1720 -1728 1986 0
-1720 -1729 1987 0
-1721 -1723 1982 0
-1721 -1724 1983 0
-1721 -1725 1984 0
-1721 -1726 1985 0
-1721 -1727 1986 0
-1721 -1728 1987 0
-1722 -1723 1983 0
-1722 -1724 1984 0
-1722 -1725 1985 0
-1722 -1726 1986 0
-1722 -1727 1987 0
-1739 1988 0
-1740 1989 0
-1741 1990 0
-1742 1991 0
-1743 1992 0
-1744 1993 0
-1745 1994 0
-1746 1995 0
-1731 1988 0
-1732 1989 0
-1733 1990 0
-1734 1991 0
-1735 1992 0
-1736 1993 0
-1737 1994 0
-1738 1995 0
-1731 -1739 1989 0
-1731 -1740 1990 0
-1731 -1741 1991 0
-1731 -1742 1992 0
-1731 -1743 1993 0
-1731 -1744 1994 0
-1731 -1745 1995 0
-1731 -1746 1996 0
-1732 -1739 1990 0
-1732 -1740 1991 0
-1732 -1741 1992 0
-1732 -1742 1993 0
-1732 -1743 1994 0
-1732 -1744 1995 0
-1732 -1745 1996 0
-1733 -1739 1991 0
-1733 -1740 1992 0
-1733 -1741 1993 0
-1733 -1742 1994 0
-1733 -1743 1995 0
-1733 -1744 1996 0
-1734 -1739 1992 0
-1734 -1740 1993 0
-1734 -1741 1994 0
-1734 -1742 1995 0
-1734 -1743 1996 0
-1735 -1739 1993 0
-1735 -1740 1994 0
-1735 -1741 1995 0
-1735 -1742 1996 0
-1736 -1739 1994 0
-1736 -1740 1995 0
-1736 -1741 1996 0
-1737 -1739 1995 0
-1737 -1740 1996 0
-1738 -1739 1996 0
-1755 1997 0
-1756 1998 0
-1757 1999 0
-1758 2000 0
-1759 2001 0
-1760 2002 0
-1761 2003 0
-1762 2004 0
-1747 1997 0
-1748 1998 0
-1749 1999 0
-1750 2000 0
-1751 2001 0
-1752 2002 0
-1753 2003 0
-1754 2004 0
-1747 -1755 1998 0
-1747 -1756 1999 0
-1747 -1757 2000 0
-1747 -1758 2001 0
-1747 -1759 2002 0
-1747 -1760 2003 0
-1747 -1761 2004 0
-1747 -1762 2005 0
-1748 -1755 1999 0
-1748 -1756 2000 0
-1748 -1757 2001 0
-1748 -1758 2002 0
-1748 -1759 2003 0
-1748 -1760 2004 0
-1748 -1761 2005 0
-1749 -1755 2000 0
-1749 -1756 2001 0
-1749 -1757 2002 0
-1749 -1758 2003 0
-1749 -1759 2004 0
-1749 -1760 2005 0
-1750 -1755 2001 0
-1750 -1756 2002 0
-1750 -1757 2003 0
-1750 -1758 2004 0
-1750 -1759 2005 0
-1751 -1755 2002 0
-1751 -1756 2003 0
-1751 -1757 2004 0
-1751 -1758 2005 0
-1752 -1755 2003 0
-1752 -1756 2004 0
-1752 -1757 2005 0
-1753 -1755 2004 0
-1753 -1756 2005 0
-1754 -1755 2005 0
-1771 2006 0
-1772 2007 0
-1773 2008 0
-1774 2009 0
-1775 2010 0
-1776 2011 0
-1777 2012 0
-1778 2013 0
-1763 2006 0
-1764 2007 0
-1765 2008 0
-1766 2009 0
-1767 2010 0
-1768 2011 0
-1769 2012 0
-1770 2013 0
-1763 -1771 2007 0
-1763 -1772 2008 0
-1763 -1773 2009 0
-1763 -1774 2010 0
-1763 -1775 2011 0
-1763 -1776 2012 0
-1763 -1777 2013 0
-1763 -1778 2014 0
-1764 -1771 2008 0
-1764 -1772 2009 0
-1764 -1773 2010 0
-1764 -1774 2011 0
-1764 -1775 2012 0
-1764 -1776 2013 0
-1764 -1777 2014 0
-1765 -1771 2009 0
-1765 -1772 2010 0
-1765 -1773 2011 0
-1765 -1774 2012 0
-1765 -1775 2013 0
-1765 -1776 2014 0
-1766 -1771 2010 0
-1766 -1772 2011 0
-1766 -1773 2012 0
-1766 -1774 2013 0
-1766 -1775 2014 0
-1767 -1771 2011 0
-1767 -1772 2012 0
-1767 -1773 2013 0
-1767 -1774 2014 0
-1768 -1771 2012 0
-1768 -1772 2013 0
-1768 -1773 2014 0
-1769 -1771 2013 0
-1769 -1772 2014 0
-1770 -1771 2014 0
-1787 2015 0
-1788 2016 0
-1789 2017 0
-1790 2018 0
-1791 2019 0
-1792 2020 0
-1793 2021 0
-1794 2022 0
-1779 2015 0
-1780 2016 0
-1781 2017 0
-1782 2018 0
-1783 2019 0
-1784 2020 0
-1785 2021 0
-1786 2022 0
-1779 -1787 2016 0
-1779 -1788 2017 0
-1779 -1789 2018 0
-1779 -1790 2019 0
-1779 -1791 2020 0
-1779 -1792 2021 0
-1779 -1793 2022 0
-1779 -1794 2023 0
-1780 -1787 2017 0
-1780 -1788 2018 0
-1780 -1789 2019 0
-1780 -1790 2020 0
-1780 -1791 2021 0
-1780 -1792 2022 0
-1780 -1793 2023 0
-1781 -1787 2018 0
-1781 -1788 2019 0
-1781 -1789 2020 0
-1781 -1790 2021 0
-1781 -1791 2022 0
-1781 -1792 2023 0
-1782 -1787 2019 0
-1782 -1788 2020 0
-1782 -1789 2021 0
-1782 -1790 2022 0
-1782 -1791 2023 0
-1783 -1787 2020 0
-1783 -1788 2021 0
-1783 -1789 2022 0
-1783 -1790 2023 0
-1784 -1787 2021 0
-1784 -1788 2022 0
-1784 -1789 2023 0
-1785 -1787 2022 0
-1785 -1788 2023 0
-1786 -1787 2023 0
-1803 2024 0
-1804 2025 0
-1805 2026 0
-1806 2027 0
-1807 2028 0
-1808 2029 0
-1809 2030 0
-1810 2031 0
-1795 2024 0
-1796 2025 0
-1797 2026 0
-1798 2027 0
-1799 2028 0
-1800 2029 0
-1801 2030 0
-1802 2031 0
-1795 -1803 2025 0
-1795 -1804 2026 0
-1795 -1805 2027 0
-1795 -1806 2028 0
-1795 -1807 2029 0
-1795 -1808 2030 0
-1795 -1809 2031 0
-1795 -1810 2032 0
-1796 -1803 2026 0
-1796 -1804 2027 0
-1796 -1805 2028 0
-1796 -1806 2029 0
-1796 -1807 2030 0
-1796 -1808 2031 0
-1796 -1809 2032 0
-1797 -1803 2027 0
-1797 -1804 2028 0
-1797 -1805 2029 0
-1797 -1806 2030 0
-1797 -1807 2031 0
-1797 -1808 2032 0
-1798 -1803 2028 0
-1798 -1804 2029 0
-1798 -1805 2030 0
-1798 -1806 2031 0
-1798 -1807 2032 0
-1799 -1803 2029 0
-1799 -1804 2030 0
-1799 -1805 2031 0
-1799 -1806 2032 0
-1800 -1803 2030 0
-1800 -1804 2031 0
-1800 -1805 2032 0
-1801 -1803 2031 0
-1801 -1804 2032 0
-1802 -1803 2032 0
-1819 2033 0
-1820 2034 0
-1821 2035 0
-1822 2036 0
-1823 2037 0
-1824 2038 0
-1825 2039 0
-1826 2040 0
-1811 2033 0
-1812 2034 0
-1813 2035 0
-1814 2036 0
-1815 2037 0
-1816 2038 0
-1817 2039 0
-1818 2040 0
-1811 -1819 2034 0
-1811 -1820 2035 0
-1811 -1821 2036 0
-1811 -1822 2037 0
-1811 -1823 2038 0
-1811 -1824 2039 0
-1811 -1825 2040 0
-1811 -1826 2041 0
-1812 -1819 2035 0
-1812 -1820 2036 0
-1812 -1821 2037 0
-1812 -1822 2038 0
-1812 -1823 2039 0
-1812 -1824 2040 0
-1812 -1825 2041 0
-1813 -1819 2036 0
-1813 -1820 2037 0
-1813 -1821 2038 0
-1813 -1822 2039 0
-1813 -1823 2040 0
-1813 -1824 2041 0
-1814 -1819 2037 0
-1814 -1820 2038 0
-1814 -1821 2039 0
-1814 -1822 2040 0
-1814 -1823 2041 0
-1815 -1819 2038 0
-1815 -1820 2039 0
-1815 -1821 2040 0
-1815 -1822 2041 0
-1816 -1819 2039 0
-1816 -1820 2040 0
-1816 -1821 2041 0
-1817 -1819 2040 0
-1817 -1820 2041 0
-1818 -1819 2041 0
-1835 2042 0
-1836 2043 0
-1837 2044 0
-1838 2045 0
-1839 2046 0
-1840 2047 0
-1841 2048 0
-1842 2049 0
-1827 2042 0
-1828 2043 0
-1829 2044 0
-1830 2045 0
-1831 2046 0
-1832 2047 0
-1833 2048 0
-1834 2049 0
-1827 -1835 2043 0
-1827 -1836 2044 0
-1827 -1837 2045 0
-1827 -1838 2046 0
-1827 -1839 2047 0
-1827 -1840 2048 0
-1827 -1841 2049 0
-1827 -1842 2050 0
-1828 -1835 2044 0
-1828 -1836 2045 0
-1828 -1837 2046 0
-1828 -1838 2047 0
-1828 -1839 2048 0
-1828 -1840 2049 0
-1828 -1841 2050 0
-1829 -1835 2045 0
-1829 -1836 2046 0
-1829 -1837 2047 0
-1829 -1838 2048 0
-1829 -1839 2049 0
-1829 -1840 2050 0
-1830 -1835 2046 0
-1830 -1836 2047 0
-1830 -1837 2048 0
-1830 -1838 2049 0
-1830 -1839 2050 0
-1831 -1835 2047 0
-1831 -1836 2048 0
-1831 -1837 2049 0
-1831 -1838 2050 0
-1832 -1835 2048 0
-1832 -1836 2049 0
-1832 -1837 2050 0
-1833 -1835 2049 0
-1833 -1836 2050 0
-1834 -1835 2050 0
-1851 2051 0
-1852 2052 0
-1853 2053 0
-1854 2054 0
-1855 2055 0
-1856 2056 0
-1857 2057 0
-1858 2058 0
-1843 2051 0
-1844 2052 0
-1845 2053 0
-1846 2054 0
-1847 2055 0
-1848 2056 0
-1849 2057 0
-1850 2058 0
-1843 -1851 2052 0
-1843 -1852 2053 0
-1843 -1853 2054 0
-1843 -1854 2055 0
-1843 -1855 2056 0
-1843 -1856 2057 0
-1843 -1857 2058 0
-1843 -1858 2059 0
-1844 -1851 2053 0
-1844 -1852 2054 0
-1844 -1853 2055 0
-1844 -1854 2056 0
-1844 -1855 2057 0
-1844 -1856 2058 0
-1844 -1857 2059 0
-1845 -1851 2054 0
-1845 -1852 2055 0
-1845 -1853 2056 0
-1845 -1854 2057 0
-1845 -1855 2058 0
-1845 -1856 2059 0
-1846 -1851 2055 0
-1846 -1852 2056 0
-1846 -1853 2057 0
-1846 -1854 2058 0
-1846 -1855 2059 0
-1847 -1851 2056 0
-1847 -1852 2057 0
-1847 -1853 2058 0
-1847 -1854 2059 0
-1848 -1851 2057 0
-1848 -1852 2058 0
-1848 -1853 2059 0
-1849 -1851 2058 0
-1849 -1852 2059 0
-1850 -1851 2059 0
-1867 2060 0
-1868 2061 0
-1869 2062 0
-1870 2063 0
-1871 2064 0
-1872 2065 0
-1873 2066 0
-1874 2067 0
-1859 2060 0
-1860 2061 0
-1861 2062 0
-1862 2063 0
-1863 2064 0
-1864 2065 0
-1865 2066 0
-1866 2067 0
-1859 -1867 2061 0
-1859 -1868 2062 0
-1859 -1869 2063 0
-1859 -1870 2064 0
-1859 -1871 2065 0
-1859 -1872 2066 0
-1859 -1873 2067 0
-1859 -1874 2068 0
-1860 -1867 2062 0
-1860 -1868 2063 0
-1860 -1869 2064 0
-1860 -1870 2065 0
-1860 -1871 2066 0
-1860 -1872 2067 0
-1860 -1873 2068 0
-1861 -1867 2063 0
-1861 -1868 2064 0
-1861 -1869 2065 0
-1861 -1870 2066 0
-1861 -1871 2067 0
-1861 -1872 2068 0
-1862 -1867 2064 0
-1862 -1868 2065 0
-1862 -1869 2066 0
-1862 -1870 2067 0
-1862 -1871 2068 0
-1863 -1867 2065 0
-1863 -1868 2066 0
-1863 -1869 2067 0
-1863 -1870 2068 0
-1864 -1867 2066 0
-1864 -1868 2067 0
-1864 -1869 2068 0
-1865 -1867 2067 0
-1865 -1868 2068 0
-1866 -1867 2068 0
-1883 2069 0
-1884 2070 0
-1885 2071 0
-1886 2072 0
-1887 2073 0
-1888 2074 0
-1889 2075 0
-1890 2076 0
-1875 2069 0
-1876 2070 0
-1877 2071 0
-1878 2072 0
-1879 2073 0
-1880 2074 0
-1881 2075 0
-1882 2076 0
-1875 -1883 2070 0
-1875 -1884 2071 0
-1875 -1885 2072 0
-1875 -1886 2073 0
-1875 -1887 2074 0
-1875 -1888 2075 0
-1875 -1889 2076 0
-1875 -1890 2077 0
-1876 -1883 2071 0
-1876 -1884 2072 0
-1876 -1885 2073 0
-1876 -1886 2074 0
-1876 -1887 2075 0
-1876 -1888 2076 0
-1876 -1889 2077 0
-1877 -1883 2072 0
-1877 -1884 2073 0
-1877 -1885 2074 0
-1877 -1886 2075 0
-1877 -1887 2076 0
-1877 -1888 2077 0
-1878 -1883 2073 0
-1878 -1884 2074 0
-1878 -1885 2075 0
-1878 -1886 2076 0
-1878 -1887 2077 0
-1879 -1883 2074 0
-1879 -1884 2075 0
-1879 -1885 2076 0
-1879 -1886 2077 0
-1880 -1883 2075 0
-1880 -1884 2076 0
-1880 -1885 2077 0
-1881 -1883 2076 0
-1881 -1884 2077 0
-1882 -1883 2077 0
-1899 2078 0
-1900 2079 0
-1901 2080 0
-1902 2081 0
-1903 2082 0
-1904 2083 0
-1905 2084 0
-1906 2085 0
-1891 2078 0
-1892 2079 0
-1893 2080 0
-1894 2081 0
-1895 2082 0
-1896 2083 0
-1897 2084 0
-1898 2085 0
-1891 -1899 2079 0
-1891 -1900 2080 0
-1891 -1901 2081 0
-1891 -1902 2082 0
-1891 -1903 2083 0
-1891 -1904 2084 0
-1891 -1905 2085 0
-1891 -1906 2086 0
-1892 -1899 2080 0
-1892 -1900 2081 0
-1892 -1901 2082 0
-1892 -1902 2083 0
-1892 -1903 2084 0
-1892 -1904 2085 0
-1892 -1905 2086 0
-1893 -1899 2081 0
-1893 -1900 2082 0
-1893 -1901 2083 0
-1893 -1902 2084 0
-1893 -1903 2085 0
-1893 -1904 2086 0
-1894 -1899 2082 0
-1894 -1900 2083 0
-1894 -1901 2084 0
-1894 -1902 2085 0
-1894 -1903 2086 0
-1895 -1899 2083 0
-1895 -1900 2084 0
-1895 -1901 2085 0
-1895 -1902 2086 0
-1896 -1899 2084 0
-1896 -1900 2085 0
-1896 -1901 2086 0
-1897 -1899 2085 0
-1897 -1900 2086 0
-1898 -1899 2086 0
-1915 2087 0
-1916 2088 0
-1917 2089 0
-1918 2090 0
-1919 2091 0
-1920 2092 0
-1921 2093 0
-1922 2094 0
-1907 2087 0
-1908 2088 0
-1909 2089 0
-1910 2090 0
-1911 2091 0
-1912 2092 0
-1913 2093 0
-1914 2094 0
-1907 -1915 2088 0
-1907 -1916 2089 0
-1907 -1917 2090 0
-1907 -1918 2091 0
-1907 -1919 2092 0
-1907 -1920 2093 0
-1907 -1921 2094 0
-1907 -1922 2095 0
-1908 -1915 2089 0
-1908 -1916 2090 0
-1908 -1917 2091 0
-1908 -1918 2092 0
-1908 -1919 2093 0
-1908 -1920 2094 0
-1908 -1921 2095 0
-1909 -1915 2090 0
-1909 -1916 2091 0
-1909 -1917 2092 0
-1909 -1918 2093 0
-1909 -1919 2094 0
-1909 -1920 2095 0
-1910 -1915 2091 0
-1910 -1916 2092 0
-1910 -1917 2093 0
-1910 -1918 2094 0
-1910 -1919 2095 0
-1911 -1915 2092 0
-1911 -1916 2093 0
-1911 -1917 2094 0
-1911 -1918 2095 0
-1912 -1915 2093 0
-1912 -1916 2094 0
-1912 -1917 2095 0
-1913 -1915 2094 0
-1913 -1916 2095 0
-1914 -1915 2095 0
-1931 2096 0
-1932 2097 0
-1933 2098 0
-1934 2099 0
-1935 2100 0
-1936 2101 0
-1937 2102 0
-1938 2103 0
-1923 2096 0
-1924 2097 0
-1925 2098 0
-1926 2099 0
-1927 2100 0
-1928 2101 0
-1929 2102 0
-1930 2103 0
-1923 -1931 2097 0
-1923 -1932 2098 0
-1923 -1933 2099 0
-1923 -1934 2100 0
-1923 -1935 2101 0
-1923 -1936 2102 0
-1923 -1937 2103 0
-1923 -1938 2104 0
-1924 -1931 2098 0
-1924 -1932 2099 0
-1924 -1933 2100 0
-1924 -1934 2101 0
-1924 -1935 2102 0
-1924 -1936 2103 0
-1924 -1937 2104 0
-1925 -1931 2099 0
-1925 -1932 2100 0
-1925 -1933 2101 0
-1925 -1934 2102 0
-1925 -1935 2103 0
-1925 -1936 2104 0
-1926 -1931 2100 0
-1926 -1932 2101 0
-1926 -1933 2102 0
-1926 -1934 2103 0
-1926 -1935 2104 0
-1927 -1931 2101 0
-1927 -1932 2102 0
-1927 -1933 2103 0
-1927 -1934 2104 0
-1928 -1931 2102 0
-1928 -1932 2103 0
-1928 -1933 2104 0
-1929 -1931 2103 0
-1929 -1932 2104 0
-1930 -1931 2104 0
-1947 2105 0
-1948 2106 0
-1949 2107 0
-1950 2108 0
-1951 2109 0
-1952 2110 0
-1953 2111 0
-1954 2112 0
-1939 2105 0
-1940 2106 0
-1941 2107 0
-1942 2108 0
-1943 2109 0
-1944 2110 0
-1945 2111 0
-1946 2112 0
-1939 -1947 2106 0
-1939 -1948 2107 0
-1939 -1949 2108 0
-1939 -1950 2109 0
-1939 -1951 2110 0
-1939 -1952 2111 0
-1939 -1953 2112 0
-1939 -1954 2113 0
-1940 -1947 2107 0
-1940 -1948 2108 0
-1940 -1949 2109 0
-1940 -1950 2110 0
-1940 -1951 2111 0
-1940 -1952 2112 0
-1940 -1953 2113 0
-1941 -1947 2108 0
-1941 -1948 2109 0
-1941 -1949 2110 0
-1941 -1950 2111 0
-1941 -1951 2112 0
-1941 -1952 2113 0
-1942 -1947 2109 0
-1942 -1948 2110 0
-1942 -1949 2111 0
-1942 -1950 2112 0
-1942 -1951 2113 0
-1943 -1947 2110 0
-1943 -1948 2111 0
-1943 -1949 2112 0
-1943 -1950 2113 0
-1944 -1947 2111 0
-1944 -1948 2112 0
-1944 -1949 2113 0
-1945 -1947 2112 0
-1945 -1948 2113 0
-1946 -1947 2113 0
-1963 2114 0
-1964 2115 0
-1965 2116 0
-1966 2117 0
-1967 2118 0
-1968 2119 0
-1969 2120 0
-1970 2121 0
-1955 2114 0
-1956 2115 0
-1957 2116 0
-1958 2117 0
-1959 2118 0
-1960 2119 0
-1961 2120 0
-1962 2121 0
-1955 -1963 2115 0
-1955 -1964 2116 0
-1955 -1965 2117 0
-1955 -1966 2118 0
-1955 -1967 2119 0
-1955 -1968 2120 0
-1955 -1969 2121 0
-1955 -1970 2122 0
-1956 -1963 2116 0
-1956 -1964 2117 0
-1956 -1965 2118 0
-1956 -1966 2119 0
-1956 -1967 2120 0
-1956 -1968 2121 0
-1956 -1969 2122 0
-1957 -1963 2117 0
-1957 -1964 2118 0
-1957 -1965 2119 0
-1957 -1966 2120 0
-1957 -1967 2121 0
-1957 -1968 2122 0
-1958 -1963 2118 0
-1958 -1964 2119 0
-1958 -1965 2120 0
-1958 -1966 2121 0
-1958 -1967 2122 0
-1959 -1963 2119 0
-1959 -1964 2120 0
-1959 -1965 2121 0
-1959 -1966 2122 0
-1960 -1963 2120 0
-1960 -1964 2121 0
-1960 -1965 2122 0
-1961 -1963 2121 0
-1961 -1964 2122 0
-1962 -1963 2122 0
-1979 2123 0
-1980 2124 0
-1981 2125 0
-1982 2126 0
-1983 2127 0
-1984 2128 0
-1985 2129 0
-1986 2130 0
-1987 2131 0
-1971 2123 0
-1972 2124 0
-1973 2125 0
-1974 2126 0
-1975 2127 0
-1976 2128 0
-1977 2129 0
-1978 2130 0
-1971 -1979 2124 0
-1971 -1980 2125 0
-1971 -1981 2126 0
-1971 -1982 2127 0
-1971 -1983 2128 0
-1971 -1984 2129 0
-1971 -1985 2130 0
-1971 -1986 2131 0
-1972 -1979 2125 0
-1972 -1980 2126 0
-1972 -1981 2127 0
-1972 -1982 2128 0
-1972 -1983 2129 0
-1972 -1984 2130 0
-1972 -1985 2131 0
-1973 -1979 2126 0
-1973 -1980 2127 0
-1973 -1981 2128 0
-1973 -1982 2129 0
-1973 -1983 2130 0
-1973 -1984 2131 0
-1974 -1979 2127 0
-1974 -1980 2128 0
-1974 -1981 2129 0
-1974 -1982 2130 0
-1974 -1983 2131 0
-1975 -1979 2128 0
-1975 -1980 2129 0
-1975 -1981 2130 0
-1975 -1982 2131 0
-1976 -1979 2129 0
-1976 -1980 2130 0
-1976 -1981 2131 0
-1977 -1979 2130 0
-1977 -1980 2131 0
-1978 -1979 2131 0
-1997 2132 0
-1998 2133 0
-1999 2134 0
-2000 2135 0
-2001 2136 0
-2002 2137 0
-2003 2138 0
-2004 2139 0
-2005 2140 0
-1988 2132 0
-1989 2133 0
-1990 2134 0
-1991 2135 0
-1992 2136 0
-1993 2137 0
-1994 2138 0
-1995 2139 0
-1996 2140 0
-1988 -1997 2133 0
-1988 -1998 2134 0
-1988 -1999 2135 0
-1988 -2000 2136 0
-1988 -2001 2137 0
-1988 -2002 2138 0
-1988 -2003 2139 0
-1988 -2004 2140 0
-1989 -1997 2134 0
-1989 -1998 2135 0
-1989 -1999 2136 0
-1989 -2000 2137 0
-1989 -2001 2138 0
-1989 -2002 2139 0
-1989 -2003 2140 0
-1990 -1997 2135 0
-1990 -1998 2136 0
-1990 -1999 2137 0
-1990 -2000 2138 0
-1990 -2001 2139 0
-1990 -2002 2140 0
-1991 -1997 2136 0
-1991 -1998 2137 0
-1991 -1999 2138 0
-1991 -2000 2139 0
-1991 -2001 2140 0
-1992 -1997 2137 0
-1992 -1998 2138 0
-1992 -1999 2139 0
-1992 -2000 2140 0
-1993 -1997 2138 0
-1993 -1998 2139 0
-1993 -1999 2140 0
-1994 -1997 2139 0
-1994 -1998 2140 0
-1995 -1997 2140 0
-2015 2141 0
-2016 2142 0
-2017 2143 0
-2018 2144 0
-2019 2145 0
-2020 2146 0
-2021 2147 0
-2022 2148 0
-2023 2149 0
-2006 2141 0
-2007 2142 0
-2008 2143 0
-2009 2144 0
-2010 2145 0
-2011 2146 0
-2012 2147 0
-2013 2148 0
-2014 2149 0
-2006 -2015 2142 0
-2006 -2016 2143 0
-2006 -2017 2144 0
-2006 -2018 2145 0
-2006 -2019 2146 0
-2006 -2020 2147 0
-2006 -2021 2148 0
-2006 -2022 2149 0
-2007 -2015 2143 0
-2007 -2016 2144 0
-2007 -2017 2145 0
-2007 -2018 2146 0
-2007 -2019 2147 0
-2007 -2020 2148 0
-2007 -2021 2149 0
-2008 -2015 2144 0
-2008 -2016 2145 0
-2008 -2017 2146 0
-2008 -2018 2147 0
-2008 -2019 2148 0
-2008 -2020 2149 0
-2009 -2015 2145 0
-2009 -2016 2146 0
-2009 -2017 2147 0
-2009 -2018 2148 0
-2009 -2019 2149 0
-2010 -2015 2146 0
-2010 -2016 2147 0
-2010 -2017 2148 0
-2010 -2018 2149 0
-2011 -2015 2147 0
-2011 -2016 2148 0
-2011 -2017 2149 0
-2012 -2015 2148 0
-2012 -2016 2149 0
-2013 -2015 2149 0
-2033 2150 0
-2034 2151 0
-2035 2152 0
-2036 2153 0
-2037 2154 0
-2038 2155 0
-2039 2156 0
-2040 2157 0
-2041 2158 0
-2024 2150 0
-2025 2151 0
-2026 2152 0
-2027 2153 0
-2028 2154 0
-2029 2155 0
-2030 2156 0
-2031 2157 0
-2032 2158 0
-2024 -2033 2151 0
-2024 -2034 2152 0
-2024 -2035 2153 0
-2024 -2036 2154 0
-2024 -2037 2155 0
-2024 -2038 2156 0
-2024 -2039 2157 0
-2024 -2040 2158 0
-2025 -2033 2152 0
-2025 -2034 2153 0
-2025 -2035 2154 0
-2025 -2036 2155 0
-2025 -2037 2156 0
-2025 -2038 2157 0
-2025 -2039 2158 0
-2026 -2033 2153 0
-2026 -2034 2154 0
-2026 -2035 2155 0
-2026 -2036 2156 0
-2026 -2037 2157 0
-2026 -2038 2158 0
-2027 -2033 2154 0
-2027 -2034 2155 0
-2027 -2035 2156 0
-2027 -2036 2157 0
-2027 -2037 2158 0
-2028 -2033 2155 0
-2028 -2034 2156 0
-2028 -2035 2157 0
-2028 -2036 2158 0
-2029 -2033 2156 0
-2029 -2034 2157 0
-2029 -2035 2158 0
-2030 -2033 2157 0
-2030 -2034 2158 0
-2031 -2033 2158 0
-2051 2159 0
-2052 2160 0
-2053 2161 0
-2054 2162 0
-2055 2163 0
-2056 2164 0
-2057 2165 0
-2058 2166 0
-2059 2167 0
-2042 2159 0
-2043 2160 0
-2044 2161 0
-2045 2162 0
-2046 2163 0
-2047 2164 0
-2048 2165 0
-2049 2166 0
-2050 2167 0
-2042 -2051 2160 0
-2042 -2052 2161 0
-2042 -2053 2162 0
-2042 -2054 2163 0
-2042 -2055 2164 0
-2042 -2056 2165 0
-2042 -2057 2166 0
-2042 -2058 2167 0
-2043 -2051 2161 0
-2043 -2052 2162 0
-2043 -2053 2163 0
-2043 -2054 2164 0
-2043 -2055 2165 0
-2043 -2056 2166 0
-2043 -2057 2167 0
-2044 -2051 2162 0
-2044 -2052 2163 0
-2044 -2053 2164 0
-2044 -2054 2165 0
-2044 -2055 2166 0
-2044 -2056 2167 0
-2045 -2051 2163 0
-2045 -2052 2164 0
-2045 -2053 2165 0
-2045 -2054 2166 0
-2045 -2055 2167 0
-2046 -2051 2164 0
-2046 -2052 2165 0
-2046 -2053 2166 0
-2046 -2054 2167 0
-2047 -2051 2165 0
-2047 -2052 2166 0
-2047 -2053 2167 0
-2048 -2051 2166 0
-2048 -2052 2167 0
-2049 -2051 2167 0
-2069 2168 0
-2070 2169 0
-2071 2170 0
-2072 2171 0
-2073 2172 0
-2074 2173 0
-2075 2174 0
-2076 2175 0
-2077 2176 0
-2060 2168 0
-2061 2169 0
-2062 2170 0
-2063 2171 0
-2064 2172 0
-2065 2173 0
-2066 2174 0
-2067 2175 0
-2068 2176 0
-2060 -2069 2169 0
-2060 -2070 2170 0
-2060 -2071 2171 0
-2060 -2072 2172 0
-2060 -2073 2173 0
-2060 -2074 2174 0
-2060 -2075 2175 0
-2060 -2076 2176 0
-2061 -2069 2170 0
-2061 -2070 2171 0
-2061 -2071 2172 0
-2061 -2072 2173 0
-2061 -2073 2174 0
-2061 -2074 2175 0
-2061 -2075 2176 0
-2062 -2069 2171 0
-2062 -2070 2172 0
-2062 -2071 2173 0
-2062 -2072 2174 0
-2062 -2073 2175 0
-2062 -2074 2176 0
-2063 -2069 2172 0
-2063 -2070 2173 0
-2063 -2071 2174 0
-2063 -2072 2175 0
-2063 -2073 2176 0
-2064 -2069 2173 0
-2064 -2070 2174 0
-2064 -2071 2175 0
-2064 -2072 2176 0
-2065 -2069 2174 0
-2065 -2070 2175 0
-2065 -2071 2176 0
-2066 -2069 2175 0
-2066 -2070 2176 0
-2067 -2069 2176 0
-2087 2177 0
-2088 2178 0
-2089 2179 0
-2090 2180 0
-2091 2181 0
-2092 2182 0
-2093 2183 0
-2094 2184 0
-2095 2185 0
-2078 2177 0
-2079 2178 0
-2080 2179 0
-2081 2180 0
-2082 2181 0
-2083 2182 0
-2084 2183 0
-2085 2184 0
-2086 2185 0
-2078 -2087 2178 0
-2078 -2088 2179 0
-2078 -2089 2180 0
-2078 -2090 2181 0
-2078 -2091 2182 0
-2078 -2092 2183 0
-2078 -2093 2184 0
-2078 -2094 2185 0
-2079 -2087 2179 0
-2079 -2088 2180 0
-2079 -2089 2181 0
-2079 -2090 2182 0
-2079 -2091 2183 0
-2079 -2092 2184 0
-2079 -2093 2185 0
-2080 -2087 2180 0
-2080 -2088 2181 0
-2080 -2089 2182 0
-2080 -2090 2183 0
-2080 -2091 2184 0
-2080 -2092 2185 0
-2081 -2087 2181 0
-2081 -2088 2182 0
-2081 -2089 2183 0
-2081 -2090 2184 0
-2081 -2091 2185 0
-2082 -2087 2182 0
-2082 -2088 2183 0
-2082 -2089 2184 0
-2082 -2090 2185 0
-2083 -2087 2183 0
-2083 -2088 2184 0
-2083 -2089 2185 0
-2084 -2087 2184 0
-2084 -2088 2185 0
-2085 -2087 2185 0
-2105 2186 0
-2106 2187 0
-2107 2188 0
-2108 2189 0
-2109 2190 0
-2110 2191 0
-2111 2192 0
-2112 2193 0
-2113 2194 0
-2096 2186 0
-2097 2187 0
-2098 2188 0
-2099 2189 0
-2100 2190 0
-2101 2191 0
-2102 2192 0
-2103 2193 0
-2104 2194 0
-2096 -2105 2187 0
-2096 -2106 2188 0
-2096 -2107 2189 0
-2096 -2108 2190 0
-2096 -2109 2191 0
-2096 -2110 2192 0
-2096 -2111 2193 0
-2096 -2112 2194 0
-2097 -2105 2188 0
-2097 -2106 2189 0
-2097 -2107 2190 0
-2097 -2108 2191 0
-2097 -2109 2192 0
-2097 -2110 2193 0
-2097 -2111 2194 0
-2098 -2105 2189 0
-2098 -2106 2190 0
-2098 -2107 2191 0
-2098 -2108 2192 0
-2098 -2109 2193 0
-2098 -2110 2194 0
-2099 -2105 2190 0
-2099 -2106 2191 0
-2099 -2107 2192 0
-2099 -2108 2193 0
-2099 -2109 2194 0
-2100 -2105 2191 0
-2100 -2106 2192 0
-2100 -2107 2193 0
-2100 -2108 2194 0
-2101 -2105 2192 0
-2101 -2106 2193 0
-2101 -2107 2194 0
-2102 -2105 2193 0
-2102 -2106 2194 0
-2103 -2105 2194 0
-2123 2195 0
-2124 2196 0
-2125 2197 0
-2126 2198 0
-2127 2199 0
-2128 2200 0
-2129 2201 0
-2130 2202 0
-2131 2203 0
-2114 2195 0
-2115 2196 0
-2116 2197 0
-2117 2198 0
-2118 2199 0
-2119 2200 0
-2120 2201 0
-2121 2202 0
-2122 2203 0
-2114 -2123 2196 0
-2114 -2124 2197 0
-2114 -2125 2198 0
-2114 -2126 2199 0
-2114 -2127 2200 0
-2114 -2128 2201 0
-2114 -2129 2202 0
-2114 -2130 2203 0
-2115 -2123 2197 0
-2115 -2124 2198 0
-2115 -2125 2199 0
-2115 -2126 2200 0
-2115 -2127 2201 0
-2115 -2128 2202 0
-2115 -2129 2203 0
-2116 -2123 2198 0
-2116 -2124 2199 0
-2116 -2125 2200 0
-2116 -2126 2201 0
-2116 -2127 2202 0
-2116 -2128 2203 0
-2117 -2123 2199 0
-2117 -2124 2200 0
-2117 -2125 2201 0
-2117 -2126 2202 0
-2117 -2127 2203 0
-2118 -2123 2200 0
-2118 -2124 2201 0
-2118 -2125 2202 0
-2118 -2126 2203 0
-2119 -2123 2201 0
-2119 -2124 2202 0
-2119 -2125 2203 0
-2120 -2123 2202 0
-2120 -2124 2203 0
-2121 -2123 2203 0
-2141 2204 0
-2142 2205 0
-2143 2206 0
-2144 2207 0
-2145 2208 0
-2146 2209 0
-2147 2210 0
-2148 2211 0
-2149 2212 0
-2132 2204 0
-2133 2205 0
-2134 2206 0
-2135 2207 0
-2136 2208 0
-2137 2209 0
-2138 2210 0
-2139 2211 0
-2140 2212 0
-2132 -2141 2205 0
-2132 -2142 2206 0
-2132 -2143 2207 0
-2132 -2144 2208 0
-2132 -2145 2209 0
-2132 -2146 2210 0
-2132 -2147 2211 0
-2132 -2148 2212 0
-2133 -2141 2206 0
-2133 -2142 2207 0
-2133 -2143 2208 0
-2133 -2144 2209 0
-2133 -2145 2210 0
-2133 -2146 2211 0
-2133 -2147 2212 0
-2134 -2141 2207 0
-2134 -2142 2208 0
-2134 -2143 2209 0
-2134 -2144 2210 0
-2134 -2145 2211 0
-2134 -2146 2212 0
-2135 -2141 2208 0
-2135 -2142 2209 0
-2135 -2143 2210 0
-2135 -2144 2211 0
-2135 -2145 2212 0
-2136 -2141 2209 0
-2136 -2142 2210 0
-2136 -2143 2211 0
-2136 -2144 2212 0
-2137 -2141 2210 0
-2137 -2142 2211 0
-2137 -2143 2212 0
-2138 -2141 2211 0
-2138 -2142 2212 0
-2139 -2141 2212 0
-2159 2213 0
-2160 2214 0
-2161 2215 0
-2162 2216 0
-2163 2217 0
-2164 2218 0
-2165 2219 0
-2166 2220 0
-2167 2221 0
-2150 2213 0
-2151 2214 0
-2152 2215 0
-2153 2216 0
-2154 2217 0
-2155 2218 0
-2156 2219 0
-2157 2220 0
-2158 2221 0
-2150 -2159 2214 0
-2150 -2160 2215 0
-2150 -2161 2216 0
-2150 -2162 2217 0
-2150 -2163 2218 0
-2150 -2164 2219 0
-2150 -2165 2220 0
-2150 -2166 2221 0
-2151 -2159 2215 0
-2151 -2160 2216 0
-2151 -2161 2217 0
-2151 -2162 2218 0
-2151 -2163 2219 0
-2151 -2164 2220 0
-2151 -2165 2221 0
-2152 -2159 2216 0
-2152 -2160 2217 0
-2152 -2161 2218 0
-2152 -2162 2219 0
-2152 -2163 2220 0
-2152 -2164 2221 0
-2153 -2159 2217 0
-2153 -2160 2218 0
-2153 -2161 2219 0
-2153 -2162 2220 0
-2153 -2163 2221 0
-2154 -2159 2218 0
-2154 -2160 2219 0
-2154 -2161 2220 0
-2154 -2162 2221 0
-2155 -2159 2219 0
-2155 -2160 2220 0
-2155 -2161 2221 0
-2156 -2159 2220 0
-2156 -2160 2221 0
-2157 -2159 2221 0
-2177 2222 0
-2178 2223 0
-2179 2224 0
-2180 2225 0
-2181 2226 0
-2182 2227 0
-2183 2228 0
-2184 2229 0
-2185 2230 0
-2168 2222 0
-2169 2223 0
-2170 2224 0
-2171 2225 0
-2172 2226 0
-2173 2227 0
-2174 2228 0
-2175 2229 0
-2176 2230 0
-2168 -2177 2223 0
-2168 -2178 2224 0
-2168 -2179 2225 0
-2168 -2180 2226 0
-2168 -2181 2227 0
-2168 -2182 2228 0
-2168 -2183 2229 0
-2168 -2184 2230 0
-2169 -2177 2224 0
-2169 -2178 2225 0
-2169 -2179 2226 0
-2169 -2180 2227 0
-2169 -2181 2228 0
-2169 -2182 2229 0
-2169 -2183 2230 0
-2170 -2177 2225 0
-2170 -2178 2226 0
-2170 -2179 2227 0
-2170 -2180 2228 0
-2170 -2181 2229 0
-2170 -2182 2230 0
-2171 -2177 2226 0
-2171 -2178 2227 0
-2171 -2179 2228 0
-2171 -2180 2229 0
-2171 -2181 2230 0
-2172 -2177 2227 0
-2172 -2178 2228 0
-2172 -2179 2229 0
-2172 -2180 2230 0
-2173 -2177 2228 0
-2173 -2178 2229 0
-2173 -2179 2230 0
-2174 -2177 2229 0
-2174 -2178 2230 0
-2175 -2177 2230 0
-2195 2231 0
-2196 2232 0
-2197 2233 0
-2198 2234 0
-2199 2235 0
-2200 2236 0
-2201 2237 0
-2202 2238 0
-2203 2239 0
-2186 2231 0
-2187 2232 0
-2188 2233 0
-2189 2234 0
-2190 2235 0
-2191 2236 0
-2192 2237 0
-2193 2238 0
-2194 2239 0
-2186 -2195 2232 0
-2186 -2196 2233 0
-2186 -2197 2234 0
-2186 -2198 2235 0
-2186 -2199 2236 0
-2186 -2200 2237 0
-2186 -2201 2238 0
-2186 -2202 2239 0
-2187 -2195 2233 0
-2187 -2196 2234 0
-2187 -2197 2235 0
-2187 -2198 2236 0
-2187 -2199 2237 0
-2187 -2200 2238 0
-2187 -2201 2239 0
-2188 -2195 2234 0
-2188 -2196 2235 0
-2188 -2197 2236 0
-2188 -2198 2237 0
-2188 -2199 2238 0
-2188 -2200 2239 0
-2189 -2195 2235 0
-2189 -2196 2236 0
-2189 -2197 2237 0
-2189 -2198 2238 0
-2189 -2199 2239 0
-2190 -2195 2236 0
-2190 -2196 2237 0
-2190 -2197 2238 0
-2190 -2198 2239 0
-2191 -2195 2237 0
-2191 -2196 2238 0
-2191 -2197 2239 0
-2192 -2195 2238 0
-2192 -2196 2239 0
-2193 -2195 2239 0
-2213 2240 0
-2214 2241 0
-2215 2242 0
-2216 2243 0
-2217 2244 0
-2218 2245 0
-2219 2246 0
-2220 2247 0
-2221 2248 0
-2204 2240 0
-2205 2241 0
-2206 2242 0
-2207 2243 0
-2208 2244 0
-2209 2245 0
-2210 2246 0
-2211 2247 0
-2212 2248 0
-2204 -2213 2241 0
-2204 -2214 2242 0
-2204 -2215 2243 0
-2204 -2216 2244 0
-2204 -2217 2245 0
-2204 -2218 2246 0
-2204 -2219 2247 0
-2204 -2220 2248 0
-2205 -2213 2242 0
-2205 -2214 2243 0
-2205 -2215 2244 0
-2205 -2216 2245 0
-2205 -2217 2246 0
-2205 -2218 2247 0
-2205 -2219 2248 0
-2206 -2213 2243 0
-2206 -2214 2244 0
-2206 -2215 2245 0
-2206 -2216 2246 0
-2206 -2217 2247 0
-2206 -2218 2248 0
-2207 -2213 2244 0
-2207 -2214 2245 0
-2207 -2215 2246 0
-2207 -2216 2247 0
-2207 -2217 2248 0
-2208 -2213 2245 0
-2208 -2214 2246 0
-2208 -2215 2247 0
-2208 -2216 2248 0
-2209 -2213 2246 0
-2209 -2214 2247 0
-2209 -2215 2248 0
-2210 -2213 2247 0
-2210 -2214 2248 0
-2211 -2213 2248 0
-2231 2249 0
-2232 2250 0
-2233 2251 0
-2234 2252 0
-2235 2253 0
-2236 2254 0
-2237 2255 0
-2238 2256 0
-2239 2257 0
-2222 2249 0
-2223 2250 0
-2224 2251 0
-2225 2252 0
-2226 2253 0
-2227 2254 0
-2228 2255 0
-2229 2256 0
-2230 2257 0
-2222 -2231 2250 0
-2222 -2232 2251 0
-2222 -2233 2252 0
-2222 -2234 2253 0
-2222 -2235 2254 0
-2222 -2236 2255 0
-2222 -2237 2256 0
-2222 -2238 2257 0
-2223 -2231 2251 0
-2223 -2232 2252 0
-2223 -2233 2253 0
-2223 -2234 2254 0
-2223 -2235 2255 0
-2223 -2236 2256 0
-2223 -2237 2257 0
-2224 -2231 2252 0
-2224 -2232 2253 0
-2224 -2233 2254 0
-2224 -2234 2255 0
-2224 -2235 2256 0
-2224 -2236 2257 0
-2225 -2231 2253 0
-2225 -2232 2254 0
-2225 -2233 2255 0
-2225 -2234 2256 0
-2225 -2235 2257 0
-2226 -2231 2254 0
-2226 -2232 2255 0
-2226 -2233 2256 0
-2226 -2234 2257 0
-2227 -2231 2255 0
-2227 -2232 2256 0
-2227 -2233 2257 0
-2228 -2231 2256 0
-2228 -2232 2257 0
-2229 -2231 2257 0
-2249 2258 0
-2250 2259 0
-2251 2260 0
-2252 2261 0
-2253 2262 0
-2254 2263 0
-2255 2264 0
-2256 2265 0
-2257 2266 0
-2240 2258 0
-2241 2259 0
-2242 2260 0
-2243 2261 0
-2244 2262 0
-2245 2263 0
-2246 2264 0
-2247 2265 0
-2248 2266 0
-2240 -2249 2259 0
-2240 -2250 2260 0
-2240 -2251 2261 0
-2240 -2252 2262 0
-2240 -2253 2263 0
-2240 -2254 2264 0
-2240 -2255 2265 0
-2240 -2256 2266 0
-2241 -2249 2260 0
-2241 -2250 2261 0
-2241 -2251 2262 0
-2241 -2252 2263 0
-2241 -2253 2264 0
-2241 -2254 2265 0
-2241 -2255 2266 0
-2242 -2249 2261 0
-2242 -2250 2262 0
-2242 -2251 2263 0
-2242 -2252 2264 0
-2242 -2253 2265 0
-2242 -2254 2266 0
-2243 -2249 2262 0
-2243 -2250 2263 0
-2243 -2251 2264 0
-2243 -2252 2265 0
-2243 -2253 2266 0
-2244 -2249 2263 0
-2244 -2250 2264 0
-2244 -2251 2265 0
-2244 -2252 2266 0
-2245 -2249 2264 0
-2245 -2250 2265 0
-2245 -2251 2266 0
-2246 -2249 2265 0
-2246 -2250 2266 0
-2247 -2249 2266 0
-2267 383 0
-2267 556 0
-2268 386 0
-2268 570 0
-2269 409 0
-2269 743 0
-2270 410 0
-2270 538 0
-2271 413 0
-2271 595 0
-2272 413 0
-2272 741 0
-2273 415 0
-2273 589 0
-2274 415 0
-2274 727 0
-2275 416 0
-2275 595 0
-2276 417 0
-2276 692 0
-2277 418 0
-2277 586 0
-2278 418 0
-2278 589 0
-2279 429 0
-2279 602 0
-2280 431 0
-2280 554 0
-2281 431 0
-2281 707 0
-2282 435 0
-2282 594 0
-2283 435 0
-2283 682 0
-2284 437 0
-2284 660 0
-2285 486 0
-2285 530 0
-2286 498 0
-2286 744 0
-2287 512 0
-2287 643 0
-2288 540 0
-2288 580 0
-2289 610 0
-2289 718 0
-2290 610 0
-2290 738 0
-2291 638 0
-2291 740 0
-2292 657 0
-2292 723 0
-2293 666 0
-2293 732 0
-2294 725 0
-2294 746 0
2267 2268 2269 2270 2271 2272 2273 2274 2275 2276 2277 2278 2279 2280 2281 2282 2283 2284 2285 2286 2287 2288 2289 2290 2291 2292 2293 2294 0
-2295 379 0
-2295 671 0
-2296 387 0
-2296 550 0
-2297 405 0
-2297 754 0
-2298 408 0
-2298 679 0
-2299 414 0
-2299 521 0
-2300 414 0
-2300 527 0
-2301 414 0
-2301 557 0
-2302 414 0
-2302 560 0
-2303 416 0
-2303 715 0
-2304 419 0
-2304 537 0
-2305 419 0
-2305 570 0
-2306 422 0
-2306 608 0
-2307 434 0
-2307 537 0
-2308 435 0
-2308 521 0
-2309 435 0
-2309 678 0
-2310 456 0
-2310 523 0
-2311 456 0
-2311 707 0
-2312 487 0
-2312 544 0
-2313 488 0
-2313 515 0
-2314 489 0
-2314 512 0
-2315 516 0
-2315 674 0
-2316 547 0
-2316 638 0
-2317 662 0
-2317 689 0
2295 2296 2297 2298 2299 2300 2301 2302 2303 2304 2305 2306 2307 2308 2309 2310 2311 2312 2313 2314 2315 2316 2317 0
608 556 521 512 523 638 560 671 678 544 557 537 674 754 679 689 570 527 715 0
-2318 381 0
-2318 580 0
-2319 389 0
-2319 551 0
-2320 389 0
-2320 622 0
-2321 412 0
-2321 556 0
-2322 415 0
-2322 525 0
-2323 417 0
-2323 745 0
-2324 418 0
-2324 543 0
-2325 418 0
-2325 695 0
-2326 427 0
-2326 607 0
-2327 432 0
-2327 746 0
-2328 433 0
-2328 702 0
-2329 434 0
-2329 735 0
-2330 444 0
-2330 644 0
-2331 449 0
-2331 536 0
-2332 450 0
-2332 533 0
-2333 450 0
-2333 550 0
-2334 477 0
-2334 737 0
-2335 486 0
-2335 727 0
-2336 489 0
-2336 578 0
-2337 495 0
-2337 558 0
-2338 496 0
-2338 687 0
-2339 498 0
-2339 665 0
-2340 509 0
-2340 589 0
-2341 530 0
-2341 595 0
-2342 541 0
-2342 589 0
-2343 547 0
-2343 595 0
-2344 559 0
-2344 560 0
2280 2289 2291 2318 2319 2320 2321 2322 2323 2324 2325 2326 2327 2328 2329 2330 2331 2332 2333 2334 2335 2336 2337 2338 2339 2340 2341 2342 2343 2344 0
-2345 386 0
-2345 589 0
-2346 389 0
-2346 543 0
-2347 389 0
-2347 547 0
-2348 390 0
-2348 727 0
-2349 411 0
-2349 631 0
-2350 412 0
-2350 559 0
-2351 431 0
-2351 718 0
-2352 445 0
-2352 551 0
-2353 447 0
-2353 725 0
-2354 450 0
-2354 536 0
-2355 496 0
-2355 745 0
-2356 497 0
-2356 687 0
2277 2280 2285 2318 2320 2321 2326 2328 2329 2332 2334 2336 2337 2339 2345 2346 2347 2348 2349 2350 2351 2352 2353 2354 2355 2356 0
-2357 414 0
-2357 558 0
-2358 417 0
-2358 701 0
-2359 420 0
-2359 578 0
-2360 449 0
-2360 712 0
-2361 493 0
-2361 554 0
-2362 529 0
-2362 718 0
-2363 633 0
-2363 638 0
-2364 703 0
-2364 725 0
-2365 713 0
-2365 714 0
2277 2285 2318 2321 2326 2328 2329 2334 2339 2344 2345 2346 2347 2348 2352 2357 2358 2359 2360 2361 2362 2363 2364 2365 0
-2366 412 0
-2366 554 0
-2367 415 0
-2367 746 0
-2368 433 0
-2368 558 0
-2369 437 0
-2369 586 0
-2370 499 0
-2370 665 0
-2371 686 0
-2371 735 0
2285 2289 2318 2319 2321 2323 2326 2328 2334 2344 2345 2346 2347 2348 2359 2363 2366 2367 2368 2369 2370 2371 0
735 712 727 558 580 714 589 559 554 633 556 610 703 702 737 0
-2372 382 0
-2372 560 0
-2373 385 0
-2373 595 0
-2374 406 0
-2374 749 0
-2375 420 0
-2375 580 0
-2376 428 0
-2376 638 0
-2377 428 0
-2377 742 0
-2378 429 0
-2378 568 0
-2379 430 0
-2379 607 0
-2380 435 0
-2380 666 0
-2381 439 0
-2381 569 0
-2382 447 0
-2382 544 0
-2383 449 0
-2383 541 0
-2384 492 0
-2384 741 0
2282 2290 2326 2336 2357 2364 2372 2373 2374 2375 2376 2377 2378 2379 2380 2381 2382 2383 2384 0
-2385 378 0
-2385 557 0
-2386 384 0
-2386 589 0
-2387 385 0
-2387 580 0
-2388 391 0
-2388 713 0
-2389 408 0
-2389 524 0
-2390 411 0
-2390 560 0
-2391 411 0
-2391 742 0
-2392 417 0
-2392 712 0
-2393 427 0
-2393 578 0
-2394 428 0
-2394 739 0
-2395 438 0
-2395 740 0
-2396 474 0
-2396 633 0
-2397 479 0
-2397 735 0
-2398 500 0
-2398 743 0
-2399 509 0
-2399 602 0
-2400 550 0
-2400 556 0
2284 2285 2286 2290 2302 2328 2332 2334 2348 2349 2354 2361 2362 2364 2368 2369 2385 2386 2387 2388 2389 2390 2391 2392 2393 2394 2395 2396 2397 2398 2399 2400 0
560 743 578 633 740 739 737 580 660 586 742 631 589 0
-2401 434 0
-2401 707 0
-2402 445 0
-2402 668 0
-2403 471 0
-2403 712 0
-2404 475 0
-2404 738 0
-2405 509 0
-2405 513 0
-2406 509 0
-2406 617 0
-2407 517 0
-2407 518 0
-2408 524 0
-2408 570 0
-2409 528 0
-2409 529 0
-2410 531 0
-2410 631 0
-2411 550 0
-2411 671 0
-2412 556 0
-2412 557 0
-2413 607 0
-2413 739 0
-2414 640 0
-2414 660 0
-2415 670 0
-2415 743 0
-2416 713 0
-2416 745 0
2277 2281 2289 2291 2294 2302 2318 2329 2332 2339 2340 2345 2348 2354 2361 2368 2378 2390 2391 2393 2396 2401 2402 2403 2404 2405 2406 2407 2408 2409 2410 2411 2412 2413 2414 2415 2416 0
-2417 388 0
-2417 529 0
-2418 405 0
-2418 518 0
-2419 405 0
-2419 668 0
-2420 409 0
-2420 556 0
-2421 409 0
-2421 641 0
-2422 410 0
-2422 568 0
-2423 430 0
-2423 738 0
-2424 438 0
-2424 743 0
-2425 441 0
-2425 559 0
-2426 476 0
-2426 602 0
-2427 484 0
-2427 660 0
-2428 529 0
-2428 703 0
2281 2318 2321 2329 2332 2339 2345 2354 2360 2361 2365 2367 2368 2369 2391 2393 2395 2396 2401 2408 2411 2413 2417 2418 2419 2420 2421 2422 2423 2424 2425 2426 2427 2428 0
-2429 409 0
-2429 668 0
-2430 434 0
-2430 745 0
-2431 438 0
-2431 666 0
-2432 494 0
-2432 746 0
-2433 499 0
-2433 586 0
-2434 560 0
-2434 641 0
-2435 702 0
-2435 707 0
2289 2291 2321 2329 2332 2334 2336 2337 2339 2340 2344 2345 2348 2354 2360 2366 2387 2389 2391 2396 2398 2405 2406 2410 2413 2418 2420 2423 2429 2430 2431 2432 2433 2434 2435 0
-2436 473 0
-2436 739 0
-2437 478 0
-2437 718 0
2291 2321 2332 2334 2336 2337 2339 2344 2345 2354 2360 2366 2371 2387 2389 2391 2396 2398 2410 2418 2420 2423 2426 2429 2430 2431 2432 2433 2434 2435 2436 2437 0
560 586 668 739 589 633 743 666 638 737 631 518 580 578 742 0
-2438 411 0
-2438 623 0
-2439 520 0
-2439 580 0
-2440 529 0
-2440 580 0
-2441 536 0
-2441 580 0
2288 2301 2327 2328 2334 2339 2345 2349 2350 2357 2361 2362 2371 2388 2403 2421 2438 2439 2440 2441 0
-2442 380 0
-2442 641 0
-2443 623 0
-2443 633 0
2323 2328 2329 2334 2337 2345 2349 2366 2370 2387 2412 2425 2432 2437 2442 2443 0
-2444 387 0
-2444 640 0
-2445 413 0
-2445 650 0
-2446 439 0
-2446 631 0
-2447 532 0
-2447 641 0
-2448 595 0
-2448 623 0
2301 2318 2328 2334 2337 2345 2351 2361 2370 2371 2425 2430 2432 2444 2445 2446 2447 2448 0
2280 2318 2328 2334 2345 2349 2350 2351 2368 2370 2385 2397 2430 2432 2434 2448 0
737 640 746 589 631 595 554 745 532 702 735 610 559 558 580 650 557 0
-2449 380 0
-2449 521 0
-2450 412 0
-2450 523 0
-2451 412 0
-2451 657 0
-2452 421 0
-2452 639 0
-2453 437 0
-2453 677 0
-2454 454 0
-2454 729 0
-2455 458 0
-2455 526 0
-2456 458 0
-2456 687 0
-2457 460 0
-2457 665 0
-2458 471 0
-2458 522 0
-2459 477 0
-2459 717 0
-2460 479 0
-2460 679 0
-2461 494 0
-2461 708 0
-2462 519 0
-2462 682 0
-2463 524 0
-2463 528 0
-2464 528 0
-2464 723 0
2321 2360 2449 2450 2451 2452 2453 2454 2455 2456 2457 2458 2459 2460 2461 2462 2463 2464 0
-2465 377 0
-2465 571 0
-2466 426 0
-2466 677 0
-2467 428 0
-2467 634 0
-2468 431 0
-2468 717 0
-2469 431 0
-2469 729 0
2321 2360 2389 2449 2450 2451 2455 2456 2457 2458 2461 2462 2465 2466 2467 2468 2469 0
2279 2284 2318 2321 2327 2332 2333 2345 2351 2354 2359 2369 2370 2377 2395 2396 2398 2404 2420 2425 2434 2436 0
641 580 739 556 742 743 740 586 633 660 589 578 0
-2470 381 0
-2470 556 0
-2471 383 0
-2471 595 0
-2472 388 0
-2472 509 0
-2473 388 0
-2473 616 0
-2474 429 0
-2474 610 0
-2475 432 0
-2475 610 0
-2476 436 0
-2476 686 0
-2477 446 0
-2477 648 0
-2478 491 0
-2478 568 0
-2479 497 0
-2479 594 0
-2480 507 0
-2480 560 0
-2481 515 0
-2481 570 0
-2482 525 0
-2482 589 0
-2483 532 0
-2483 560 0
-2484 538 0
-2484 570 0
-2485 543 0
-2485 589 0
-2486 548 0
-2486 560 0
-2487 578 0
-2487 673 0
2272 2277 2279 2286 2291 2293 2327 2333 2338 2342 2354 2387 2394 2396 2407 2408 2424 2444 2470 2471 2472 2473 2474 2475 2476 2477 2478 2479 2480 2481 2482 2483 2484 2485 2486 2487 0
-2488 382 0
-2488 570 0
-2489 384 0
-2489 560 0
-2490 419 0
-2490 744 0
2277 2284 2289 2290 2291 2293 2296 2326 2332 2345 2354 2356 2359 2367 2377 2378 2379 2384 2387 2396 2398 2470 2471 2476 2479 2488 2489 2490 0
-2491 376 0
-2491 659 0
-2492 384 0
-2492 517 0
-2493 391 0
-2493 540 0
-2494 404 0
-2494 518 0
-2495 410 0
-2495 512 0
-2496 483 0
-2496 627 0
-2497 493 0
-2497 527 0
-2498 494 0
-2498 545 0
-2499 502 0
-2499 503 0
-2500 506 0
-2500 521 0
-2501 628 0
-2501 642 0
2270 2309 2310 2342 2346 2409 2421 2480 2482 2486 2491 2492 2493 2494 2495 2496 2497 2498 2499 2500 2501 0
-2502 389 0
-2502 506 0
-2503 390 0
-2503 540 0
-2504 391 0
-2504 538 0
-2505 417 0
-2505 529 0
-2506 419 0
-2506 629 0
-2507 503 0
-2507 504 0
2310 2314 2324 2418 2453 2492 2496 2497 2498 2502 2503 2504 2505 2506 2507 0
529 503 545 538 512 697 543 523 506 518 627 527 0
-2508 375 0
-2508 623 0
-2509 432 0
-2509 737 0
-2510 436 0
-2510 732 0
-2511 436 0
-2511 744 0
-2512 442 0
-2512 597 0
-2513 480 0
-2513 702 0
-2514 560 0
-2514 561 0
-2515 602 0
-2515 607 0
-2516 682 0
-2516 686 0
2268 2272 2282 2336 2339 2355 2357 2377 2387 2394 2396 2397 2422 2423 2437 2445 2508 2509 2510 2511 2512 2513 2514 2515 2516 0
-2517 392 0
-2517 552 0
-2518 409 0
-2518 658 0
-2519 410 0
-2519 555 0
-2520 412 0
-2520 571 0
-2521 415 0
-2521 509 0
-2522 419 0
-2522 671 0
-2523 430 0
-2523 741 0
-2524 443 0
-2524 674 0
-2525 447 0
-2525 541 0
-2526 471 0
-2526 715 0
-2527 482 0
-2527 682 0
-2528 495 0
-2528 708 0
-2529 525 0
-2529 526 0
-2530 547 0
-2530 740 0
2277 2290 2323 2331 2334 2348 2353 2366 2379 2388 2422 2424 2427 2440 2471 2485 2510 2511 2517 2518 2519 2520 2521 2522 2523 2524 2525 2526 2527 2528 2529 2530 0
541 595 556 660 732 586 543 686 526 509 744 743 594 570 638 0
-2531 478 0
-2531 714 0
-2532 493 0
-2532 630 0
-2533 524 0
-2533 707 0
-2534 552 0
-2534 570 0
2304 2310 2370 2531 2532 2533 2534 0
-2535 375 0
-2535 517 0
-2536 406 0
-2536 645 0
-2537 411 0
-2537 518 0
-2538 413 0
-2538 545 0
-2539 433 0
-2539 700 0
-2540 436 0
-2540 683 0
-2541 456 0
-2541 527 0
-2542 480 0
-2542 703 0
-2543 530 0
-2543 708 0
-2544 612 0
-2544 613 0
2535 2536 2537 2538 2539 2540 2541 2542 2543 2544 0
703 527 700 530 0
-2545 406 0
-2545 514 0
-2546 411 0
-2546 648 0
-2547 445 0
-2547 531 0
-2548 445 0
-2548 533 0
-2549 489 0
-2549 637 0
-2550 519 0
-2550 523 0
-2551 523 0
-2551 524 0
-2552 523 0
-2552 710 0
-2553 548 0
-2553 650 0
2268 2272 2282 2283 2351 2359 2368 2371 2387 2394 2396 2421 2422 2430 2438 2444 2474 2510 2511 2512 2513 2514 2515 2545 2546 2547 2548 2549 2550 2551 2552 2553 0
2268 2272 2282 2283 2351 2359 2368 2371 2387 2394 2396 2421 2430 2438 2444 2474 2478 2510 2511 2512 2513 2514 2515 2545 2546 2547 2548 2549 2553 0
-2554 392 0
-2554 532 0
-2555 521 0
-2555 696 0
2268 2283 2302 2318 2323 2326 2336 2357 2371 2376 2378 2379 2390 2438 2444 2474 2479 2490 2512 2513 2523 2545 2546 2547 2548 2549 2550 2551 2552 2554 2555 0
2268 2283 2302 2318 2323 2326 2336 2357 2371 2376 2378 2379 2390 2438 2444 2474 2479 2490 2512 2513 2523 2545 2546 2547 2548 2549 2554 2555 0
558 580 595 560 744 702 686 570 521 745 594 532 0
-2556 390 0
-2556 539 0
-2557 405 0
-2557 627 0
-2558 405 0
-2558 649 0
-2559 414 0
-2559 679 0
-2560 454 0
-2560 528 0
-2561 454 0
-2561 610 0
-2562 468 0
-2562 510 0
-2563 491 0
-2563 508 0
-2564 526 0
-2564 530 0
-2565 615 0
-2565 643 0
-2566 640 0
-2566 641 0
2300 2302 2348 2556 2557 2558 2559 2560 2561 2562 2563 2564 2565 2566 0
-2567 539 0
-2567 546 0
2300 2302 2348 2557 2558 2559 2560 2561 2562 2563 2564 2565 2567 0
-2568 423 0
-2568 510 0
-2569 452 0
-2569 625 0
2285 2348 2556 2557 2558 2560 2561 2563 2566 2568 2569 0
-2570 389 0
-2570 649 0
2285 2348 2556 2557 2560 2561 2563 2568 2569 2570 0
727 508 530 510 610 528 0
-2571 418 0
-2571 541 0
-2572 418 0
-2572 646 0
-2573 420 0
-2573 673 0
-2574 427 0
-2574 633 0
-2575 433 0
-2575 686 0
-2576 446 0
-2576 553 0
-2577 490 0
-2577 742 0
-2578 533 0
-2578 570 0
-2579 540 0
-2579 645 0
-2580 586 0
-2580 695 0
-2581 613 0
-2581 616 0
2267 2282 2291 2294 2340 2357 2361 2372 2373 2378 2388 2408 2409 2439 2456 2481 2484 2493 2509 2513 2515 2523 2529 2571 2572 2573 2574 2575 2576 2577 2578 2579 2580 2581 0
-2582 420 0
-2582 540 0
-2583 516 0
-2583 673 0
-2584 540 0
-2584 610 0
-2585 654 0
-2585 695 0
2267 2268 2273 2278 2280 2291 2294 2337 2372 2373 2383 2388 2409 2422 2439 2479 2509 2513 2515 2523 2534 2572 2574 2575 2576 2577 2581 2582 2583 2584 2585 0
-2586 407 0
-2586 538 0
-2587 444 0
-2587 658 0
-2588 469 0
-2588 614 0
-2589 483 0
-2589 740 0
-2590 554 0
-2590 710 0
2269 2272 2279 2282 2283 2289 2295 2334 2345 2356 2367 2373 2378 2404 2427 2433 2436 2510 2511 2519 2520 2528 2574 2586 2587 2588 2589 2590 0
586 732 744 740 589 743 671 595 660 594 686 570 0
-2591 376 0
-2591 617 0
-2592 412 0
-2592 508 0
-2593 413 0
-2593 514 0
-2594 414 0
-2594 722 0
-2595 440 0
-2595 650 0
-2596 455 0
-2596 545 0
-2597 456 0
-2597 716 0
-2598 488 0
-2598 670 0
-2599 500 0
-2599 637 0
-2600 531 0
-2600 657 0
-2601 545 0
-2601 708 0
-2602 587 0
-2602 589 0
-2603 725 0
-2603 726 0
2269 2291 2312 2313 2321 2369 2375 2427 2450 2538 2591 2592 2593 2594 2595 2596 2597 2598 2599 2600 2601 2602 2603 0
-2604 416 0
-2604 594 0
-2605 440 0
-2605 555 0
-2606 540 0
-2606 738 0
-2607 556 0
-2607 671 0
-2608 646 0
-2608 739 0
2269 2280 2286 2291 2293 2323 2331 2334 2335 2342 2346 2353 2359 2378 2383 2388 2396 2405 2406 2427 2433 2440 2471 2516 2517 2518 2520 2523 2529 2604 2605 2606 2607 2608 0
-2609 570 0
-2609 571 0
2277 2279 2286 2323 2331 2345 2359 2366 2367 2383 2394 2395 2396 2398 2417 2422 2427 2471 2472 2474 2475 2509 2510 2516 2518 2519 2523 2534 2604 2607 2609 0
595 526 586 594 686 638 743 658 543 541 509 580 732 556 744 660 0
-2610 380 0
-2610 654 0
-2611 414 0
-2611 597 0
-2612 443 0
-2612 588 0
-2613 448 0
-2613 520 0
-2614 450 0
-2614 689 0
-2615 519 0
-2615 662 0
-2616 533 0
-2616 613 0
-2617 691 0
-2617 744 0
2281 2289 2290 2318 2329 2332 2336 2396 2402 2408 2413 2422 2438 2444 2447 2477 2481 2484 2509 2514 2515 2523 2529 2545 2547 2553 2610 2611 2612 2613 2614 2615 2616 2617 0
-2618 416 0
-2618 561 0
-2619 448 0
-2619 525 0
-2620 448 0
-2620 695 0
-2621 513 0
-2621 514 0
-2622 551 0
-2622 641 0
2268 2269 2271 2272 2275 2281 2286 2289 2318 2329 2391 2393 2404 2413 2477 2478 2509 2515 2547 2548 2553 2574 2613 2618 2619 2620 2621 2622 0
-2623 407 0
-2623 752 0
-2624 560 0
-2624 650 0
-2625 595 0
-2625 597 0
2268 2281 2286 2290 2301 2359 2377 2387 2396 2402 2413 2422 2426 2437 2508 2514 2523 2547 2548 2580 2613 2619 2622 2623 2624 2625 0
650 741 607 580 742 738 633 561 557 623 570 568 578 597 0
-2626 390 0
-2626 553 0
-2627 412 0
-2627 614 0
-2628 419 0
-2628 524 0
-2629 443 0
-2629 516 0
-2630 457 0
-2630 707 0
-2631 462 0
-2631 516 0
-2632 513 0
-2632 646 0
-2633 518 0
-2633 560 0
-2634 520 0
-2634 694 0
-2635 534 0
-2635 735 0
-2636 537 0
-2636 538 0
2267 2272 2277 2327 2340 2368 2373 2377 2388 2398 2399 2409 2427 2456 2478 2480 2483 2486 2490 2493 2510 2513 2516 2529 2550 2571 2574 2578 2579 2581 2589 2604 2626 2627 2628 2629 2630 2631 2632 2633 2634 2635 2636 0
-2637 410 0
-2637 570 0
-2638 508 0
-2638 614 0
-2639 707 0
-2639 737 0
2267 2271 2272 2273 2275 2278 2283 2291 2305 2327 2357 2372 2383 2388 2409 2424 2427 2433 2439 2478 2493 2510 2511 2513 2515 2552 2572 2574 2577 2579 2581 2583 2604 2635 2636 2637 2638 2639 0
-2640 376 0
-2640 645 0
-2641 378 0
-2641 528 0
-2642 412 0
-2642 534 0
-2643 422 0
-2643 626 0
-2644 439 0
-2644 613 0
-2645 443 0
-2645 694 0
-2646 449 0
-2646 537 0
-2647 519 0
-2647 556 0
2267 2293 2327 2332 2337 2342 2372 2373 2383 2388 2389 2405 2406 2424 2427 2476 2493 2523 2560 2574 2575 2577 2589 2604 2614 2626 2629 2631 2632 2638 2640 2641 2642 2643 2644 2645 2646 2647 0
740 533 746 613 741 528 595 558 689 516 534 645 614 633 670 694 524 713 537 560 732 594 540 646 742 509 556 541 660 0
-2648 416 0
-2648 588 0
-2649 418 0
-2649 596 0
-2650 481 0
-2650 732 0
-2651 595 0
-2651 619 0
2267 2277 2279 2281 2283 2284 2286 2289 2290 2291 2292 2305 2361 2398 2432 2478 2491 2523 2604 2637 2648 2649 2650 2651 0
-2652 511 0
-2652 512 0
-2653 531 0
-2653 556 0
-2654 534 0
-2654 556 0
-2655 588 0
-2655 589 0
-2656 589 0
-2656 659 0
2269 2271 2272 2275 2279 2282 2284 2293 2334 2366 2367 2369 2371 2395 2408 2422 2423 2437 2481 2484 2490 2513 2527 2578 2647 2652 2653 2654 2655 2656 0
-2657 595 0
-2657 596 0
2269 2272 2279 2284 2290 2293 2321 2327 2334 2366 2371 2395 2420 2422 2433 2437 2488 2490 2513 2516 2604 2612 2651 2656 2657 0
588 741 534 744 533 538 743 659 737 619 602 596 515 524 610 531 732 746 519 511 568 554 0
2291 2301 2323 2326 2328 2332 2333 2334 2336 2338 2340 2342 2350 2354 2366 2368 2369 2387 2391 2396 2397 2421 2424 2427 2432 2446 2475 2482 2485 2490 0
2291 2301 2323 2326 2328 2332 2333 2334 2336 2338 2350 2354 2366 2368 2369 2386 2387 2391 2396 2397 2421 2424 2427 2432 2446 2475 2490 0
-2658 517 0
-2658 675 0
-2659 537 0
-2659 691 0
-2660 538 0
-2660 737 0
-2661 568 0
-2661 643 0
2269 2277 2284 2289 2290 2293 2329 2348 2354 2357 2359 2360 2361 2382 2384 2387 2396 2400 2409 2413 2416 2470 2471 2472 2479 2481 2482 2484 2485 2489 2527 2530 2577 2581 2658 2659 2660 2661 0
2277 2280 2284 2291 2296 2305 2326 2329 2332 2336 2345 2354 2357 2360 2378 2379 2382 2387 2396 2409 2416 2423 2424 2432 2437 2470 2471 2479 2489 2523 2525 2527 2577 2637 2650 2659 2660 0
544 580 525 712 568 739 578 558 586 691 686 515 613 536 556 560 538 732 741 529 595 509 713 675 543 738 727 660 554 0
-2662 378 0
-2662 692 0
-2663 507 0
-2663 508 0
-2664 511 0
-2664 556 0
-2665 554 0
-2665 614 0
-2666 580 0
-2666 581 0
-2667 580 0
-2667 681 0
2279 2290 2291 2293 2302 2323 2359 2368 2371 2381 2384 2390 2391 2396 2407 2422 2436 2444 2471 2479 2511 2513 2516 2662 2663 2664 2665 2666 2667 0
-2668 417 0
-2668 580 0
-2669 485 0
-2669 511 0
2272 2279 2290 2291 2293 2302 2323 2357 2359 2371 2375 2381 2390 2391 2396 2407 2413 2422 2444 2471 2479 2511 2513 2516 2662 2668 2669 0
-2670 420 0
-2670 569 0
-2671 437 0
-2671 638 0
-2672 485 0
-2672 640 0
-2673 587 0
-2673 739 0
2272 2282 2284 2286 2323 2328 2329 2368 2373 2395 2489 2527 2650 2662 2666 2667 2669 2670 2671 2672 2673 0
681 739 745 682 702 595 570 594 732 560 558 744 735 0
-2674 387 0
-2674 532 0
-2675 391 0
-2675 504 0
-2676 391 0
-2676 545 0
-2677 447 0
-2677 537 0
-2678 458 0
-2678 521 0
-2679 481 0
-2679 654 0
-2680 501 0
-2680 506 0
-2681 505 0
-2681 506 0
-2682 621 0
-2682 736 0
2300 2331 2401 2525 2586 2591 2659 2674 2675 2676 2677 2678 2679 2680 2681 2682 0
-2683 477 0
-2683 700 0
-2684 506 0
-2684 530 0
-2685 537 0
-2685 703 0
2353 2535 2536 2537 2541 2544 2683 2684 2685 0
-2686 413 0
-2686 530 0
-2687 440 0
-2687 527 0
2535 2536 2537 2539 2542 2544 2686 2687 0
506 725 537 527 700 0
-2688 419 0
-2688 628 0
-2689 460 0
-2689 517 0
-2690 532 0
-2690 732 0
-2691 540 0
-2691 632 0
2314 2324 2496 2497 2498 2500 2504 2505 2507 2550 2551 2688 2689 2690 2691 0
-2692 381 0
-2692 697 0
-2693 518 0
-2693 561 0
2270 2310 2314 2324 2409 2496 2497 2498 2499 2500 2503 2689 2692 2693 0
-2694 376 0
-2694 581 0
-2695 419 0
-2695 681 0
-2696 492 0
-2696 609 0
-2697 514 0
-2697 595 0
-2698 527 0
-2698 530 0
-2699 544 0
-2699 595 0
-2700 620 0
-2700 741 0
2276 2320 2329 2343 2355 2357 2372 2376 2380 2381 2391 2490 2513 2527 2604 2694 2695 2696 2697 2698 2699 2700 0
-2701 428 0
-2701 749 0
-2702 443 0
-2702 681 0
-2703 570 0
-2703 692 0
2286 2328 2357 2371 2372 2376 2380 2381 2430 2471 2527 2577 2604 2694 2696 2701 2702 2703 0
742 544 686 620 744 702 745 558 569 547 666 594 560 530 622 514 681 581 692 0
-2704 375 0
-2704 627 0
-2705 382 0
-2705 508 0
-2706 384 0
-2706 545 0
-2707 390 0
-2707 545 0
-2708 392 0
-2708 502 0
-2709 406 0
-2709 647 0
-2710 409 0
-2710 511 0
-2711 412 0
-2711 531 0
-2712 418 0
-2712 674 0
-2713 447 0
-2713 504 0
-2714 464 0
-2714 724 0
-2715 490 0
-2715 606 0
-2716 526 0
-2716 708 0
-2717 624 0
-2717 680 0
2382 2450 2493 2645 2677 2704 2705 2706 2707 2708 2709 2710 2711 2712 2713 2714 2715 2716 2717 0
-2718 392 0
-2718 670 0
-2719 470 0
-2719 722 0
-2720 518 0
-2720 521 0
-2721 534 0
-2721 537 0
-2722 710 0
-2722 735 0
2286 2289 2321 2326 2332 2334 2340 2342 2350 2354 2360 2361 2369 2377 2387 2389 2393 2395 2396 2414 2416 2420 2421 2429 2432 2435 2482 2485 2555 2718 2719 2720 2721 2722 0
-2723 407 0
-2723 614 0
-2724 408 0
-2724 712 0
-2725 689 0
-2725 744 0
2277 2291 2302 2321 2326 2327 2332 2334 2336 2345 2354 2355 2357 2377 2387 2389 2390 2396 2402 2407 2414 2420 2435 2437 2552 2718 2721 2723 2724 2725 0
638 509 525 578 631 534 718 586 543 507 746 722 668 557 641 541 670 607 633 640 521 742 580 0
-2726 379 0
-2726 561 0
-2727 515 0
-2727 516 0
-2728 691 0
-2728 702 0
2280 2283 2290 2318 2323 2326 2336 2337 2339 2371 2378 2379 2384 2389 2396 2437 2445 2463 2479 2484 2508 2509 2510 2511 2550 2577 2578 2599 2611 2726 2727 2728 0
2283 2293 2305 2318 2337 2339 2351 2355 2371 2378 2391 2393 2394 2404 2445 2448 2490 2509 2512 2513 2514 2515 2523 2574 2599 2604 2637 0
-2729 700 0
-2729 722 0
-2730 712 0
-2730 745 0
2272 2283 2288 2290 2370 2378 2388 2391 2393 2397 2408 2409 2413 2426 2439 2441 2445 2479 2481 2484 2508 2509 2511 2512 2513 2549 2550 2551 2552 2555 2574 2578 2650 2693 2729 2730 0
2272 2282 2283 2290 2328 2334 2337 2351 2355 2370 2371 2377 2387 2393 2394 2396 2422 2426 2488 2490 2508 2510 2514 2599 2624 2625 0
529 515 540 607 578 633 538 536 623 520 560 568 744 738 742 533 524 741 0
-2731 571 0
-2731 737 0
2284 2291 2342 2349 2359 2369 2370 2377 2387 2390 2396 2413 2424 2472 2482 2485 2731 0
2277 2284 2291 2336 2345 2370 2377 2387 2390 2396 2398 2413 2446 2731 0
-2732 444 0
-2732 579 0
-2733 491 0
-2733 606 0
-2734 514 0
-2734 517 0
-2735 524 0
-2735 702 0
-2736 580 0
-2736 632 0
2267 2273 2278 2289 2297 2302 2355 2357 2359 2366 2367 2369 2377 2390 2394 2407 2424 2431 2484 2530 2574 2575 2639 2696 2721 2723 2732 2733 2734 2735 2736 0
-2737 418 0
-2737 579 0
2267 2269 2273 2278 2280 2291 2297 2302 2323 2327 2336 2351 2357 2369 2377 2390 2394 2431 2484 2574 2575 2639 2696 2721 2723 2733 2735 2736 2737 0
666 560 739 633 701 743 742 632 556 754 586 587 570 740 578 579 0
-2738 420 0
-2738 587 0
-2739 438 0
-2739 754 0
-2740 493 0
-2740 609 0
-2741 633 0
-2741 749 0
2267 2269 2277 2289 2339 2359 2363 2375 2391 2431 2432 2436 2489 2552 2575 2586 2589 2638 2639 2738 2739 2740 2741 0
2267 2269 2277 2289 2339 2359 2375 2391 2431 2432 2436 2489 2552 2574 2575 2586 2589 2638 2639 2738 2739 2740 0
2267 2280 2291 2336 2351 2370 2375 2391 2398 2413 2427 2431 2432 2433 2476 2483 2486 2504 2537 2574 2602 2638 2639 2663 2696 2734 0
2267 2269 2284 2351 2361 2370 2375 2380 2391 2393 2432 2433 2436 2476 2489 2574 2586 2589 2639 2723 2738 2740 0
586 507 518 556 743 739 578 548 633 742 532 587 660 740 580 0
-2742 375 0
-2742 587 0
-2743 377 0
-2743 632 0
-2744 442 0
-2744 701 0
-2745 569 0
-2745 570 0
2267 2280 2291 2297 2336 2368 2369 2372 2377 2394 2397 2398 2431 2574 2586 2598 2638 2727 2732 2733 2740 2742 2743 2744 2745 0
2267 2277 2280 2291 2297 2313 2357 2359 2372 2391 2394 2397 2424 2431 2574 2586 2598 2627 2696 2715 2737 2742 2743 2744 0
-2746 390 0
-2746 543 0
-2747 423 0
-2747 723 0
-2748 516 0
-2748 520 0
-2749 553 0
-2749 619 0
-2750 692 0
-2750 702 0
2268 2271 2275 2281 2282 2293 2352 2378 2384 2393 2394 2402 2433 2440 2441 2473 2474 2476 2490 2514 2515 2548 2574 2577 2582 2595 2619 2634 2653 2740 2746 2747 2748 2749 2750 0
-2751 441 0
-2751 619 0
-2752 551 0
-2752 560 0
-2753 668 0
-2753 743 0
2268 2271 2275 2293 2318 2328 2359 2378 2384 2394 2401 2433 2445 2474 2476 2503 2511 2515 2548 2574 2577 2604 2613 2618 2619 2653 2696 2746 2747 2751 2752 2753 0
686 520 540 570 536 607 529 561 568 616 673 623 597 742 633 741 650 0
-2754 403 0
-2754 536 0
-2755 503 0
-2755 536 0
-2756 660 0
-2756 666 0
2269 2288 2301 2302 2332 2345 2349 2359 2390 2391 2395 2396 2400 2413 2418 2419 2433 2439 2440 2490 2520 2754 2755 2756 0
2269 2301 2302 2332 2345 2349 2354 2359 2387 2390 2391 2395 2396 2400 2413 2418 2419 2433 2490 2520 2756 0
-2757 440 0
-2757 657 0
-2758 446 0
-2758 548 0
-2759 552 0
-2759 658 0
-2760 553 0
-2760 623 0
2268 2279 2282 2284 2287 2288 2317 2321 2323 2327 2329 2361 2369 2402 2418 2420 2474 2475 2491 2516 2523 2547 2586 2636 2648 2649 2650 2651 2659 2671 2718 2733 2735 2757 2758 2759 2760 0
-2761 415 0
-2761 619 0
2268 2271 2275 2279 2280 2284 2286 2287 2288 2290 2321 2327 2329 2369 2384 2388 2415 2418 2420 2429 2437 2513 2527 2547 2586 2604 2636 2648 2650 2656 2671 2715 2757 2758 2761 0
614 741 670 589 746 607 538 723 610 662 658 512 537 523 619 531 550 570 0
2272 2279 2293 2320 2336 2355 2368 2371 2376 2381 2413 2422 2423 2471 2480 2483 2486 2511 2513 2527 2577 2604 2633 2662 2694 2702 2740 0
2272 2279 2293 2320 2336 2355 2368 2371 2376 2381 2413 2422 2423 2471 2489 2511 2513 2527 2577 2604 2662 2694 2702 2740 0
-2762 409 0
-2762 670 0
-2763 507 0
-2763 527 0
-2764 519 0
-2764 521 0
2268 2285 2286 2289 2293 2294 2313 2318 2323 2326 2337 2343 2359 2363 2369 2371 2372 2379 2384 2386 2391 2395 2404 2422 2427 2503 2509 2513 2548 2564 2586 2590 2600 2604 2621 2627 2654 2664 2699 2741 2746 2752 2762 2763 2764 0
2268 2271 2275 2282 2292 2313 2318 2321 2326 2329 2337 2351 2352 2366 2367 2372 2378 2379 2384 2386 2393 2395 2404 2420 2427 2430 2433 2490 2503 2509 2510 2513 2516 2548 2574 2577 2586 2718 2723 2746 0
744 607 544 670 533 507 630 702 638 578 570 543 511 540 531 660 610 732 560 513 725 521 534 589 580 508 530 745 547 594 723 586 0
-2765 380 0
-2765 596 0
-2766 409 0
-2766 519 0
-2767 452 0
-2767 606 0
-2768 630 0
-2768 710 0
2270 2273 2277 2278 2279 2281 2282 2289 2290 2334 2361 2380 2384 2395 2402 2431 2432 2476 2478 2486 2488 2490 2493 2599 2626 2633 2652 2654 2711 2718 2761 2765 2766 2767 2768 0
-2769 553 0
-2769 595 0
2280 2334 2362 2367 2369 2380 2384 2401 2402 2422 2423 2431 2476 2479 2488 2493 2504 2511 2515 2549 2589 2612 2633 2649 2652 2654 2656 2711 2718 2751 2758 2766 2767 2769 0
-2770 415 0
-2770 725 0
-2771 417 0
-2771 520 0
-2772 449 0
-2772 552 0
-2773 518 0
-2773 660 0
-2774 520 0
-2774 665 0
-2775 532 0
-2775 679 0
-2776 547 0
-2776 654 0
-2777 696 0
-2777 732 0
2268 2286 2302 2320 2321 2341 2347 2357 2371 2388 2390 2402 2405 2406 2417 2420 2473 2477 2478 2479 2493 2509 2513 2524 2525 2551 2573 2579 2586 2615 2621 2632 2638 2699 2700 2718 2770 2771 2772 2773 2774 2775 2776 2777 0
-2778 376 0
-2778 513 0
-2779 387 0
-2779 547 0
-2780 462 0
-2780 513 0
-2781 526 0
-2781 715 0
2269 2271 2275 2283 2291 2293 2305 2321 2337 2353 2372 2377 2384 2388 2406 2417 2420 2439 2473 2478 2490 2509 2513 2524 2525 2552 2574 2582 2583 2584 2586 2613 2635 2637 2638 2674 2773 2778 2779 2780 2781 0
713 645 558 537 544 648 666 533 516 741 613 509 646 633 594 560 614 540 556 528 530 686 662 743 725 547 679 744 694 524 514 638 541 0
-2782 485 0
-2782 644 0
-2783 505 0
-2783 546 0
-2784 699 0
-2784 758 0
2294 2308 2360 2452 2455 2456 2458 2463 2782 2783 2784 0
2308 2360 2452 2455 2456 2458 2463 2782 2783 2784 0
2284 2288 2326 2345 2349 2369 2390 2393 2395 2396 2424 2439 2440 2441 2520 2577 0
2284 2326 2345 2349 2369 2387 2390 2393 2395 2396 2424 2520 2577 0
529 560 737 589 540 520 631 660 578 743 633 607 740 742 586 536 0
-2785 555 0
-2785 556 0
2272 2276 2289 2293 2313 2327 2334 2338 2345 2366 2378 2379 2417 2424 2427 2433 2461 2462 2471 2472 2520 2522 2587 2604 2606 2614 2617 2671 2762 2785 0
-2786 570 0
-2786 658 0
2272 2277 2282 2283 2293 2313 2327 2334 2345 2351 2356 2361 2379 2417 2422 2424 2427 2461 2465 2471 2472 2490 2605 2606 2607 2671 2762 2786 0
-2787 446 0
-2787 531 0
-2788 548 0
-2788 630 0
-2789 640 0
-2789 742 0
2279 2282 2284 2291 2302 2305 2343 2345 2369 2378 2387 2390 2393 2396 2424 2430 2436 2470 2474 2476 2490 2510 2523 2637 2697 2698 2699 2787 2788 2789 0
2271 2272 2275 2277 2279 2282 2284 2291 2293 2345 2359 2387 2396 2422 2424 2430 2436 2470 2474 2476 2488 2489 2490 2520 2577 2758 2787 0
744 594 743 586 530 741 544 638 570 556 514 732 686 547 589 660 0
-2266 0
