p cnf 1792 4304
1 0
2 0
3 0
4 0
5 0
6 0
7 0
8 0
9 0
10 0
11 0
12 0
13 0
14 0
15 0
16 0
17 0
18 0
19 0
20 0
21 0
22 0
23 0
24 0
25 0
26 0
27 0
28 0
29 0
30 0
31 0
32 0
33 0
34 0
35 0
36 0
37 0
38 0
39 0
40 0
41 0
42 0
43 0
44 0
45 0
46 0
47 0
48 0
49 0
50 0
51 0
52 0
53 0
54 0
55 0
56 0
57 0
58 0
59 0
60 0
61 0
62 0
63 0
64 0
65 0
66 0
67 0
68 0
69 0
70 0
71 0
72 0
73 0
74 0
75 0
76 0
77 0
78 0
79 0
80 0
81 0
82 0
83 0
84 0
85 0
86 0
87 0
88 0
89 0
90 0
91 0
92 0
93 0
94 0
95 0
96 0
97 0
98 0
99 0
100 0
101 0
102 0
103 0
104 0
105 0
106 0
107 0
108 0
109 0
110 0
111 0
112 0
113 0
114 0
115 0
116 0
117 0
118 0
119 0
120 0
121 0
122 0
123 0
124 0
125 0
126 0
127 0
128 0
129 0
130 0
131 0
132 0
133 0
134 0
135 0
136 0
137 0
138 0
139 0
140 0
141 0
142 0
143 0
144 0
145 0
146 0
147 0
148 0
149 0
150 0
151 0
152 0
153 0
154 0
155 0
156 0
157 0
158 0
159 0
160 0
161 0
162 0
163 0
164 0
165 0
166 0
167 0
168 0
169 0
170 0
171 0
172 0
173 0
174 0
175 0
176 0
177 0
178 0
179 0
180 0
181 0
182 0
183 0
184 0
185 0
186 0
187 0
188 0
189 0
190 0
191 0
192 0
193 0
194 0
195 0
196 0
197 0
198 0
199 0
200 0
201 0
202 0
203 0
204 0
205 0
206 0
207 0
208 0
209 0
210 0
211 0
212 0
213 0
214 0
215 0
216 0
217 0
218 0
219 0
220 0
221 0
222 0
223 0
224 0
225 0
226 0
227 0
228 0
229 0
230 0
231 0
232 0
233 0
234 0
235 0
236 0
237 0
238 0
239 0
240 0
241 0
242 0
243 0
244 0
245 0
246 0
247 0
248 0
249 0
250 0
251 0
252 0
253 0
254 0
255 0
256 0
257 0
258 0
259 0
260 0
261 0
262 0
263 0
264 0
265 0
266 0
267 0
268 0
269 0
270 0
271 0
272 0
273 0
274 0
275 0
276 0
277 0
278 0
279 0
280 0
281 0
282 0
283 0
284 0
285 0
286 0
287 0
288 0
289 0
290 0
291 0
292 0
293 0
294 0
295 0
296 0
297 0
298 0
299 0
300 0
301 0
302 0
303 0
304 0
305 0
306 0
307 0
308 0
309 0
310 0
311 0
312 0
313 0
314 0
315 0
316 0
317 0
318 0
319 0
320 0
321 0
322 0
323 0
324 0
325 0
326 0
327 0
328 0
329 0
330 0
331 0
332 0
333 0
334 0
335 0
336 0
337 0
338 0
339 0
340 0
341 0
342 0
343 0
344 0
345 0
346 0
347 0
348 0
349 0
350 0
351 0
352 0
353 0
354 0
355 0
356 0
357 0
358 0
359 0
360 0
531 0
532 0
533 0
534 0
535 0
536 0
537 0
538 0
539 0
540 0
541 0
542 0
543 0
544 0
545 0
546 0
547 0
548 0
549 0
550 0
551 0
552 0
553 0
554 0
555 0
556 0
557 0
558 0
559 0
560 0
561 0
562 0
563 0
564 0
565 0
566 0
567 0
568 0
569 0
570 0
571 0
572 0
573 0
574 0
575 0
576 0
577 0
578 0
579 0
580 0
581 0
582 0
583 0
584 0
585 0
586 0
587 0
588 0
589 0
590 0
591 0
592 0
593 0
594 0
595 0
596 0
597 0
598 0
599 0
600 0
601 0
602 0
603 0
604 0
605 0
606 0
607 0
608 0
609 0
610 0
611 0
612 0
613 0
614 0
615 0
616 0
617 0
618 0
619 0
620 0
621 0
622 0
623 0
624 0
625 0
626 0
627 0
628 0
629 0
630 0
631 0
632 0
633 0
634 0
635 0
636 0
637 0
638 0
639 0
640 0
641 0
642 0
643 0
644 0
645 0
646 0
647 0
648 0
649 0
650 0
651 0
652 0
653 0
654 0
655 0
656 0
657 0
658 0
659 0
660 0
661 0
662 0
663 0
664 0
665 0
-362 666 0
-361 666 0
-361 -362 667 0
-364 668 0
-363 668 0
-363 -364 669 0
-366 670 0
-365 670 0
-365 -366 671 0
-368 672 0
-367 672 0
-367 -368 673 0
-370 674 0
-369 674 0
-369 -370 675 0
-372 676 0
-371 676 0
-371 -372 677 0
-374 678 0
-373 678 0
-373 -374 679 0
-376 680 0
-375 680 0
-375 -376 681 0
-378 682 0
-377 682 0
-377 -378 683 0
-380 684 0
-379 684 0
-379 -380 685 0
-382 686 0
-381 686 0
-381 -382 687 0
-384 688 0
-383 688 0
-383 -384 689 0
-386 690 0
-385 690 0
-385 -386 691 0
-388 692 0
-387 692 0
-387 -388 693 0
-390 694 0
-389 694 0
-389 -390 695 0
-392 696 0
-391 696 0
-391 -392 697 0
-394 698 0
-393 698 0
-393 -394 699 0
-396 700 0
-395 700 0
-395 -396 701 0
-398 702 0
-397 702 0
-397 -398 703 0
-400 704 0
-399 704 0
-399 -400 705 0
-402 706 0
-401 706 0
-401 -402 707 0
-404 708 0
-403 708 0
-403 -404 709 0
-406 710 0
-405 710 0
-405 -406 711 0
-408 712 0
-407 712 0
-407 -408 713 0
-410 714 0
-409 714 0
-409 -410 715 0
-412 716 0
-411 716 0
-411 -412 717 0
-414 718 0
-413 718 0
-413 -414 719 0
-416 720 0
-415 720 0
-415 -416 721 0
-418 722 0
-417 722 0
-417 -418 723 0
-420 724 0
-419 724 0
-419 -420 725 0
-422 726 0
-421 726 0
-421 -422 727 0
-424 728 0
-423 728 0
-423 -424 729 0
-426 730 0
-425 730 0
-425 -426 731 0
-428 732 0
-427 732 0
-427 -428 733 0
-430 734 0
-429 734 0
-429 -430 735 0
-432 736 0
-431 736 0
-431 -432 737 0
-434 738 0
-433 738 0
-433 -434 739 0
-436 740 0
-435 740 0
-435 -436 741 0
-438 742 0
-437 742 0
-437 -438 743 0
-440 744 0
-439 744 0
-439 -440 745 0
-442 746 0
-441 746 0
-441 -442 747 0
-444 748 0
-443 748 0
-443 -444 749 0
-446 750 0
-445 750 0
-445 -446 751 0
-448 752 0
-447 752 0
-447 -448 753 0
-450 754 0
-449 754 0
-449 -450 755 0
-452 756 0
-451 756 0
-451 -452 757 0
-454 758 0
-453 758 0
-453 -454 759 0
-456 760 0
-455 760 0
-455 -456 761 0
-458 762 0
-457 762 0
-457 -458 763 0
-460 764 0
-459 764 0
-459 -460 765 0
-462 766 0
-461 766 0
-461 -462 767 0
-464 768 0
-463 768 0
-463 -464 769 0
-466 770 0
-465 770 0
-465 -466 771 0
-468 772 0
-467 772 0
-467 -468 773 0
-470 774 0
-469 774 0
-469 -470 775 0
-472 776 0
-471 776 0
-471 -472 777 0
-474 778 0
-473 778 0
-473 -474 779 0
-476 780 0
-475 780 0
-475 -476 781 0
-478 782 0
-477 782 0
-477 -478 783 0
-480 784 0
-479 784 0
-479 -480 785 0
-482 786 0
-481 786 0
-481 -482 787 0
-484 788 0
-483 788 0
-483 -484 789 0
-486 790 0
-485 790 0
-485 -486 791 0
-488 792 0
-487 792 0
-487 -488 793 0
-490 794 0
-489 794 0
-489 -490 795 0
-492 796 0
-491 796 0
-491 -492 797 0
-494 798 0
-493 798 0
-493 -494 799 0
-496 800 0
-495 800 0
-495 -496 801 0
-498 802 0
-497 802 0
-497 -498 803 0
-500 804 0
-499 804 0
-499 -500 805 0
-502 806 0
-501 806 0
-501 -502 807 0
-504 808 0
-503 808 0
-503 -504 809 0
-506 810 0
-505 810 0
-505 -506 811 0
-508 812 0
-507 812 0
-507 -508 813 0
-510 814 0
-509 814 0
-509 -510 815 0
-512 816 0
-511 816 0
-511 -512 817 0
-514 818 0
-513 818 0
-513 -514 819 0
-516 820 0
-515 820 0
-515 -516 821 0
-518 822 0
-517 822 0
-517 -518 823 0
-520 824 0
-519 824 0
-519 -520 825 0
-522 826 0
-521 826 0
-521 -522 827 0
-524 828 0
-523 828 0
-523 -524 829 0
-526 830 0
-525 830 0
-525 -526 831 0
-528 832 0
-527 832 0
-527 -528 833 0
-530 834 0
-529 834 0
-529 -530 835 0
-668 836 0
-669 837 0
-666 836 0
-667 837 0
-666 -668 837 0
-666 -669 838 0
-667 -668 838 0
-667 -669 839 0
-672 840 0
-673 841 0
-670 840 0
-671 841 0
-670 -672 841 0
-670 -673 842 0
-671 -672 842 0
-671 -673 843 0
-676 844 0
-677 845 0
-674 844 0
-675 845 0
-674 -676 845 0
-674 -677 846 0
-675 -676 846 0
-675 -677 847 0
-680 848 0
-681 849 0
-678 848 0
-679 849 0
-678 -680 849 0
-678 -681 850 0
-679 -680 850 0
-679 -681 851 0
-684 852 0
-685 853 0
-682 852 0
-683 853 0
-682 -684 853 0
-682 -685 854 0
-683 -684 854 0
-683 -685 855 0
-688 856 0
-689 857 0
-686 856 0
-687 857 0
-686 -688 857 0
-686 -689 858 0
-687 -688 858 0
-687 -689 859 0
-692 860 0
-693 861 0
-690 860 0
-691 861 0
-690 -692 861 0
-690 -693 862 0
-691 -692 862 0
-691 -693 863 0
-696 864 0
-697 865 0
-694 864 0
-695 865 0
-694 -696 865 0
-694 -697 866 0
-695 -696 866 0
-695 -697 867 0
-700 868 0
-701 869 0
-698 868 0
-699 869 0
-698 -700 869 0
-698 -701 870 0
-699 -700 870 0
-699 -701 871 0
-704 872 0
-705 873 0
-702 872 0
-703 873 0
-702 -704 873 0
-702 -705 874 0
-703 -704 874 0
-703 -705 875 0
-708 876 0
-709 877 0
-706 876 0
-707 877 0
-706 -708 877 0
-706 -709 878 0
-707 -708 878 0
-707 -709 879 0
-712 880 0
-713 881 0
-710 880 0
-711 881 0
-710 -712 881 0
-710 -713 882 0
-711 -712 882 0
-711 -713 883 0
-716 884 0
-717 885 0
-714 884 0
-715 885 0
-714 -716 885 0
-714 -717 886 0
-715 -716 886 0
-715 -717 887 0
-720 888 0
-721 889 0
-718 888 0
-719 889 0
-718 -720 889 0
-718 -721 890 0
-719 -720 890 0
-719 -721 891 0
-724 892 0
-725 893 0
-722 892 0
-723 893 0
-722 -724 893 0
-722 -725 894 0
-723 -724 894 0
-723 -725 895 0
-728 896 0
-729 897 0
-726 896 0
-727 897 0
-726 -728 897 0
-726 -729 898 0
-727 -728 898 0
-727 -729 899 0
-732 900 0
-733 901 0
-730 900 0
-731 901 0
-730 -732 901 0
-730 -733 902 0
-731 -732 902 0
-731 -733 903 0
-736 904 0
-737 905 0
-734 904 0
-735 905 0
-734 -736 905 0
-734 -737 906 0
-735 -736 906 0
-735 -737 907 0
-740 908 0
-741 909 0
-738 908 0
-739 909 0
-738 -740 909 0
-738 -741 910 0
-739 -740 910 0
-739 -741 911 0
-744 912 0
-745 913 0
-742 912 0
-743 913 0
-742 -744 913 0
-742 -745 914 0
-743 -744 914 0
-743 -745 915 0
-748 916 0
-749 917 0
-746 916 0
-747 917 0
-746 -748 917 0
-746 -749 918 0
-747 -748 918 0
-747 -749 919 0
-752 920 0
-753 921 0
-750 920 0
-751 921 0
-750 -752 921 0
-750 -753 922 0
-751 -752 922 0
-751 -753 923 0
-756 924 0
-757 925 0
-754 924 0
-755 925 0
-754 -756 925 0
-754 -757 926 0
-755 -756 926 0
-755 -757 927 0
-760 928 0
-761 929 0
-758 928 0
-759 929 0
-758 -760 929 0
-758 -761 930 0
-759 -760 930 0
-759 -761 931 0
-764 932 0
-765 933 0
-762 932 0
-763 933 0
-762 -764 933 0
-762 -765 934 0
-763 -764 934 0
-763 -765 935 0
-768 936 0
-769 937 0
-766 936 0
-767 937 0
-766 -768 937 0
-766 -769 938 0
-767 -768 938 0
-767 -769 939 0
-772 940 0
-773 941 0
-770 940 0
-771 941 0
-770 -772 941 0
-770 -773 942 0
-771 -772 942 0
-771 -773 943 0
-776 944 0
-777 945 0
-774 944 0
-775 945 0
-774 -776 945 0
-774 -777 946 0
-775 -776 946 0
-775 -777 947 0
-780 948 0
-781 949 0
-778 948 0
-779 949 0
-778 -780 949 0
-778 -781 950 0
-779 -780 950 0
-779 -781 951 0
-784 952 0
-785 953 0
-782 952 0
-783 953 0
-782 -784 953 0
-782 -785 954 0
-783 -784 954 0
-783 -785 955 0
-788 956 0
-789 957 0
-786 956 0
-787 957 0
-786 -788 957 0
-786 -789 958 0
-787 -788 958 0
-787 -789 959 0
-792 960 0
-793 961 0
-790 960 0
-791 961 0
-790 -792 961 0
-790 -793 962 0
-791 -792 962 0
-791 -793 963 0
-796 964 0
-797 965 0
-794 964 0
-795 965 0
-794 -796 965 0
-794 -797 966 0
-795 -796 966 0
-795 -797 967 0
-800 968 0
-801 969 0
-798 968 0
-799 969 0
-798 -800 969 0
-798 -801 970 0
-799 -800 970 0
-799 -801 971 0
-804 972 0
-805 973 0
-802 972 0
-803 973 0
-802 -804 973 0
-802 -805 974 0
-803 -804 974 0
-803 -805 975 0
-808 976 0
-809 977 0
-806 976 0
-807 977 0
-806 -808 977 0
-806 -809 978 0
-807 -808 978 0
-807 -809 979 0
-812 980 0
-813 981 0
-810 980 0
-811 981 0
-810 -812 981 0
-810 -813 982 0
-811 -812 982 0
-811 -813 983 0
-816 984 0
-817 985 0
-814 984 0
-815 985 0
-814 -816 985 0
-814 -817 986 0
-815 -816 986 0
-815 -817 987 0
-820 988 0
-821 989 0
-818 988 0
-819 989 0
-818 -820 989 0
-818 -821 990 0
-819 -820 990 0
-819 -821 991 0
-824 992 0
-825 993 0
-822 992 0
-823 993 0
-822 -824 993 0
-822 -825 994 0
-823 -824 994 0
-823 -825 995 0
-828 996 0
-829 997 0
-826 996 0
-827 997 0
-826 -828 997 0
-826 -829 998 0
-827 -828 998 0
-827 -829 999 0
-832 1000 0
-833 1001 0
-830 1000 0
-831 1001 0
-830 -832 1001 0
-830 -833 1002 0
-831 -832 1002 0
-831 -833 1003 0
-836 1004 0
-837 1005 0
-838 1006 0
-839 1007 0
-834 1004 0
-835 1005 0
-834 -836 1005 0
-834 -837 1006 0
-834 -838 1007 0
-834 -839 1008 0
-835 -836 1006 0
-835 -837 1007 0
-835 -838 1008 0
-835 -839 1009 0
-844 1010 0
-845 1011 0
-846 1012 0
-847 1013 0
-840 1010 0
-841 1011 0
-842 1012 0
-843 1013 0
-840 -844 1011 0
-840 -845 1012 0
-840 -846 1013 0
-840 -847 1014 0
-841 -844 1012 0
-841 -845 1013 0
-841 -846 1014 0
-841 -847 1015 0
-842 -844 1013 0
-842 -845 1014 0
-842 -846 1015 0
-842 -847 1016 0
-843 -844 1014 0
-843 -845 1015 0
-843 -846 1016 0
-843 -847 1017 0
-852 1018 0
-853 1019 0
-854 1020 0
-855 1021 0
-848 1018 0
-849 1019 0
-850 1020 0
-851 1021 0
-848 -852 1019 0
-848 -853 1020 0
-848 -854 1021 0
-848 -855 1022 0
-849 -852 1020 0
-849 -853 1021 0
-849 -854 1022 0
-849 -855 1023 0
-850 -852 1021 0
-850 -853 1022 0
-850 -854 1023 0
-850 -855 1024 0
-851 -852 1022 0
-851 -853 1023 0
-851 -854 1024 0
-851 -855 1025 0
-860 1026 0
-861 1027 0
-862 1028 0
-863 1029 0
-856 1026 0
-857 1027 0
-858 1028 0
-859 1029 0
-856 -860 1027 0
-856 -861 1028 0
-856 -862 1029 0
-856 -863 1030 0
-857 -860 1028 0
-857 -861 1029 0
-857 -862 1030 0
-857 -863 1031 0
-858 -860 1029 0
-858 -861 1030 0
-858 -862 1031 0
-858 -863 1032 0
-859 -860 1030 0
-859 -861 1031 0
-859 -862 1032 0
-859 -863 1033 0
-868 1034 0
-869 1035 0
-870 1036 0
-871 1037 0
-864 1034 0
-865 1035 0
-866 1036 0
-867 1037 0
-864 -868 1035 0
-864 -869 1036 0
-864 -870 1037 0
-864 -871 1038 0
-865 -868 1036 0
-865 -869 1037 0
-865 -870 1038 0
-865 -871 1039 0
-866 -868 1037 0
-866 -869 1038 0
-866 -870 1039 0
-866 -871 1040 0
-867 -868 1038 0
-867 -869 1039 0
-867 -870 1040 0
-867 -871 1041 0
-876 1042 0
-877 1043 0
-878 1044 0
-879 1045 0
-872 1042 0
-873 1043 0
-874 1044 0
-875 1045 0
-872 -876 1043 0
-872 -877 1044 0
-872 -878 1045 0
-872 -879 1046 0
-873 -876 1044 0
-873 -877 1045 0
-873 -878 1046 0
-873 -879 1047 0
-874 -876 1045 0
-874 -877 1046 0
-874 -878 1047 0
-874 -879 1048 0
-875 -876 1046 0
-875 -877 1047 0
-875 -878 1048 0
-875 -879 1049 0
-884 1050 0
-885 1051 0
-886 1052 0
-887 1053 0
-880 1050 0
-881 1051 0
-882 1052 0
-883 1053 0
-880 -884 1051 0
-880 -885 1052 0
-880 -886 1053 0
-880 -887 1054 0
-881 -884 1052 0
-881 -885 1053 0
-881 -886 1054 0
-881 -887 1055 0
-882 -884 1053 0
-882 -885 1054 0
-882 -886 1055 0
-882 -887 1056 0
-883 -884 1054 0
-883 -885 1055 0
-883 -886 1056 0
-883 -887 1057 0
-892 1058 0
-893 1059 0
-894 1060 0
-895 1061 0
-888 1058 0
-889 1059 0
-890 1060 0
-891 1061 0
-888 -892 1059 0
-888 -893 1060 0
-888 -894 1061 0
-888 -895 1062 0
-889 -892 1060 0
-889 -893 1061 0
-889 -894 1062 0
-889 -895 1063 0
-890 -892 1061 0
-890 -893 1062 0
-890 -894 1063 0
-890 -895 1064 0
-891 -892 1062 0
-891 -893 1063 0
-891 -894 1064 0
-891 -895 1065 0
-900 1066 0
-901 1067 0
-902 1068 0
-903 1069 0
-896 1066 0
-897 1067 0
-898 1068 0
-899 1069 0
-896 -900 1067 0
-896 -901 1068 0
-896 -902 1069 0
-896 -903 1070 0
-897 -900 1068 0
-897 -901 1069 0
-897 -902 1070 0
-897 -903 1071 0
-898 -900 1069 0
-898 -901 1070 0
-898 -902 1071 0
-898 -903 1072 0
-899 -900 1070 0
-899 -901 1071 0
-899 -902 1072 0
-899 -903 1073 0
-908 1074 0
-909 1075 0
-910 1076 0
-911 1077 0
-904 1074 0
-905 1075 0
-906 1076 0
-907 1077 0
-904 -908 1075 0
-904 -909 1076 0
-904 -910 1077 0
-904 -911 1078 0
-905 -908 1076 0
-905 -909 1077 0
-905 -910 1078 0
-905 -911 1079 0
-906 -908 1077 0
-906 -909 1078 0
-906 -910 1079 0
-906 -911 1080 0
-907 -908 1078 0
-907 -909 1079 0
-907 -910 1080 0
-907 -911 1081 0
-916 1082 0
-917 1083 0
-918 1084 0
-919 1085 0
-912 1082 0
-913 1083 0
-914 1084 0
-915 1085 0
-912 -916 1083 0
-912 -917 1084 0
-912 -918 1085 0
-912 -919 1086 0
-913 -916 1084 0
-913 -917 1085 0
-913 -918 1086 0
-913 -919 1087 0
-914 -916 1085 0
-914 -917 1086 0
-914 -918 1087 0
-914 -919 1088 0
-915 -916 1086 0
-915 -917 1087 0
-915 -918 1088 0
-915 -919 1089 0
-924 1090 0
-925 1091 0
-926 1092 0
-927 1093 0
-920 1090 0
-921 1091 0
-922 1092 0
-923 1093 0
-920 -924 1091 0
-920 -925 1092 0
-920 -926 1093 0
-920 -927 1094 0
-921 -924 1092 0
-921 -925 1093 0
-921 -926 1094 0
-921 -927 1095 0
-922 -924 1093 0
-922 -925 1094 0
-922 -926 1095 0
-922 -927 1096 0
-923 -924 1094 0
-923 -925 1095 0
-923 -926 1096 0
-923 -927 1097 0
-932 1098 0
-933 1099 0
-934 1100 0
-935 1101 0
-928 1098 0
-929 1099 0
-930 1100 0
-931 1101 0
-928 -932 1099 0
-928 -933 1100 0
-928 -934 1101 0
-928 -935 1102 0
-929 -932 1100 0
-929 -933 1101 0
-929 -934 1102 0
-929 -935 1103 0
-930 -932 1101 0
-930 -933 1102 0
-930 -934 1103 0
-930 -935 1104 0
-931 -932 1102 0
-931 -933 1103 0
-931 -934 1104 0
-931 -935 1105 0
-940 1106 0
-941 1107 0
-942 1108 0
-943 1109 0
-936 1106 0
-937 1107 0
-938 1108 0
-939 1109 0
-936 -940 1107 0
-936 -941 1108 0
-936 -942 1109 0
-936 -943 1110 0
-937 -940 1108 0
-937 -941 1109 0
-937 -942 1110 0
-937 -943 1111 0
-938 -940 1109 0
-938 -941 1110 0
-938 -942 1111 0
-938 -943 1112 0
-939 -940 1110 0
-939 -941 1111 0
-939 -942 1112 0
-939 -943 1113 0
-948 1114 0
-949 1115 0
-950 1116 0
-951 1117 0
-944 1114 0
-945 1115 0
-946 1116 0
-947 1117 0
-944 -948 1115 0
-944 -949 1116 0
-944 -950 1117 0
-944 -951 1118 0
-945 -948 1116 0
-945 -949 1117 0
-945 -950 1118 0
-945 -951 1119 0
-946 -948 1117 0
-946 -949 1118 0
-946 -950 1119 0
-946 -951 1120 0
-947 -948 1118 0
-947 -949 1119 0
-947 -950 1120 0
-947 -951 1121 0
-956 1122 0
-957 1123 0
-958 1124 0
-959 1125 0
-952 1122 0
-953 1123 0
-954 1124 0
-955 1125 0
-952 -956 1123 0
-952 -957 1124 0
-952 -958 1125 0
-952 -959 1126 0
-953 -956 1124 0
-953 -957 1125 0
-953 -958 1126 0
-953 -959 1127 0
-954 -956 1125 0
-954 -957 1126 0
-954 -958 1127 0
-954 -959 1128 0
-955 -956 1126 0
-955 -957 1127 0
-955 -958 1128 0
-955 -959 1129 0
-964 1130 0
-965 1131 0
-966 1132 0
-967 1133 0
-960 1130 0
-961 1131 0
-962 1132 0
-963 1133 0
-960 -964 1131 0
-960 -965 1132 0
-960 -966 1133 0
-960 -967 1134 0
-961 -964 1132 0
-961 -965 1133 0
-961 -966 1134 0
-961 -967 1135 0
-962 -964 1133 0
-962 -965 1134 0
-962 -966 1135 0
-962 -967 1136 0
-963 -964 1134 0
-963 -965 1135 0
-963 -966 1136 0
-963 -967 1137 0
-972 1138 0
-973 1139 0
-974 1140 0
-975 1141 0
-968 1138 0
-969 1139 0
-970 1140 0
-971 1141 0
-968 -972 1139 0
-968 -973 1140 0
-968 -974 1141 0
-968 -975 1142 0
-969 -972 1140 0
-969 -973 1141 0
-969 -974 1142 0
-969 -975 1143 0
-970 -972 1141 0
-970 -973 1142 0
-970 -974 1143 0
-970 -975 1144 0
-971 -972 1142 0
-971 -973 1143 0
-971 -974 1144 0
-971 -975 1145 0
-980 1146 0
-981 1147 0
-982 1148 0
-983 1149 0
-976 1146 0
-977 1147 0
-978 1148 0
-979 1149 0
-976 -980 1147 0
-976 -981 1148 0
-976 -982 1149 0
-976 -983 1150 0
-977 -980 1148 0
-977 -981 1149 0
-977 -982 1150 0
-977 -983 1151 0
-978 -980 1149 0
-978 -981 1150 0
-978 -982 1151 0
-978 -983 1152 0
-979 -980 1150 0
-979 -981 1151 0
-979 -982 1152 0
-979 -983 1153 0
-988 1154 0
-989 1155 0
-990 1156 0
-991 1157 0
-984 1154 0
-985 1155 0
-986 1156 0
-987 1157 0
-984 -988 1155 0
-984 -989 1156 0
-984 -990 1157 0
-984 -991 1158 0
-985 -988 1156 0
-985 -989 1157 0
-985 -990 1158 0
-985 -991 1159 0
-986 -988 1157 0
-986 -989 1158 0
-986 -990 1159 0
-986 -991 1160 0
-987 -988 1158 0
-987 -989 1159 0
-987 -990 1160 0
-987 -991 1161 0
-996 1162 0
-997 1163 0
-998 1164 0
-999 1165 0
-992 1162 0
-993 1163 0
-994 1164 0
-995 1165 0
-992 -996 1163 0
-992 -997 1164 0
-992 -998 1165 0
-992 -999 1166 0
-993 -996 1164 0
-993 -997 1165 0
-993 -998 1166 0
-993 -999 1167 0
-994 -996 1165 0
-994 -997 1166 0
-994 -998 1167 0
-994 -999 1168 0
-995 -996 1166 0
-995 -997 1167 0
-995 -998 1168 0
-995 -999 1169 0
-1004 1170 0
-1005 1171 0
-1006 1172 0
-1007 1173 0
-1008 1174 0
-1009 1175 0
-1000 1170 0
-1001 1171 0
-1002 1172 0
-1003 1173 0
-1000 -1004 1171 0
-1000 -1005 1172 0
-1000 -1006 1173 0
-1000 -1007 1174 0
-1000 -1008 1175 0
-1000 -1009 1176 0
-1001 -1004 1172 0
-1001 -1005 1173 0
-1001 -1006 1174 0
-1001 -1007 1175 0
-1001 -1008 1176 0
-1001 -1009 1177 0
-1002 -1004 1173 0
-1002 -1005 1174 0
-1002 -1006 1175 0
-1002 -1007 1176 0
-1002 -1008 1177 0
-1002 -1009 1178 0
-1003 -1004 1174 0
-1003 -1005 1175 0
-1003 -1006 1176 0
-1003 -1007 1177 0
-1003 -1008 1178 0
-1003 -1009 1179 0
-1018 1180 0
-1019 1181 0
-1020 1182 0
-1021 1183 0
-1022 1184 0
-1023 1185 0
-1024 1186 0
-1025 1187 0
-1010 1180 0
-1011 1181 0
-1012 1182 0
-1013 1183 0
-1014 1184 0
-1015 1185 0
-1016 1186 0
-1017 1187 0
-1010 -1018 1181 0
-1010 -1019 1182 0
-1010 -1020 1183 0
-1010 -1021 1184 0
-1010 -1022 1185 0
-1010 -1023 1186 0
-1010 -1024 1187 0
-1010 -1025 1188 0
-1011 -1018 1182 0
-1011 -1019 1183 0
-1011 -1020 1184 0
-1011 -1021 1185 0
-1011 -1022 1186 0
-1011 -1023 1187 0
-1011 -1024 1188 0
-1011 -1025 1189 0
-1012 -1018 1183 0
-1012 -1019 1184 0
-1012 -1020 1185 0
-1012 -1021 1186 0
-1012 -1022 1187 0
-1012 -1023 1188 0
-1012 -1024 1189 0
-1012 -1025 1190 0
-1013 -1018 1184 0
-1013 -1019 1185 0
-1013 -1020 1186 0
-1013 -1021 1187 0
-1013 -1022 1188 0
-1013 -1023 1189 0
-1013 -1024 1190 0
-1013 -1025 1191 0
-1014 -1018 1185 0
-1014 -1019 1186 0
-1014 -1020 1187 0
-1014 -1021 1188 0
-1014 -1022 1189 0
-1014 -1023 1190 0
-1014 -1024 1191 0
-1014 -1025 1192 0
-1015 -1018 1186 0
-1015 -1019 1187 0
-1015 -1020 1188 0
-1015 -1021 1189 0
-1015 -1022 1190 0
-1015 -1023 1191 0
-1015 -1024 1192 0
-1015 -1025 1193 0
-1016 -1018 1187 0
-1016 -1019 1188 0
-1016 -1020 1189 0
-1016 -1021 1190 0
-1016 -1022 1191 0
-1016 -1023 1192 0
-1016 -1024 1193 0
-1017 -1018 1188 0
-1017 -1019 1189 0
-1017 -1020 1190 0
-1017 -1021 1191 0
-1017 -1022 1192 0
-1017 -1023 1193 0
-1034 1194 0
-1035 1195 0
-1036 1196 0
-1037 1197 0
-1038 1198 0
-1039 1199 0
-1040 1200 0
-1041 1201 0
-1026 1194 0
-1027 1195 0
-1028 1196 0
-1029 1197 0
-1030 1198 0
-1031 1199 0
-1032 1200 0
-1033 1201 0
-1026 -1034 1195 0
-1026 -1035 1196 0
-1026 -1036 1197 0
-1026 -1037 1198 0
-1026 -1038 1199 0
-1026 -1039 1200 0
-1026 -1040 1201 0
-1026 -1041 1202 0
-1027 -1034 1196 0
-1027 -1035 1197 0
-1027 -1036 1198 0
-1027 -1037 1199 0
-1027 -1038 1200 0
-1027 -1039 1201 0
-1027 -1040 1202 0
-1027 -1041 1203 0
-1028 -1034 1197 0
-1028 -1035 1198 0
-1028 -1036 1199 0
-1028 -1037 1200 0
-1028 -1038 1201 0
-1028 -1039 1202 0
-1028 -1040 1203 0
-1028 -1041 1204 0
-1029 -1034 1198 0
-1029 -1035 1199 0
-1029 -1036 1200 0
-1029 -1037 1201 0
-1029 -1038 1202 0
-1029 -1039 1203 0
-1029 -1040 1204 0
-1029 -1041 1205 0
-1030 -1034 1199 0
-1030 -1035 1200 0
-1030 -1036 1201 0
-1030 -1037 1202 0
-1030 -1038 1203 0
-1030 -1039 1204 0
-1030 -1040 1205 0
-1030 -1041 1206 0
-1031 -1034 1200 0
-1031 -1035 1201 0
-1031 -1036 1202 0
-1031 -1037 1203 0
-1031 -1038 1204 0
-1031 -1039 1205 0
-1031 -1040 1206 0
-1031 -1041 1207 0
-1032 -1034 1201 0
-1032 -1035 1202 0
-1032 -1036 1203 0
-1032 -1037 1204 0
-1032 -1038 1205 0
-1032 -1039 1206 0
-1032 -1040 1207 0
-1033 -1034 1202 0
-1033 -1035 1203 0
-1033 -1036 1204 0
-1033 -1037 1205 0
-1033 -1038 1206 0
-1033 -1039 1207 0
-1050 1208 0
-1051 1209 0
-1052 1210 0
-1053 1211 0
-1054 1212 0
-1055 1213 0
-1056 1214 0
-1057 1215 0
-1042 1208 0
-1043 1209 0
-1044 1210 0
-1045 1211 0
-1046 1212 0
-1047 1213 0
-1048 1214 0
-1049 1215 0
-1042 -1050 1209 0
-1042 -1051 1210 0
-1042 -1052 1211 0
-1042 -1053 1212 0
-1042 -1054 1213 0
-1042 -1055 1214 0
-1042 -1056 1215 0
-1042 -1057 1216 0
-1043 -1050 1210 0
-1043 -1051 1211 0
-1043 -1052 1212 0
-1043 -1053 1213 0
-1043 -1054 1214 0
-1043 -1055 1215 0
-1043 -1056 1216 0
-1043 -1057 1217 0
-1044 -1050 1211 0
-1044 -1051 1212 0
-1044 -1052 1213 0
-1044 -1053 1214 0
-1044 -1054 1215 0
-1044 -1055 1216 0
-1044 -1056 1217 0
-1044 -1057 1218 0
-1045 -1050 1212 0
-1045 -1051 1213 0
-1045 -1052 1214 0
-1045 -1053 1215 0
-1045 -1054 1216 0
-1045 -1055 1217 0
-1045 -1056 1218 0
-1045 -1057 1219 0
-1046 -1050 1213 0
-1046 -1051 1214 0
-1046 -1052 1215 0
-1046 -1053 1216 0
-1046 -1054 1217 0
-1046 -1055 1218 0
-1046 -1056 1219 0
-1046 -1057 1220 0
-1047 -1050 1214 0
-1047 -1051 1215 0
-1047 -1052 1216 0
-1047 -1053 1217 0
-1047 -1054 1218 0
-1047 -1055 1219 0
-1047 -1056 1220 0
-1047 -1057 1221 0
-1048 -1050 1215 0
-1048 -1051 1216 0
-1048 -1052 1217 0
-1048 -1053 1218 0
-1048 -1054 1219 0
-1048 -1055 1220 0
-1048 -1056 1221 0
-1049 -1050 1216 0
-1049 -1051 1217 0
-1049 -1052 1218 0
-1049 -1053 1219 0
-1049 -1054 1220 0
-1049 -1055 1221 0
-1066 1222 0
-1067 1223 0
-1068 1224 0
-1069 1225 0
-1070 1226 0
-1071 1227 0
-1072 1228 0
-1073 1229 0
-1058 1222 0
-1059 1223 0
-1060 1224 0
-1061 1225 0
-1062 1226 0
-1063 1227 0
-1064 1228 0
-1065 1229 0
-1058 -1066 1223 0
-1058 -1067 1224 0
-1058 -1068 1225 0
-1058 -1069 1226 0
-1058 -1070 1227 0
-1058 -1071 1228 0
-1058 -1072 1229 0
-1058 -1073 1230 0
-1059 -1066 1224 0
-1059 -1067 1225 0
-1059 -1068 1226 0
-1059 -1069 1227 0
-1059 -1070 1228 0
-1059 -1071 1229 0
-1059 -1072 1230 0
-1059 -1073 1231 0
-1060 -1066 1225 0
-1060 -1067 1226 0
-1060 -1068 1227 0
-1060 -1069 1228 0
-1060 -1070 1229 0
-1060 -1071 1230 0
-1060 -1072 1231 0
-1060 -1073 1232 0
-1061 -1066 1226 0
-1061 -1067 1227 0
-1061 -1068 1228 0
-1061 -1069 1229 0
-1061 -1070 1230 0
-1061 -1071 1231 0
-1061 -1072 1232 0
-1061 -1073 1233 0
-1062 -1066 1227 0
-1062 -1067 1228 0
-1062 -1068 1229 0
-1062 -1069 1230 0
-1062 -1070 1231 0
-1062 -1071 1232 0
-1062 -1072 1233 0
-1062 -1073 1234 0
-1063 -1066 1228 0
-1063 -1067 1229 0
-1063 -1068 1230 0
-1063 -1069 1231 0
-1063 -1070 1232 0
-1063 -1071 1233 0
-1063 -1072 1234 0
-1063 -1073 1235 0
-1064 -1066 1229 0
-1064 -1067 1230 0
-1064 -1068 1231 0
-1064 -1069 1232 0
-1064 -1070 1233 0
-1064 -1071 1234 0
-1064 -1072 1235 0
-1065 -1066 1230 0
-1065 -1067 1231 0
-1065 -1068 1232 0
-1065 -1069 1233 0
-1065 -1070 1234 0
-1065 -1071 1235 0
-1082 1236 0
-1083 1237 0
-1084 1238 0
-1085 1239 0
-1086 1240 0
-1087 1241 0
-1088 1242 0
-1089 1243 0
-1074 1236 0
-1075 1237 0
-1076 1238 0
-1077 1239 0
-1078 1240 0
-1079 1241 0
-1080 1242 0
-1081 1243 0
-1074 -1082 1237 0
-1074 -1083 1238 0
-1074 -1084 1239 0
-1074 -1085 1240 0
-1074 -1086 1241 0
-1074 -1087 1242 0
-1074 -1088 1243 0
-1074 -1089 1244 0
-1075 -1082 1238 0
-1075 -1083 1239 0
-1075 -1084 1240 0
-1075 -1085 1241 0
-1075 -1086 1242 0
-1075 -1087 1243 0
-1075 -1088 1244 0
-1075 -1089 1245 0
-1076 -1082 1239 0
-1076 -1083 1240 0
-1076 -1084 1241 0
-1076 -1085 1242 0
-1076 -1086 1243 0
-1076 -1087 1244 0
-1076 -1088 1245 0
-1076 -1089 1246 0
-1077 -1082 1240 0
-1077 -1083 1241 0
-1077 -1084 1242 0
-1077 -1085 1243 0
-1077 -1086 1244 0
-1077 -1087 1245 0
-1077 -1088 1246 0
-1077 -1089 1247 0
-1078 -1082 1241 0
-1078 -1083 1242 0
-1078 -1084 1243 0
-1078 -1085 1244 0
-1078 -1086 1245 0
-1078 -1087 1246 0
-1078 -1088 1247 0
-1078 -1089 1248 0
-1079 -1082 1242 0
-1079 -1083 1243 0
-1079 -1084 1244 0
-1079 -1085 1245 0
-1079 -1086 1246 0
-1079 -1087 1247 0
-1079 -1088 1248 0
-1079 -1089 1249 0
-1080 -1082 1243 0
-1080 -1083 1244 0
-1080 -1084 1245 0
-1080 -1085 1246 0
-1080 -1086 1247 0
-1080 -1087 1248 0
-1080 -1088 1249 0
-1081 -1082 1244 0
-1081 -1083 1245 0
-1081 -1084 1246 0
-1081 -1085 1247 0
-1081 -1086 1248 0
-1081 -1087 1249 0
-1098 1250 0
-1099 1251 0
-1100 1252 0
-1101 1253 0
-1102 1254 0
-1103 1255 0
-1104 1256 0
-1105 1257 0
-1090 1250 0
-1091 1251 0
-1092 1252 0
-1093 1253 0
-1094 1254 0
-1095 1255 0
-1096 1256 0
-1097 1257 0
-1090 -1098 1251 0
-1090 -1099 1252 0
-1090 -1100 1253 0
-1090 -1101 1254 0
-1090 -1102 1255 0
-1090 -1103 1256 0
-1090 -1104 1257 0
-1090 -1105 1258 0
-1091 -1098 1252 0
-1091 -1099 1253 0
-1091 -1100 1254 0
-1091 -1101 1255 0
-1091 -1102 1256 0
-1091 -1103 1257 0
-1091 -1104 1258 0
-1091 -1105 1259 0
-1092 -1098 1253 0
-1092 -1099 1254 0
-1092 -1100 1255 0
-1092 -1101 1256 0
-1092 -1102 1257 0
-1092 -1103 1258 0
-1092 -1104 1259 0
-1092 -1105 1260 0
-1093 -1098 1254 0
-1093 -1099 1255 0
-1093 -1100 1256 0
-1093 -1101 1257 0
-1093 -1102 1258 0
-1093 -1103 1259 0
-1093 -1104 1260 0
-1093 -1105 1261 0
-1094 -1098 1255 0
-1094 -1099 1256 0
-1094 -1100 1257 0
-1094 -1101 1258 0
-1094 -1102 1259 0
-1094 -1103 1260 0
-1094 -1104 1261 0
-1094 -1105 1262 0
-1095 -1098 1256 0
-1095 -1099 1257 0
-1095 -1100 1258 0
-1095 -1101 1259 0
-1095 -1102 1260 0
-1095 -1103 1261 0
-1095 -1104 1262 0
-1095 -1105 1263 0
-1096 -1098 1257 0
-1096 -1099 1258 0
-1096 -1100 1259 0
-1096 -1101 1260 0
-1096 -1102 1261 0
-1096 -1103 1262 0
-1096 -1104 1263 0
-1097 -1098 1258 0
-1097 -1099 1259 0
-1097 -1100 1260 0
-1097 -1101 1261 0
-1097 -1102 1262 0
-1097 -1103 1263 0
-1114 1264 0
-1115 1265 0
-1116 1266 0
-1117 1267 0
-1118 1268 0
-1119 1269 0
-1120 1270 0
-1121 1271 0
-1106 1264 0
-1107 1265 0
-1108 1266 0
-1109 1267 0
-1110 1268 0
-1111 1269 0
-1112 1270 0
-1113 1271 0
-1106 -1114 1265 0
-1106 -1115 1266 0
-1106 -1116 1267 0
-1106 -1117 1268 0
-1106 -1118 1269 0
-1106 -1119 1270 0
-1106 -1120 1271 0
-1106 -1121 1272 0
-1107 -1114 1266 0
-1107 -1115 1267 0
-1107 -1116 1268 0
-1107 -1117 1269 0
-1107 -1118 1270 0
-1107 -1119 1271 0
-1107 -1120 1272 0
-1107 -1121 1273 0
-1108 -1114 1267 0
-1108 -1115 1268 0
-1108 -1116 1269 0
-1108 -1117 1270 0
-1108 -1118 1271 0
-1108 -1119 1272 0
-1108 -1120 1273 0
-1108 -1121 1274 0
-1109 -1114 1268 0
-1109 -1115 1269 0
-1109 -1116 1270 0
-1109 -1117 1271 0
-1109 -1118 1272 0
-1109 -1119 1273 0
-1109 -1120 1274 0
-1109 -1121 1275 0
-1110 -1114 1269 0
-1110 -1115 1270 0
-1110 -1116 1271 0
-1110 -1117 1272 0
-1110 -1118 1273 0
-1110 -1119 1274 0
-1110 -1120 1275 0
-1110 -1121 1276 0
-1111 -1114 1270 0
-1111 -1115 1271 0
-1111 -1116 1272 0
-1111 -1117 1273 0
-1111 -1118 1274 0
-1111 -1119 1275 0
-1111 -1120 1276 0
-1111 -1121 1277 0
-1112 -1114 1271 0
-1112 -1115 1272 0
-1112 -1116 1273 0
-1112 -1117 1274 0
-1112 -1118 1275 0
-1112 -1119 1276 0
-1112 -1120 1277 0
-1113 -1114 1272 0
-1113 -1115 1273 0
-1113 -1116 1274 0
-1113 -1117 1275 0
-1113 -1118 1276 0
-1113 -1119 1277 0
-1130 1278 0
-1131 1279 0
-1132 1280 0
-1133 1281 0
-1134 1282 0
-1135 1283 0
-1136 1284 0
-1137 1285 0
-1122 1278 0
-1123 1279 0
-1124 1280 0
-1125 1281 0
-1126 1282 0
-1127 1283 0
-1128 1284 0
-1129 1285 0
-1122 -1130 1279 0
-1122 -1131 1280 0
-1122 -1132 1281 0
-1122 -1133 1282 0
-1122 -1134 1283 0
-1122 -1135 1284 0
-1122 -1136 1285 0
-1122 -1137 1286 0
-1123 -1130 1280 0
-1123 -1131 1281 0
-1123 -1132 1282 0
-1123 -1133 1283 0
-1123 -1134 1284 0
-1123 -1135 1285 0
-1123 -1136 1286 0
-1123 -1137 1287 0
-1124 -1130 1281 0
-1124 -1131 1282 0
-1124 -1132 1283 0
-1124 -1133 1284 0
-1124 -1134 1285 0
-1124 -1135 1286 0
-1124 -1136 1287 0
-1124 -1137 1288 0
-1125 -1130 1282 0
-1125 -1131 1283 0
-1125 -1132 1284 0
-1125 -1133 1285 0
-1125 -1134 1286 0
-1125 -1135 1287 0
-1125 -1136 1288 0
-1125 -1137 1289 0
-1126 -1130 1283 0
-1126 -1131 1284 0
-1126 -1132 1285 0
-1126 -1133 1286 0
-1126 -1134 1287 0
-1126 -1135 1288 0
-1126 -1136 1289 0
-1126 -1137 1290 0
-1127 -1130 1284 0
-1127 -1131 1285 0
-1127 -1132 1286 0
-1127 -1133 1287 0
-1127 -1134 1288 0
-1127 -1135 1289 0
-1127 -1136 1290 0
-1127 -1137 1291 0
-1128 -1130 1285 0
-1128 -1131 1286 0
-1128 -1132 1287 0
-1128 -1133 1288 0
-1128 -1134 1289 0
-1128 -1135 1290 0
-1128 -1136 1291 0
-1129 -1130 1286 0
-1129 -1131 1287 0
-1129 -1132 1288 0
-1129 -1133 1289 0
-1129 -1134 1290 0
-1129 -1135 1291 0
-1146 1292 0
-1147 1293 0
-1148 1294 0
-1149 1295 0
-1150 1296 0
-1151 1297 0
-1152 1298 0
-1153 1299 0
-1138 1292 0
-1139 1293 0
-1140 1294 0
-1141 1295 0
-1142 1296 0
-1143 1297 0
-1144 1298 0
-1145 1299 0
-1138 -1146 1293 0
-1138 -1147 1294 0
-1138 -1148 1295 0
-1138 -1149 1296 0
-1138 -1150 1297 0
-1138 -1151 1298 0
-1138 -1152 1299 0
-1138 -1153 1300 0
-1139 -1146 1294 0
-1139 -1147 1295 0
-1139 -1148 1296 0
-1139 -1149 1297 0
-1139 -1150 1298 0
-1139 -1151 1299 0
-1139 -1152 1300 0
-1139 -1153 1301 0
-1140 -1146 1295 0
-1140 -1147 1296 0
-1140 -1148 1297 0
-1140 -1149 1298 0
-1140 -1150 1299 0
-1140 -1151 1300 0
-1140 -1152 1301 0
-1140 -1153 1302 0
-1141 -1146 1296 0
-1141 -1147 1297 0
-1141 -1148 1298 0
-1141 -1149 1299 0
-1141 -1150 1300 0
-1141 -1151 1301 0
-1141 -1152 1302 0
-1141 -1153 1303 0
-1142 -1146 1297 0
-1142 -1147 1298 0
-1142 -1148 1299 0
-1142 -1149 1300 0
-1142 -1150 1301 0
-1142 -1151 1302 0
-1142 -1152 1303 0
-1142 -1153 1304 0
-1143 -1146 1298 0
-1143 -1147 1299 0
-1143 -1148 1300 0
-1143 -1149 1301 0
-1143 -1150 1302 0
-1143 -1151 1303 0
-1143 -1152 1304 0
-1143 -1153 1305 0
-1144 -1146 1299 0
-1144 -1147 1300 0
-1144 -1148 1301 0
-1144 -1149 1302 0
-1144 -1150 1303 0
-1144 -1151 1304 0
-1144 -1152 1305 0
-1145 -1146 1300 0
-1145 -1147 1301 0
-1145 -1148 1302 0
-1145 -1149 1303 0
-1145 -1150 1304 0
-1145 -1151 1305 0
-1162 1306 0
-1163 1307 0
-1164 1308 0
-1165 1309 0
-1166 1310 0
-1167 1311 0
-1168 1312 0
-1169 1313 0
-1154 1306 0
-1155 1307 0
-1156 1308 0
-1157 1309 0
-1158 1310 0
-1159 1311 0
-1160 1312 0
-1161 1313 0
-1154 -1162 1307 0
-1154 -1163 1308 0
-1154 -1164 1309 0
-1154 -1165 1310 0
-1154 -1166 1311 0
-1154 -1167 1312 0
-1154 -1168 1313 0
-1154 -1169 1314 0
-1155 -1162 1308 0
-1155 -1163 1309 0
-1155 -1164 1310 0
-1155 -1165 1311 0
-1155 -1166 1312 0
-1155 -1167 1313 0
-1155 -1168 1314 0
-1155 -1169 1315 0
-1156 -1162 1309 0
-1156 -1163 1310 0
-1156 -1164 1311 0
-1156 -1165 1312 0
-1156 -1166 1313 0
-1156 -1167 1314 0
-1156 -1168 1315 0
-1156 -1169 1316 0
-1157 -1162 1310 0
-1157 -1163 1311 0
-1157 -1164 1312 0
-1157 -1165 1313 0
-1157 -1166 1314 0
-1157 -1167 1315 0
-1157 -1168 1316 0
-1157 -1169 1317 0
-1158 -1162 1311 0
-1158 -1163 1312 0
-1158 -1164 1313 0
-1158 -1165 1314 0
-1158 -1166 1315 0
-1158 -1167 1316 0
-1158 -1168 1317 0
-1158 -1169 1318 0
-1159 -1162 1312 0
-1159 -1163 1313 0
-1159 -1164 1314 0
-1159 -1165 1315 0
-1159 -1166 1316 0
-1159 -1167 1317 0
-1159 -1168 1318 0
-1159 -1169 1319 0
-1160 -1162 1313 0
-1160 -1163 1314 0
-1160 -1164 1315 0
-1160 -1165 1316 0
-1160 -1166 1317 0
-1160 -1167 1318 0
-1160 -1168 1319 0
-1161 -1162 1314 0
-1161 -1163 1315 0
-1161 -1164 1316 0
-1161 -1165 1317 0
-1161 -1166 1318 0
-1161 -1167 1319 0
-1180 1320 0
-1181 1321 0
-1182 1322 0
-1183 1323 0
-1184 1324 0
-1185 1325 0
-1186 1326 0
-1187 1327 0
-1188 1328 0
-1189 1329 0
-1190 1330 0
-1191 1331 0
-1192 1332 0
-1193 1333 0
-1170 1320 0
-1171 1321 0
-1172 1322 0
-1173 1323 0
-1174 1324 0
-1175 1325 0
-1176 1326 0
-1177 1327 0
-1178 1328 0
-1179 1329 0
-1170 -1180 1321 0
-1170 -1181 1322 0
-1170 -1182 1323 0
-1170 -1183 1324 0
-1170 -1184 1325 0
-1170 -1185 1326 0
-1170 -1186 1327 0
-1170 -1187 1328 0
-1170 -1188 1329 0
-1170 -1189 1330 0
-1170 -1190 1331 0
-1170 -1191 1332 0
-1170 -1192 1333 0
-1171 -1180 1322 0
-1171 -1181 1323 0
-1171 -1182 1324 0
-1171 -1183 1325 0
-1171 -1184 1326 0
-1171 -1185 1327 0
-1171 -1186 1328 0
-1171 -1187 1329 0
-1171 -1188 1330 0
-1171 -1189 1331 0
-1171 -1190 1332 0
-1171 -1191 1333 0
-1172 -1180 1323 0
-1172 -1181 1324 0
-1172 -1182 1325 0
-1172 -1183 1326 0
-1172 -1184 1327 0
-1172 -1185 1328 0
-1172 -1186 1329 0
-1172 -1187 1330 0
-1172 -1188 1331 0
-1172 -1189 1332 0
-1172 -1190 1333 0
-1173 -1180 1324 0
-1173 -1181 1325 0
-1173 -1182 1326 0
-1173 -1183 1327 0
-1173 -1184 1328 0
-1173 -1185 1329 0
-1173 -1186 1330 0
-1173 -1187 1331 0
-1173 -1188 1332 0
-1173 -1189 1333 0
-1174 -1180 1325 0
-1174 -1181 1326 0
-1174 -1182 1327 0
-1174 -1183 1328 0
-1174 -1184 1329 0
-1174 -1185 1330 0
-1174 -1186 1331 0
-1174 -1187 1332 0
-1174 -1188 1333 0
-1175 -1180 1326 0
-1175 -1181 1327 0
-1175 -1182 1328 0
-1175 -1183 1329 0
-1175 -1184 1330 0
-1175 -1185 1331 0
-1175 -1186 1332 0
-1175 -1187 1333 0
-1176 -1180 1327 0
-1176 -1181 1328 0
-1176 -1182 1329 0
-1176 -1183 1330 0
-1176 -1184 1331 0
-1176 -1185 1332 0
-1176 -1186 1333 0
-1177 -1180 1328 0
-1177 -1181 1329 0
-1177 -1182 1330 0
-1177 -1183 1331 0
-1177 -1184 1332 0
-1177 -1185 1333 0
-1178 -1180 1329 0
-1178 -1181 1330 0
-1178 -1182 1331 0
-1178 -1183 1332 0
-1178 -1184 1333 0
-1179 -1180 1330 0
-1179 -1181 1331 0
-1179 -1182 1332 0
-1179 -1183 1333 0
-1208 1334 0
-1209 1335 0
-1210 1336 0
-1211 1337 0
-1212 1338 0
-1213 1339 0
-1214 1340 0
-1215 1341 0
-1216 1342 0
-1217 1343 0
-1218 1344 0
-1219 1345 0
-1220 1346 0
-1221 1347 0
-1194 1334 0
-1195 1335 0
-1196 1336 0
-1197 1337 0
-1198 1338 0
-1199 1339 0
-1200 1340 0
-1201 1341 0
-1202 1342 0
-1203 1343 0
-1204 1344 0
-1205 1345 0
-1206 1346 0
-1207 1347 0
-1194 -1208 1335 0
-1194 -1209 1336 0
-1194 -1210 1337 0
-1194 -1211 1338 0
-1194 -1212 1339 0
-1194 -1213 1340 0
-1194 -1214 1341 0
-1194 -1215 1342 0
-1194 -1216 1343 0
-1194 -1217 1344 0
-1194 -1218 1345 0
-1194 -1219 1346 0
-1194 -1220 1347 0
-1195 -1208 1336 0
-1195 -1209 1337 0
-1195 -1210 1338 0
-1195 -1211 1339 0
-1195 -1212 1340 0
-1195 -1213 1341 0
-1195 -1214 1342 0
-1195 -1215 1343 0
-1195 -1216 1344 0
-1195 -1217 1345 0
-1195 -1218 1346 0
-1195 -1219 1347 0
-1196 -1208 1337 0
-1196 -1209 1338 0
-1196 -1210 1339 0
-1196 -1211 1340 0
-1196 -1212 1341 0
-1196 -1213 1342 0
-1196 -1214 1343 0
-1196 -1215 1344 0
-1196 -1216 1345 0
-1196 -1217 1346 0
-1196 -1218 1347 0
-1197 -1208 1338 0
-1197 -1209 1339 0
-1197 -1210 1340 0
-1197 -1211 1341 0
-1197 -1212 1342 0
-1197 -1213 1343 0
-1197 -1214 1344 0
-1197 -1215 1345 0
-1197 -1216 1346 0
-1197 -1217 1347 0
-1198 -1208 1339 0
-1198 -1209 1340 0
-1198 -1210 1341 0
-1198 -1211 1342 0
-1198 -1212 1343 0
-1198 -1213 1344 0
-1198 -1214 1345 0
-1198 -1215 1346 0
-1198 -1216 1347 0
-1199 -1208 1340 0
-1199 -1209 1341 0
-1199 -1210 1342 0
-1199 -1211 1343 0
-1199 -1212 1344 0
-1199 -1213 1345 0
-1199 -1214 1346 0
-1199 -1215 1347 0
-1200 -1208 1341 0
-1200 -1209 1342 0
-1200 -1210 1343 0
-1200 -1211 1344 0
-1200 -1212 1345 0
-1200 -1213 1346 0
-1200 -1214 1347 0
-1201 -1208 1342 0
-1201 -1209 1343 0
-1201 -1210 1344 0
-1201 -1211 1345 0
-1201 -1212 1346 0
-1201 -1213 1347 0
-1202 -1208 1343 0
-1202 -1209 1344 0
-1202 -1210 1345 0
-1202 -1211 1346 0
-1202 -1212 1347 0
-1203 -1208 1344 0
-1203 -1209 1345 0
-1203 -1210 1346 0
-1203 -1211 1347 0
-1204 -1208 1345 0
-1204 -1209 1346 0
-1204 -1210 1347 0
-1205 -1208 1346 0
-1205 -1209 1347 0
-1206 -1208 1347 0
-1236 1348 0
-1237 1349 0
-1238 1350 0
-1239 1351 0
-1240 1352 0
-1241 1353 0
-1242 1354 0
-1243 1355 0
-1244 1356 0
-1245 1357 0
-1246 1358 0
-1247 1359 0
-1248 1360 0
-1249 1361 0
-1222 1348 0
-1223 1349 0
-1224 1350 0
-1225 1351 0
-1226 1352 0
-1227 1353 0
-1228 1354 0
-1229 1355 0
-1230 1356 0
-1231 1357 0
-1232 1358 0
-1233 1359 0
-1234 1360 0
-1235 1361 0
-1222 -1236 1349 0
-1222 -1237 1350 0
-1222 -1238 1351 0
-1222 -1239 1352 0
-1222 -1240 1353 0
-1222 -1241 1354 0
-1222 -1242 1355 0
-1222 -1243 1356 0
-1222 -1244 1357 0
-1222 -1245 1358 0
-1222 -1246 1359 0
-1222 -1247 1360 0
-1222 -1248 1361 0
-1223 -1236 1350 0
-1223 -1237 1351 0
-1223 -1238 1352 0
-1223 -1239 1353 0
-1223 -1240 1354 0
-1223 -1241 1355 0
-1223 -1242 1356 0
-1223 -1243 1357 0
-1223 -1244 1358 0
-1223 -1245 1359 0
-1223 -1246 1360 0
-1223 -1247 1361 0
-1224 -1236 1351 0
-1224 -1237 1352 0
-1224 -1238 1353 0
-1224 -1239 1354 0
-1224 -1240 1355 0
-1224 -1241 1356 0
-1224 -1242 1357 0
-1224 -1243 1358 0
-1224 -1244 1359 0
-1224 -1245 1360 0
-1224 -1246 1361 0
-1225 -1236 1352 0
-1225 -1237 1353 0
-1225 -1238 1354 0
-1225 -1239 1355 0
-1225 -1240 1356 0
-1225 -1241 1357 0
-1225 -1242 1358 0
-1225 -1243 1359 0
-1225 -1244 1360 0
-1225 -1245 1361 0
-1226 -1236 1353 0
-1226 -1237 1354 0
-1226 -1238 1355 0
-1226 -1239 1356 0
-1226 -1240 1357 0
-1226 -1241 1358 0
-1226 -1242 1359 0
-1226 -1243 1360 0
-1226 -1244 1361 0
-1227 -1236 1354 0
-1227 -1237 1355 0
-1227 -1238 1356 0
-1227 -1239 1357 0
-1227 -1240 1358 0
-1227 -1241 1359 0
-1227 -1242 1360 0
-1227 -1243 1361 0
-1228 -1236 1355 0
-1228 -1237 1356 0
-1228 -1238 1357 0
-1228 -1239 1358 0
-1228 -1240 1359 0
-1228 -1241 1360 0
-1228 -1242 1361 0
-1229 -1236 1356 0
-1229 -1237 1357 0
-1229 -1238 1358 0
-1229 -1239 1359 0
-1229 -1240 1360 0
-1229 -1241 1361 0
-1230 -1236 1357 0
-1230 -1237 1358 0
-1230 -1238 1359 0
-1230 -1239 1360 0
-1230 -1240 1361 0
-1231 -1236 1358 0
-1231 -1237 1359 0
-1231 -1238 1360 0
-1231 -1239 1361 0
-1232 -1236 1359 0
-1232 -1237 1360 0
-1232 -1238 1361 0
-1233 -1236 1360 0
-1233 -1237 1361 0
-1234 -1236 1361 0
-1264 1362 0
-1265 1363 0
-1266 1364 0
-1267 1365 0
-1268 1366 0
-1269 1367 0
-1270 1368 0
-1271 1369 0
-1272 1370 0
-1273 1371 0
-1274 1372 0
-1275 1373 0
-1276 1374 0
-1277 1375 0
-1250 1362 0
-1251 1363 0
-1252 1364 0
-1253 1365 0
-1254 1366 0
-1255 1367 0
-1256 1368 0
-1257 1369 0
-1258 1370 0
-1259 1371 0
-1260 1372 0
-1261 1373 0
-1262 1374 0
-1263 1375 0
-1250 -1264 1363 0
-1250 -1265 1364 0
-1250 -1266 1365 0
-1250 -1267 1366 0
-1250 -1268 1367 0
-1250 -1269 1368 0
-1250 -1270 1369 0
-1250 -1271 1370 0
-1250 -1272 1371 0
-1250 -1273 1372 0
-1250 -1274 1373 0
-1250 -1275 1374 0
-1250 -1276 1375 0
-1251 -1264 1364 0
-1251 -1265 1365 0
-1251 -1266 1366 0
-1251 -1267 1367 0
-1251 -1268 1368 0
-1251 -1269 1369 0
-1251 -1270 1370 0
-1251 -1271 1371 0
-1251 -1272 1372 0
-1251 -1273 1373 0
-1251 -1274 1374 0
-1251 -1275 1375 0
-1252 -1264 1365 0
-1252 -1265 1366 0
-1252 -1266 1367 0
-1252 -1267 1368 0
-1252 -1268 1369 0
-1252 -1269 1370 0
-1252 -1270 1371 0
-1252 -1271 1372 0
-1252 -1272 1373 0
-1252 -1273 1374 0
-1252 -1274 1375 0
-1253 -1264 1366 0
-1253 -1265 1367 0
-1253 -1266 1368 0
-1253 -1267 1369 0
-1253 -1268 1370 0
-1253 -1269 1371 0
-1253 -1270 1372 0
-1253 -1271 1373 0
-1253 -1272 1374 0
-1253 -1273 1375 0
-1254 -1264 1367 0
-1254 -1265 1368 0
-1254 -1266 1369 0
-1254 -1267 1370 0
-1254 -1268 1371 0
-1254 -1269 1372 0
-1254 -1270 1373 0
-1254 -1271 1374 0
-1254 -1272 1375 0
-1255 -1264 1368 0
-1255 -1265 1369 0
-1255 -1266 1370 0
-1255 -1267 1371 0
-1255 -1268 1372 0
-1255 -1269 1373 0
-1255 -1270 1374 0
-1255 -1271 1375 0
-1256 -1264 1369 0
-1256 -1265 1370 0
-1256 -1266 1371 0
-1256 -1267 1372 0
-1256 -1268 1373 0
-1256 -1269 1374 0
-1256 -1270 1375 0
-1257 -1264 1370 0
-1257 -1265 1371 0
-1257 -1266 1372 0
-1257 -1267 1373 0
-1257 -1268 1374 0
-1257 -1269 1375 0
-1258 -1264 1371 0
-1258 -1265 1372 0
-1258 -1266 1373 0
-1258 -1267 1374 0
-1258 -1268 1375 0
-1259 -1264 1372 0
-1259 -1265 1373 0
-1259 -1266 1374 0
-1259 -1267 1375 0
-1260 -1264 1373 0
-1260 -1265 1374 0
-1260 -1266 1375 0
-1261 -1264 1374 0
-1261 -1265 1375 0
-1262 -1264 1375 0
-1292 1376 0
-1293 1377 0
-1294 1378 0
-1295 1379 0
-1296 1380 0
-1297 1381 0
-1298 1382 0
-1299 1383 0
-1300 1384 0
-1301 1385 0
-1302 1386 0
-1303 1387 0
-1304 1388 0
-1305 1389 0
-1278 1376 0
-1279 1377 0
-1280 1378 0
-1281 1379 0
-1282 1380 0
-1283 1381 0
-1284 1382 0
-1285 1383 0
-1286 1384 0
-1287 1385 0
-1288 1386 0
-1289 1387 0
-1290 1388 0
-1291 1389 0
-1278 -1292 1377 0
-1278 -1293 1378 0
-1278 -1294 1379 0
-1278 -1295 1380 0
-1278 -1296 1381 0
-1278 -1297 1382 0
-1278 -1298 1383 0
-1278 -1299 1384 0
-1278 -1300 1385 0
-1278 -1301 1386 0
-1278 -1302 1387 0
-1278 -1303 1388 0
-1278 -1304 1389 0
-1279 -1292 1378 0
-1279 -1293 1379 0
-1279 -1294 1380 0
-1279 -1295 1381 0
-1279 -1296 1382 0
-1279 -1297 1383 0
-1279 -1298 1384 0
-1279 -1299 1385 0
-1279 -1300 1386 0
-1279 -1301 1387 0
-1279 -1302 1388 0
-1279 -1303 1389 0
-1280 -1292 1379 0
-1280 -1293 1380 0
-1280 -1294 1381 0
-1280 -1295 1382 0
-1280 -1296 1383 0
-1280 -1297 1384 0
-1280 -1298 1385 0
-1280 -1299 1386 0
-1280 -1300 1387 0
-1280 -1301 1388 0
-1280 -1302 1389 0
-1281 -1292 1380 0
-1281 -1293 1381 0
-1281 -1294 1382 0
-1281 -1295 1383 0
-1281 -1296 1384 0
-1281 -1297 1385 0
-1281 -1298 1386 0
-1281 -1299 1387 0
-1281 -1300 1388 0
-1281 -1301 1389 0
-1282 -1292 1381 0
-1282 -1293 1382 0
-1282 -1294 1383 0
-1282 -1295 1384 0
-1282 -1296 1385 0
-1282 -1297 1386 0
-1282 -1298 1387 0
-1282 -1299 1388 0
-1282 -1300 1389 0
-1283 -1292 1382 0
-1283 -1293 1383 0
-1283 -1294 1384 0
-1283 -1295 1385 0
-1283 -1296 1386 0
-1283 -1297 1387 0
-1283 -1298 1388 0
-1283 -1299 1389 0
-1284 -1292 1383 0
-1284 -1293 1384 0
-1284 -1294 1385 0
-1284 -1295 1386 0
-1284 -1296 1387 0
-1284 -1297 1388 0
-1284 -1298 1389 0
-1285 -1292 1384 0
-1285 -1293 1385 0
-1285 -1294 1386 0
-1285 -1295 1387 0
-1285 -1296 1388 0
-1285 -1297 1389 0
-1286 -1292 1385 0
-1286 -1293 1386 0
-1286 -1294 1387 0
-1286 -1295 1388 0
-1286 -1296 1389 0
-1287 -1292 1386 0
-1287 -1293 1387 0
-1287 -1294 1388 0
-1287 -1295 1389 0
-1288 -1292 1387 0
-1288 -1293 1388 0
-1288 -1294 1389 0
-1289 -1292 1388 0
-1289 -1293 1389 0
-1290 -1292 1389 0
-1320 1390 0
-1321 1391 0
-1322 1392 0
-1323 1393 0
-1324 1394 0
-1325 1395 0
-1326 1396 0
-1327 1397 0
-1328 1398 0
-1329 1399 0
-1330 1400 0
-1331 1401 0
-1332 1402 0
-1333 1403 0
-1306 1390 0
-1307 1391 0
-1308 1392 0
-1309 1393 0
-1310 1394 0
-1311 1395 0
-1312 1396 0
-1313 1397 0
-1314 1398 0
-1315 1399 0
-1316 1400 0
-1317 1401 0
-1318 1402 0
-1319 1403 0
-1306 -1320 1391 0
-1306 -1321 1392 0
-1306 -1322 1393 0
-1306 -1323 1394 0
-1306 -1324 1395 0
-1306 -1325 1396 0
-1306 -1326 1397 0
-1306 -1327 1398 0
-1306 -1328 1399 0
-1306 -1329 1400 0
-1306 -1330 1401 0
-1306 -1331 1402 0
-1306 -1332 1403 0
-1307 -1320 1392 0
-1307 -1321 1393 0
-1307 -1322 1394 0
-1307 -1323 1395 0
-1307 -1324 1396 0
-1307 -1325 1397 0
-1307 -1326 1398 0
-1307 -1327 1399 0
-1307 -1328 1400 0
-1307 -1329 1401 0
-1307 -1330 1402 0
-1307 -1331 1403 0
-1308 -1320 1393 0
-1308 -1321 1394 0
-1308 -1322 1395 0
-1308 -1323 1396 0
-1308 -1324 1397 0
-1308 -1325 1398 0
-1308 -1326 1399 0
-1308 -1327 1400 0
-1308 -1328 1401 0
-1308 -1329 1402 0
-1308 -1330 1403 0
-1309 -1320 1394 0
-1309 -1321 1395 0
-1309 -1322 1396 0
-1309 -1323 1397 0
-1309 -1324 1398 0
-1309 -1325 1399 0
-1309 -1326 1400 0
-1309 -1327 1401 0
-1309 -1328 1402 0
-1309 -1329 1403 0
-1310 -1320 1395 0
-1310 -1321 1396 0
-1310 -1322 1397 0
-1310 -1323 1398 0
-1310 -1324 1399 0
-1310 -1325 1400 0
-1310 -1326 1401 0
-1310 -1327 1402 0
-1310 -1328 1403 0
-1311 -1320 1396 0
-1311 -1321 1397 0
-1311 -1322 1398 0
-1311 -1323 1399 0
-1311 -1324 1400 0
-1311 -1325 1401 0
-1311 -1326 1402 0
-1311 -1327 1403 0
-1312 -1320 1397 0
-1312 -1321 1398 0
-1312 -1322 1399 0
-1312 -1323 1400 0
-1312 -1324 1401 0
-1312 -1325 1402 0
-1312 -1326 1403 0
-1313 -1320 1398 0
-1313 -1321 1399 0
-1313 -1322 1400 0
-1313 -1323 1401 0
-1313 -1324 1402 0
-1313 -1325 1403 0
-1314 -1320 1399 0
-1314 -1321 1400 0
-1314 -1322 1401 0
-1314 -1323 1402 0
-1314 -1324 1403 0
-1315 -1320 1400 0
-1315 -1321 1401 0
-1315 -1322 1402 0
-1315 -1323 1403 0
-1316 -1320 1401 0
-1316 -1321 1402 0
-1316 -1322 1403 0
-1317 -1320 1402 0
-1317 -1321 1403 0
-1318 -1320 1403 0
-1348 1404 0
-1349 1405 0
-1350 1406 0
-1351 1407 0
-1352 1408 0
-1353 1409 0
-1354 1410 0
-1355 1411 0
-1356 1412 0
-1357 1413 0
-1358 1414 0
-1359 1415 0
-1360 1416 0
-1361 1417 0
-1334 1404 0
-1335 1405 0
-1336 1406 0
-1337 1407 0
-1338 1408 0
-1339 1409 0
-1340 1410 0
-1341 1411 0
-1342 1412 0
-1343 1413 0
-1344 1414 0
-1345 1415 0
-1346 1416 0
-1347 1417 0
-1334 -1348 1405 0
-1334 -1349 1406 0
-1334 -1350 1407 0
-1334 -1351 1408 0
-1334 -1352 1409 0
-1334 -1353 1410 0
-1334 -1354 1411 0
-1334 -1355 1412 0
-1334 -1356 1413 0
-1334 -1357 1414 0
-1334 -1358 1415 0
-1334 -1359 1416 0
-1334 -1360 1417 0
-1335 -1348 1406 0
-1335 -1349 1407 0
-1335 -1350 1408 0
-1335 -1351 1409 0
-1335 -1352 1410 0
-1335 -1353 1411 0
-1335 -1354 1412 0
-1335 -1355 1413 0
-1335 -1356 1414 0
-1335 -1357 1415 0
-1335 -1358 1416 0
-1335 -1359 1417 0
-1336 -1348 1407 0
-1336 -1349 1408 0
-1336 -1350 1409 0
-1336 -1351 1410 0
-1336 -1352 1411 0
-1336 -1353 1412 0
-1336 -1354 1413 0
-1336 -1355 1414 0
-1336 -1356 1415 0
-1336 -1357 1416 0
-1336 -1358 1417 0
-1337 -1348 1408 0
-1337 -1349 1409 0
-1337 -1350 1410 0
-1337 -1351 1411 0
-1337 -1352 1412 0
-1337 -1353 1413 0
-1337 -1354 1414 0
-1337 -1355 1415 0
-1337 -1356 1416 0
-1337 -1357 1417 0
-1338 -1348 1409 0
-1338 -1349 1410 0
-1338 -1350 1411 0
-1338 -1351 1412 0
-1338 -1352 1413 0
-1338 -1353 1414 0
-1338 -1354 1415 0
-1338 -1355 1416 0
-1338 -1356 1417 0
-1339 -1348 1410 0
-1339 -1349 1411 0
-1339 -1350 1412 0
-1339 -1351 1413 0
-1339 -1352 1414 0
-1339 -1353 1415 0
-1339 -1354 1416 0
-1339 -1355 1417 0
-1340 -1348 1411 0
-1340 -1349 1412 0
-1340 -1350 1413 0
-1340 -1351 1414 0
-1340 -1352 1415 0
-1340 -1353 1416 0
-1340 -1354 1417 0
-1341 -1348 1412 0
-1341 -1349 1413 0
-1341 -1350 1414 0
-1341 -1351 1415 0
-1341 -1352 1416 0
-1341 -1353 1417 0
-1342 -1348 1413 0
-1342 -1349 1414 0
-1342 -1350 1415 0
-1342 -1351 1416 0
-1342 -1352 1417 0
-1343 -1348 1414 0
-1343 -1349 1415 0
-1343 -1350 1416 0
-1343 -1351 1417 0
-1344 -1348 1415 0
-1344 -1349 1416 0
-1344 -1350 1417 0
-1345 -1348 1416 0
-1345 -1349 1417 0
-1346 -1348 1417 0
-1376 1418 0
-1377 1419 0
-1378 1420 0
-1379 1421 0
-1380 1422 0
-1381 1423 0
-1382 1424 0
-1383 1425 0
-1384 1426 0
-1385 1427 0
-1386 1428 0
-1387 1429 0
-1388 1430 0
-1389 1431 0
-1362 1418 0
-1363 1419 0
-1364 1420 0
-1365 1421 0
-1366 1422 0
-1367 1423 0
-1368 1424 0
-1369 1425 0
-1370 1426 0
-1371 1427 0
-1372 1428 0
-1373 1429 0
-1374 1430 0
-1375 1431 0
-1362 -1376 1419 0
-1362 -1377 1420 0
-1362 -1378 1421 0
-1362 -1379 1422 0
-1362 -1380 1423 0
-1362 -1381 1424 0
-1362 -1382 1425 0
-1362 -1383 1426 0
-1362 -1384 1427 0
-1362 -1385 1428 0
-1362 -1386 1429 0
-1362 -1387 1430 0
-1362 -1388 1431 0
-1363 -1376 1420 0
-1363 -1377 1421 0
-1363 -1378 1422 0
-1363 -1379 1423 0
-1363 -1380 1424 0
-1363 -1381 1425 0
-1363 -1382 1426 0
-1363 -1383 1427 0
-1363 -1384 1428 0
-1363 -1385 1429 0
-1363 -1386 1430 0
-1363 -1387 1431 0
-1364 -1376 1421 0
-1364 -1377 1422 0
-1364 -1378 1423 0
-1364 -1379 1424 0
-1364 -1380 1425 0
-1364 -1381 1426 0
-1364 -1382 1427 0
-1364 -1383 1428 0
-1364 -1384 1429 0
-1364 -1385 1430 0
-1364 -1386 1431 0
-1365 -1376 1422 0
-1365 -1377 1423 0
-1365 -1378 1424 0
-1365 -1379 1425 0
-1365 -1380 1426 0
-1365 -1381 1427 0
-1365 -1382 1428 0
-1365 -1383 1429 0
-1365 -1384 1430 0
-1365 -1385 1431 0
-1366 -1376 1423 0
-1366 -1377 1424 0
-1366 -1378 1425 0
-1366 -1379 1426 0
-1366 -1380 1427 0
-1366 -1381 1428 0
-1366 -1382 1429 0
-1366 -1383 1430 0
-1366 -1384 1431 0
-1367 -1376 1424 0
-1367 -1377 1425 0
-1367 -1378 1426 0
-1367 -1379 1427 0
-1367 -1380 1428 0
-1367 -1381 1429 0
-1367 -1382 1430 0
-1367 -1383 1431 0
-1368 -1376 1425 0
-1368 -1377 1426 0
-1368 -1378 1427 0
-1368 -1379 1428 0
-1368 -1380 1429 0
-1368 -1381 1430 0
-1368 -1382 1431 0
-1369 -1376 1426 0
-1369 -1377 1427 0
-1369 -1378 1428 0
-1369 -1379 1429 0
-1369 -1380 1430 0
-1369 -1381 1431 0
-1370 -1376 1427 0
-1370 -1377 1428 0
-1370 -1378 1429 0
-1370 -1379 1430 0
-1370 -1380 1431 0
-1371 -1376 1428 0
-1371 -1377 1429 0
-1371 -1378 1430 0
-1371 -1379 1431 0
-1372 -1376 1429 0
-1372 -1377 1430 0
-1372 -1378 1431 0
-1373 -1376 1430 0
-1373 -1377 1431 0
-1374 -1376 1431 0
-1404 1432 0
-1405 1433 0
-1406 1434 0
-1407 1435 0
-1408 1436 0
-1409 1437 0
-1410 1438 0
-1411 1439 0
-1412 1440 0
-1413 1441 0
-1414 1442 0
-1415 1443 0
-1416 1444 0
-1417 1445 0
-1390 1432 0
-1391 1433 0
-1392 1434 0
-1393 1435 0
-1394 1436 0
-1395 1437 0
-1396 1438 0
-1397 1439 0
-1398 1440 0
-1399 1441 0
-1400 1442 0
-1401 1443 0
-1402 1444 0
-1403 1445 0
-1390 -1404 1433 0
-1390 -1405 1434 0
-1390 -1406 1435 0
-1390 -1407 1436 0
-1390 -1408 1437 0
-1390 -1409 1438 0
-1390 -1410 1439 0
-1390 -1411 1440 0
-1390 -1412 1441 0
-1390 -1413 1442 0
-1390 -1414 1443 0
-1390 -1415 1444 0
-1390 -1416 1445 0
-1391 -1404 1434 0
-1391 -1405 1435 0
-1391 -1406 1436 0
-1391 -1407 1437 0
-1391 -1408 1438 0
-1391 -1409 1439 0
-1391 -1410 1440 0
-1391 -1411 1441 0
-1391 -1412 1442 0
-1391 -1413 1443 0
-1391 -1414 1444 0
-1391 -1415 1445 0
-1392 -1404 1435 0
-1392 -1405 1436 0
-1392 -1406 1437 0
-1392 -1407 1438 0
-1392 -1408 1439 0
-1392 -1409 1440 0
-1392 -1410 1441 0
-1392 -1411 1442 0
-1392 -1412 1443 0
-1392 -1413 1444 0
-1392 -1414 1445 0
-1393 -1404 1436 0
-1393 -1405 1437 0
-1393 -1406 1438 0
-1393 -1407 1439 0
-1393 -1408 1440 0
-1393 -1409 1441 0
-1393 -1410 1442 0
-1393 -1411 1443 0
-1393 -1412 1444 0
-1393 -1413 1445 0
-1394 -1404 1437 0
-1394 -1405 1438 0
-1394 -1406 1439 0
-1394 -1407 1440 0
-1394 -1408 1441 0
-1394 -1409 1442 0
-1394 -1410 1443 0
-1394 -1411 1444 0
-1394 -1412 1445 0
-1395 -1404 1438 0
-1395 -1405 1439 0
-1395 -1406 1440 0
-1395 -1407 1441 0
-1395 -1408 1442 0
-1395 -1409 1443 0
-1395 -1410 1444 0
-1395 -1411 1445 0
-1396 -1404 1439 0
-1396 -1405 1440 0
-1396 -1406 1441 0
-1396 -1407 1442 0
-1396 -1408 1443 0
-1396 -1409 1444 0
-1396 -1410 1445 0
-1397 -1404 1440 0
-1397 -1405 1441 0
-1397 -1406 1442 0
-1397 -1407 1443 0
-1397 -1408 1444 0
-1397 -1409 1445 0
-1398 -1404 1441 0
-1398 -1405 1442 0
-1398 -1406 1443 0
-1398 -1407 1444 0
-1398 -1408 1445 0
-1399 -1404 1442 0
-1399 -1405 1443 0
-1399 -1406 1444 0
-1399 -1407 1445 0
-1400 -1404 1443 0
-1400 -1405 1444 0
-1400 -1406 1445 0
-1401 -1404 1444 0
-1401 -1405 1445 0
-1402 -1404 1445 0
-1432 1446 0
-1433 1447 0
-1434 1448 0
-1435 1449 0
-1436 1450 0
-1437 1451 0
-1438 1452 0
-1439 1453 0
-1440 1454 0
-1441 1455 0
-1442 1456 0
-1443 1457 0
-1444 1458 0
-1445 1459 0
-1418 1446 0
-1419 1447 0
-1420 1448 0
-1421 1449 0
-1422 1450 0
-1423 1451 0
-1424 1452 0
-1425 1453 0
-1426 1454 0
-1427 1455 0
-1428 1456 0
-1429 1457 0
-1430 1458 0
-1431 1459 0
-1418 -1432 1447 0
-1418 -1433 1448 0
-1418 -1434 1449 0
-1418 -1435 1450 0
-1418 -1436 1451 0
-1418 -1437 1452 0
-1418 -1438 1453 0
-1418 -1439 1454 0
-1418 -1440 1455 0
-1418 -1441 1456 0
-1418 -1442 1457 0
-1418 -1443 1458 0
-1418 -1444 1459 0
-1419 -1432 1448 0
-1419 -1433 1449 0
-1419 -1434 1450 0
-1419 -1435 1451 0
-1419 -1436 1452 0
-1419 -1437 1453 0
-1419 -1438 1454 0
-1419 -1439 1455 0
-1419 -1440 1456 0
-1419 -1441 1457 0
-1419 -1442 1458 0
-1419 -1443 1459 0
-1420 -1432 1449 0
-1420 -1433 1450 0
-1420 -1434 1451 0
-1420 -1435 1452 0
-1420 -1436 1453 0
-1420 -1437 1454 0
-1420 -1438 1455 0
-1420 -1439 1456 0
-1420 -1440 1457 0
-1420 -1441 1458 0
-1420 -1442 1459 0
-1421 -1432 1450 0
-1421 -1433 1451 0
-1421 -1434 1452 0
-1421 -1435 1453 0
-1421 -1436 1454 0
-1421 -1437 1455 0
-1421 -1438 1456 0
-1421 -1439 1457 0
-1421 -1440 1458 0
-1421 -1441 1459 0
-1422 -1432 1451 0
-1422 -1433 1452 0
-1422 -1434 1453 0
-1422 -1435 1454 0
-1422 -1436 1455 0
-1422 -1437 1456 0
-1422 -1438 1457 0
-1422 -1439 1458 0
-1422 -1440 1459 0
-1423 -1432 1452 0
-1423 -1433 1453 0
-1423 -1434 1454 0
-1423 -1435 1455 0
-1423 -1436 1456 0
-1423 -1437 1457 0
-1423 -1438 1458 0
-1423 -1439 1459 0
-1424 -1432 1453 0
-1424 -1433 1454 0
-1424 -1434 1455 0
-1424 -1435 1456 0
-1424 -1436 1457 0
-1424 -1437 1458 0
-1424 -1438 1459 0
-1425 -1432 1454 0
-1425 -1433 1455 0
-1425 -1434 1456 0
-1425 -1435 1457 0
-1425 -1436 1458 0
-1425 -1437 1459 0
-1426 -1432 1455 0
-1426 -1433 1456 0
-1426 -1434 1457 0
-1426 -1435 1458 0
-1426 -1436 1459 0
-1427 -1432 1456 0
-1427 -1433 1457 0
-1427 -1434 1458 0
-1427 -1435 1459 0
-1428 -1432 1457 0
-1428 -1433 1458 0
-1428 -1434 1459 0
-1429 -1432 1458 0
-1429 -1433 1459 0
-1430 -1432 1459 0
-1460 12 0
-1460 488 0
-1461 13 0
-1461 422 0
-1462 35 0
-1462 416 0
-1463 45 0
-1463 502 0
-1464 165 0
-1464 397 0
-1465 174 0
-1465 367 0
-1466 179 0
-1466 528 0
-1467 190 0
-1467 470 0
-1468 201 0
-1468 379 0
-1469 206 0
-1469 457 0
-1470 213 0
-1470 381 0
-1471 213 0
-1471 447 0
-1472 215 0
-1472 472 0
-1473 291 0
-1473 524 0
-1474 299 0
-1474 479 0
-1475 314 0
-1475 468 0
-1476 314 0
-1476 469 0
-1477 325 0
-1477 431 0
-1478 333 0
-1478 398 0
-1479 333 0
-1479 429 0
-1480 346 0
-1480 383 0
1460 1461 1462 1463 1464 1465 1466 1467 1468 1469 1470 1471 1472 1473 1474 1475 1476 1477 1478 1479 1480 0
-1481 35 0
-1481 397 0
-1482 147 0
-1482 448 0
-1483 151 0
-1483 367 0
-1484 174 0
-1484 422 0
-1485 184 0
-1485 528 0
-1486 210 0
-1486 412 0
-1487 346 0
-1487 436 0
-1488 376 0
-1488 470 0
-1489 379 0
-1489 485 0
-1490 383 0
-1490 502 0
-1491 393 0
-1491 479 0
-1492 394 0
-1492 416 0
-1493 468 0
-1493 520 0
1481 1482 1483 1484 1485 1486 1487 1488 1489 1490 1491 1492 1493 0
367 422 0
-1494 89 0
-1494 471 0
-1495 111 0
-1495 458 0
-1496 111 0
-1496 529 0
-1497 150 0
-1497 391 0
-1498 269 0
-1498 426 0
-1499 299 0
-1499 429 0
-1500 336 0
-1500 483 0
-1501 344 0
-1501 424 0
-1502 445 0
-1502 527 0
1494 1495 1496 1497 1498 1499 1500 1501 1502 0
-1503 83 0
-1503 425 0
-1504 107 0
-1504 530 0
-1505 110 0
-1505 517 0
-1506 270 0
-1506 380 0
-1507 270 0
-1507 511 0
1503 1504 1505 1506 1507 0
511 380 0
-1508 19 0
-1508 426 0
-1509 269 0
-1509 391 0
1508 1509 0
-1510 35 0
-1510 410 0
-1511 81 0
-1511 529 0
-1512 174 0
-1512 463 0
-1513 211 0
-1513 396 0
-1514 211 0
-1514 521 0
-1515 271 0
-1515 378 0
-1516 271 0
-1516 516 0
1472 1491 1510 1511 1512 1513 1514 1515 1516 0
378 516 0
-1517 39 0
-1517 515 0
-1518 127 0
-1518 461 0
-1519 135 0
-1519 482 0
-1520 279 0
-1520 383 0
-1521 279 0
-1521 483 0
-1522 341 0
-1522 407 0
1477 1517 1518 1519 1520 1521 1522 0
-1523 13 0
-1523 427 0
-1524 48 0
-1524 408 0
-1525 61 0
-1525 416 0
-1526 68 0
-1526 472 0
-1527 138 0
-1527 487 0
-1528 177 0
-1528 530 0
-1529 199 0
-1529 393 0
-1530 204 0
-1530 420 0
-1531 205 0
-1531 399 0
-1532 205 0
-1532 522 0
-1533 216 0
-1533 425 0
-1534 221 0
-1534 478 0
-1535 246 0
-1535 398 0
-1536 300 0
-1536 486 0
-1537 324 0
-1537 446 0
-1538 326 0
-1538 471 0
-1539 346 0
-1539 443 0
1493 1523 1524 1525 1526 1527 1528 1529 1530 1531 1532 1533 1534 1535 1536 1537 1538 1539 0
487 443 486 530 468 398 472 393 471 0
-1540 6 0
-1540 513 0
-1541 9 0
-1541 420 0
-1542 96 0
-1542 393 0
-1543 140 0
-1543 520 0
-1544 182 0
-1544 530 0
-1545 194 0
-1545 497 0
-1546 240 0
-1546 378 0
-1547 240 0
-1547 483 0
-1548 268 0
-1548 487 0
-1549 292 0
-1549 412 0
-1550 345 0
-1550 474 0
-1551 398 0
-1551 408 0
1493 1540 1541 1542 1543 1544 1545 1546 1547 1548 1549 1550 1551 0
-1552 163 0
-1552 387 0
-1553 275 0
-1553 503 0
-1554 285 0
-1554 451 0
1552 1553 1554 0
387 503 0
-1555 7 0
-1555 442 0
-1556 17 0
-1556 502 0
-1557 68 0
-1557 486 0
-1558 78 0
-1558 529 0
-1559 88 0
-1559 521 0
-1560 89 0
-1560 409 0
-1561 135 0
-1561 499 0
-1562 215 0
-1562 435 0
-1563 258 0
-1563 407 0
-1564 446 0
-1564 447 0
1472 1477 1499 1555 1556 1557 1558 1559 1560 1561 1562 1563 1564 0
-1565 36 0
-1565 486 0
-1566 38 0
-1566 380 0
-1567 80 0
-1567 504 0
-1568 137 0
-1568 415 0
-1569 175 0
-1569 513 0
-1570 193 0
-1570 452 0
-1571 391 0
-1571 407 0
-1572 396 0
-1572 442 0
1499 1556 1565 1566 1567 1568 1569 1570 1571 1572 0
415 380 504 513 391 486 452 442 0
-1573 39 0
-1573 499 0
-1574 117 0
-1574 449 0
-1575 171 0
-1575 383 0
-1576 340 0
-1576 423 0
1521 1573 1574 1575 1576 0
-1577 102 0
-1577 448 0
-1578 211 0
-1578 394 0
-1579 278 0
-1579 384 0
-1580 278 0
-1580 473 0
-1581 294 0
-1581 521 0
-1582 345 0
-1582 500 0
1577 1578 1579 1580 1581 1582 0
384 473 0
-1583 7 0
-1583 444 0
-1584 101 0
-1584 379 0
-1585 103 0
-1585 421 0
-1586 106 0
-1586 496 0
-1587 109 0
-1587 528 0
-1588 115 0
-1588 459 0
-1589 137 0
-1589 411 0
-1590 214 0
-1590 481 0
-1591 222 0
-1591 405 0
-1592 243 0
-1592 388 0
-1593 243 0
-1593 462 0
-1594 377 0
-1594 379 0
1461 1535 1583 1584 1585 1586 1587 1588 1589 1590 1591 1592 1593 1594 0
-1595 17 0
-1595 425 0
-1596 20 0
-1596 435 0
-1597 43 0
-1597 520 0
-1598 98 0
-1598 370 0
-1599 120 0
-1599 373 0
-1600 131 0
-1600 490 0
-1601 147 0
-1601 421 0
-1602 202 0
-1602 525 0
-1603 205 0
-1603 390 0
-1604 243 0
-1604 367 0
-1605 262 0
-1605 425 0
-1606 330 0
-1606 493 0
-1607 381 0
-1607 418 0
-1608 447 0
-1608 452 0
1471 1477 1532 1556 1558 1572 1595 1596 1597 1598 1599 1600 1601 1602 1603 1604 1605 1606 1607 1608 0
381 442 367 447 373 425 529 0
-1609 140 0
-1609 472 0
-1610 212 0
-1610 497 0
1530 1535 1536 1539 1542 1544 1548 1549 1609 1610 0
-1611 35 0
-1611 412 0
-1612 94 0
-1612 520 0
-1613 186 0
-1613 478 0
-1614 420 0
-1614 421 0
1528 1535 1536 1539 1540 1542 1546 1547 1548 1611 1612 1613 1614 0
520 393 483 513 378 478 0
-1615 3 0
-1615 413 0
-1616 8 0
-1616 482 0
-1617 32 0
-1617 472 0
-1618 74 0
-1618 489 0
-1619 77 0
-1619 530 0
-1620 101 0
-1620 439 0
-1621 171 0
-1621 392 0
-1622 217 0
-1622 445 0
-1623 218 0
-1623 436 0
-1624 285 0
-1624 399 0
-1625 318 0
-1625 432 0
-1626 469 0
-1626 522 0
1615 1616 1617 1618 1619 1620 1621 1622 1623 1624 1625 1626 0
-1627 8 0
-1627 485 0
-1628 18 0
-1628 446 0
-1629 95 0
-1629 510 0
-1630 175 0
-1630 512 0
-1631 253 0
-1631 384 0
-1632 266 0
-1632 505 0
-1633 295 0
-1633 381 0
-1634 336 0
-1634 486 0
-1635 400 0
-1635 520 0
1480 1499 1526 1542 1597 1616 1627 1628 1629 1630 1631 1632 1633 1634 1635 0
383 510 486 472 520 0
-1636 272 0
-1636 398 0
-1637 333 0
-1637 462 0
-1638 406 0
-1638 408 0
1471 1472 1499 1562 1636 1637 1638 0
-1639 85 0
-1639 413 0
-1640 104 0
-1640 423 0
-1641 117 0
-1641 368 0
-1642 132 0
-1642 432 0
-1643 145 0
-1643 439 0
-1644 174 0
-1644 410 0
-1645 188 0
-1645 518 0
-1646 199 0
-1646 389 0
-1647 199 0
-1647 520 0
-1648 251 0
-1648 377 0
-1649 251 0
-1649 494 0
-1650 257 0
-1650 472 0
-1651 267 0
-1651 431 0
-1652 289 0
-1652 404 0
-1653 297 0
-1653 523 0
-1654 326 0
-1654 477 0
1492 1494 1562 1639 1640 1641 1642 1643 1644 1645 1646 1647 1648 1649 1650 1651 1652 1653 1654 0
423 368 0
-1655 5 0
-1655 460 0
-1656 19 0
-1656 499 0
-1657 178 0
-1657 374 0
-1658 201 0
-1658 376 0
-1659 201 0
-1659 421 0
-1660 287 0
-1660 460 0
1532 1655 1656 1657 1658 1659 1660 0
-1661 159 0
-1661 374 0
-1662 178 0
-1662 460 0
-1663 430 0
-1663 460 0
1532 1656 1661 1662 1663 0
374 460 0
-1664 12 0
-1664 490 0
-1665 61 0
-1665 415 0
-1666 117 0
-1666 391 0
-1667 119 0
-1667 380 0
-1668 119 0
-1668 494 0
-1669 122 0
-1669 377 0
-1670 142 0
-1670 387 0
-1671 142 0
-1671 495 0
-1672 189 0
-1672 461 0
-1673 225 0
-1673 379 0
-1674 273 0
-1674 496 0
-1675 386 0
-1675 437 0
1499 1511 1532 1563 1578 1581 1603 1645 1664 1665 1666 1667 1668 1669 1670 1671 1672 1673 1674 1675 0
-1676 81 0
-1676 415 0
-1677 135 0
-1677 504 0
-1678 189 0
-1678 465 0
-1679 256 0
-1679 521 0
-1680 291 0
-1680 394 0
-1681 296 0
-1681 401 0
-1682 338 0
-1682 461 0
1479 1532 1537 1557 1558 1586 1600 1603 1666 1669 1673 1676 1677 1678 1679 1680 1681 1682 0
391 529 486 446 521 379 377 504 415 0
-1683 189 0
-1683 424 0
-1684 233 0
-1684 528 0
-1685 275 0
-1685 387 0
-1686 283 0
-1686 421 0
-1687 298 0
-1687 417 0
-1688 302 0
-1688 518 0
-1689 329 0
-1689 436 0
-1690 329 0
-1690 452 0
-1691 341 0
-1691 378 0
-1692 341 0
-1692 431 0
-1693 341 0
-1693 483 0
-1694 345 0
-1694 429 0
1502 1503 1504 1505 1522 1658 1683 1684 1685 1686 1687 1688 1689 1690 1691 1692 1693 1694 0
1502 1503 1504 1505 1658 1659 1683 1684 1689 1690 1694 0
530 425 517 0
-1695 2 0
-1695 469 0
-1696 11 0
-1696 419 0
-1697 22 0
-1697 384 0
-1698 37 0
-1698 447 0
-1699 89 0
-1699 386 0
-1700 139 0
-1700 404 0
-1701 141 0
-1701 458 0
-1702 161 0
-1702 373 0
-1703 180 0
-1703 450 0
-1704 191 0
-1704 454 0
-1705 260 0
-1705 468 0
-1706 303 0
-1706 461 0
-1707 404 0
-1707 424 0
1535 1602 1629 1655 1656 1695 1696 1697 1698 1699 1700 1701 1702 1703 1704 1705 1706 1707 0
-1708 22 0
-1708 419 0
-1709 56 0
-1709 525 0
-1710 142 0
-1710 488 0
-1711 207 0
-1711 386 0
-1712 228 0
-1712 454 0
-1713 246 0
-1713 450 0
-1714 326 0
-1714 468 0
-1715 327 0
-1715 424 0
1535 1573 1626 1629 1655 1698 1700 1701 1702 1706 1708 1709 1710 1711 1712 1713 1714 1715 0
460 386 404 450 398 454 0
-1716 36 0
-1716 519 0
-1717 50 0
-1717 420 0
-1718 207 0
-1718 404 0
-1719 274 0
-1719 377 0
-1720 328 0
-1720 510 0
-1721 336 0
-1721 383 0
1500 1519 1540 1711 1716 1717 1718 1719 1720 1721 0
-1722 53 0
-1722 366 0
-1723 76 0
-1723 487 0
-1724 260 0
-1724 510 0
-1725 272 0
-1725 408 0
-1726 393 0
-1726 415 0
-1727 423 0
-1727 463 0
1484 1507 1528 1543 1654 1719 1722 1723 1724 1725 1726 1727 0
1484 1507 1528 1543 1654 1719 1722 1723 1724 1725 1727 0
520 366 422 510 463 377 408 0
-1728 134 0
-1728 463 0
-1729 274 0
-1729 494 0
1484 1629 1648 1725 1728 1729 0
-1730 17 0
-1730 391 0
-1731 17 0
-1731 449 0
-1732 17 0
-1732 469 0
-1733 17 0
-1733 508 0
-1734 33 0
-1734 429 0
-1735 133 0
-1735 502 0
-1736 150 0
-1736 388 0
-1737 224 0
-1737 390 0
-1738 241 0
-1738 461 0
-1739 291 0
-1739 428 0
1503 1547 1656 1730 1731 1732 1733 1734 1735 1736 1737 1738 1739 0
429 483 390 428 0
-1740 49 0
-1740 482 0
-1741 53 0
-1741 475 0
-1742 64 0
-1742 425 0
-1743 141 0
-1743 398 0
-1744 299 0
-1744 527 0
-1745 327 0
-1745 464 0
-1746 385 0
-1746 495 0
-1747 405 0
-1747 407 0
1499 1695 1706 1740 1741 1742 1743 1744 1745 1746 1747 0
-1748 378 0
-1748 482 0
1626 1706 1741 1742 1743 1745 1746 1747 1748 0
407 464 469 482 475 398 495 461 425 0
-1749 48 0
-1749 496 0
-1750 53 0
-1750 520 0
-1751 80 0
-1751 510 0
-1752 107 0
-1752 440 0
-1753 133 0
-1753 515 0
-1754 137 0
-1754 438 0
-1755 175 0
-1755 471 0
-1756 322 0
-1756 526 0
1532 1556 1561 1565 1578 1603 1651 1665 1669 1677 1714 1749 1750 1751 1752 1753 1754 1755 1756 0
-1757 174 0
-1757 438 0
-1758 182 0
-1758 440 0
-1759 286 0
-1759 515 0
1532 1556 1557 1561 1603 1669 1676 1677 1680 1692 1749 1756 1757 1758 1759 0
504 499 394 377 486 515 0
-1760 141 0
-1760 414 0
-1761 428 0
-1761 429 0
1615 1683 1728 1734 1738 1760 1761 0
-1762 8 0
-1762 507 0
-1763 43 0
-1763 504 0
-1764 137 0
-1764 409 0
-1765 324 0
-1765 431 0
-1766 347 0
-1766 497 0
-1767 499 0
-1767 521 0
1472 1537 1557 1558 1563 1578 1596 1682 1730 1749 1762 1763 1764 1765 1766 1767 0
496 435 391 529 486 394 472 499 504 0
-1768 18 0
-1768 494 0
-1769 227 0
-1769 507 0
1472 1532 1537 1558 1572 1581 1596 1603 1645 1666 1667 1680 1764 1768 1769 0
-1770 82 0
-1770 494 0
-1771 286 0
-1771 409 0
1532 1558 1564 1581 1603 1645 1666 1667 1669 1673 1680 1769 1770 1771 0
380 507 521 494 394 518 0
1472 1477 1532 1537 1545 1556 1557 1558 1562 1563 1572 1578 1603 1677 1679 1681 0
-1772 216 0
-1772 526 0
-1773 277 0
-1773 449 0
-1774 329 0
-1774 448 0
1496 1503 1520 1532 1547 1556 1573 1592 1603 1730 1732 1733 1739 1772 1773 1774 0
383 483 0
-1775 20 0
-1775 444 0
-1776 38 0
-1776 523 0
-1777 76 0
-1777 488 0
-1778 77 0
-1778 373 0
-1779 161 0
-1779 374 0
-1780 194 0
-1780 495 0
-1781 222 0
-1781 406 0
-1782 246 0
-1782 465 0
-1783 280 0
-1783 381 0
-1784 328 0
-1784 500 0
1672 1775 1776 1777 1778 1779 1780 1781 1782 1783 1784 0
-1785 3 0
-1785 406 0
-1786 179 0
-1786 495 0
1582 1672 1775 1776 1777 1778 1783 1785 1786 0
373 461 0
-1787 96 0
-1787 464 0
-1788 130 0
-1788 451 0
-1789 330 0
-1789 480 0
-1790 347 0
-1790 392 0
1668 1713 1719 1766 1787 1788 1789 1790 0
-1791 42 0
-1791 432 0
-1792 272 0
-1792 462 0
1514 1636 1649 1791 1792 0
462 398 0
-1459 0
