p cnf 3307 25226
1 0
2 0
3 0
4 0
5 0
6 0
7 0
8 0
9 0
10 0
11 0
12 0
13 0
14 0
15 0
16 0
17 0
18 0
19 0
20 0
21 0
22 0
23 0
24 0
25 0
26 0
27 0
28 0
29 0
30 0
31 0
32 0
33 0
34 0
35 0
36 0
37 0
38 0
39 0
40 0
41 0
42 0
43 0
44 0
45 0
46 0
47 0
48 0
49 0
50 0
51 0
52 0
53 0
54 0
55 0
56 0
57 0
58 0
59 0
60 0
61 0
62 0
63 0
64 0
65 0
66 0
67 0
68 0
69 0
70 0
71 0
72 0
73 0
74 0
75 0
76 0
77 0
78 0
79 0
80 0
81 0
82 0
83 0
84 0
85 0
86 0
87 0
88 0
89 0
90 0
91 0
92 0
93 0
94 0
95 0
96 0
97 0
98 0
99 0
100 0
101 0
102 0
103 0
104 0
105 0
106 0
107 0
108 0
109 0
110 0
111 0
112 0
113 0
114 0
115 0
116 0
117 0
118 0
119 0
120 0
121 0
122 0
123 0
124 0
125 0
126 0
127 0
128 0
129 0
130 0
131 0
132 0
133 0
134 0
135 0
136 0
137 0
138 0
139 0
140 0
141 0
142 0
143 0
144 0
145 0
146 0
147 0
148 0
149 0
150 0
151 0
152 0
153 0
154 0
155 0
156 0
157 0
158 0
159 0
160 0
161 0
162 0
163 0
164 0
165 0
166 0
167 0
168 0
169 0
170 0
171 0
172 0
173 0
174 0
175 0
176 0
177 0
178 0
179 0
180 0
181 0
182 0
183 0
184 0
185 0
186 0
187 0
188 0
189 0
190 0
191 0
192 0
193 0
194 0
195 0
196 0
197 0
198 0
199 0
200 0
201 0
202 0
203 0
204 0
205 0
206 0
207 0
208 0
209 0
210 0
211 0
212 0
213 0
214 0
215 0
216 0
217 0
218 0
219 0
220 0
221 0
222 0
223 0
224 0
225 0
226 0
227 0
228 0
229 0
230 0
231 0
232 0
233 0
234 0
235 0
452 0
453 0
454 0
455 0
456 0
457 0
458 0
459 0
460 0
461 0
462 0
463 0
464 0
465 0
466 0
467 0
468 0
469 0
470 0
471 0
472 0
473 0
474 0
475 0
476 0
477 0
478 0
479 0
480 0
481 0
482 0
483 0
484 0
485 0
486 0
487 0
488 0
489 0
490 0
491 0
492 0
493 0
494 0
495 0
496 0
497 0
498 0
499 0
500 0
501 0
502 0
503 0
504 0
505 0
506 0
507 0
508 0
509 0
510 0
511 0
512 0
513 0
514 0
515 0
516 0
517 0
518 0
519 0
520 0
521 0
522 0
523 0
524 0
525 0
526 0
527 0
528 0
529 0
530 0
531 0
532 0
533 0
534 0
535 0
536 0
537 0
538 0
539 0
540 0
541 0
542 0
543 0
544 0
545 0
546 0
547 0
548 0
549 0
550 0
551 0
552 0
553 0
554 0
555 0
556 0
557 0
558 0
559 0
560 0
561 0
562 0
563 0
564 0
565 0
566 0
567 0
568 0
569 0
570 0
571 0
572 0
573 0
574 0
575 0
576 0
577 0
578 0
579 0
580 0
581 0
582 0
583 0
584 0
585 0
586 0
-323 270 338 345 367 0
-324 314 339 344 364 0
-325 260 340 341 363 0
-326 316 335 346 366 0
-327 282 336 343 365 0
-328 315 337 342 362 0
-335 303 321 326 333 366 380 412 413 0
-336 289 322 327 332 365 381 409 414 0
-337 294 322 328 329 362 382 408 415 0
-338 284 320 323 334 367 383 411 416 0
-339 311 320 324 331 364 384 410 417 0
-340 272 321 325 330 363 385 407 418 0
-350 269 283 367 394 425 0
-351 296 299 364 391 426 0
-352 271 275 363 390 427 0
-353 309 312 366 393 428 0
-354 281 288 365 392 429 0
-355 298 308 362 389 430 0
-356 244 346 400 0
-357 249 343 397 0
-358 241 342 396 0
-359 256 345 399 0
-360 237 344 398 0
-361 253 341 395 0
-368 291 587 0
-368 -587 588 0
-368 312 -587 589 0
-368 -589 590 0
-368 320 -589 591 0
-368 -591 592 0
-368 386 -591 0
-368 312 588 0
-368 320 -588 590 0
-368 386 -590 592 0
-368 412 -592 0
-369 274 593 0
-369 -593 594 0
-369 288 -593 595 0
-369 -595 596 0
-369 320 -595 597 0
-369 -597 598 0
-369 386 -597 0
-369 288 594 0
-369 320 -594 596 0
-369 386 -596 598 0
-369 409 -598 0
-370 295 599 0
-370 -599 600 0
-370 308 -599 601 0
-370 -601 602 0
-370 321 -601 603 0
-370 -603 604 0
-370 387 -603 0
-370 308 600 0
-370 321 -600 602 0
-370 387 -602 604 0
-370 408 -604 0
-371 273 605 0
-371 -605 606 0
-371 283 -605 607 0
-371 -607 608 0
-371 321 -607 609 0
-371 -609 610 0
-371 387 -609 0
-371 283 606 0
-371 321 -606 608 0
-371 387 -608 610 0
-371 411 -610 0
-372 299 611 0
-372 -611 612 0
-372 302 -611 613 0
-372 -613 614 0
-372 322 -613 615 0
-372 -615 616 0
-372 388 -615 0
-372 302 612 0
-372 322 -612 614 0
-372 388 -614 616 0
-372 410 -616 0
-373 271 617 0
-373 -617 618 0
-373 285 -617 619 0
-373 -619 620 0
-373 322 -619 621 0
-373 -621 622 0
-373 388 -621 0
-373 285 618 0
-373 322 -618 620 0
-373 388 -620 622 0
-373 407 -622 0
-380 248 253 329 335 401 408 0
-381 238 241 330 336 402 407 0
-382 249 257 331 337 403 410 0
-383 237 247 332 338 404 409 0
-384 252 256 333 339 405 412 0
-385 243 244 334 340 406 411 0
-395 274 623 0
-395 -623 624 0
-395 334 -623 625 0
-395 -625 626 0
-395 361 -625 627 0
-395 -627 628 0
-395 379 -627 629 0
-395 -629 630 0
-395 394 -629 0
-395 334 624 0
-395 361 -624 626 0
-395 379 -626 628 0
-395 394 -628 630 0
-395 419 -630 0
-396 291 631 0
-396 -631 632 0
-396 331 -631 633 0
-396 -633 634 0
-396 358 -633 635 0
-396 -635 636 0
-396 376 -635 637 0
-396 -637 638 0
-396 391 -637 0
-396 331 632 0
-396 358 -632 634 0
-396 376 -634 636 0
-396 391 -636 638 0
-396 420 -638 0
-397 273 639 0
-397 -639 640 0
-397 330 -639 641 0
-397 -641 642 0
-397 357 -641 643 0
-397 -643 644 0
-397 375 -643 645 0
-397 -645 646 0
-397 390 -645 0
-397 330 640 0
-397 357 -640 642 0
-397 375 -642 644 0
-397 390 -644 646 0
-397 421 -646 0
-398 295 647 0
-398 -647 648 0
-398 333 -647 649 0
-398 -649 650 0
-398 360 -649 651 0
-398 -651 652 0
-398 378 -651 653 0
-398 -653 654 0
-398 393 -653 0
-398 333 648 0
-398 360 -648 650 0
-398 378 -650 652 0
-398 393 -652 654 0
-398 422 -654 0
-399 285 655 0
-399 -655 656 0
-399 332 -655 657 0
-399 -657 658 0
-399 359 -657 659 0
-399 -659 660 0
-399 377 -659 661 0
-399 -661 662 0
-399 392 -661 0
-399 332 656 0
-399 359 -656 658 0
-399 377 -658 660 0
-399 392 -660 662 0
-399 423 -662 0
-400 302 663 0
-400 -663 664 0
-400 329 -663 665 0
-400 -665 666 0
-400 356 -665 667 0
-400 -667 668 0
-400 374 -667 669 0
-400 -669 670 0
-400 389 -669 0
-400 329 664 0
-400 356 -664 666 0
-400 374 -666 668 0
-400 389 -668 670 0
-400 424 -670 0
-407 271 340 347 363 373 381 406 440 0
-408 308 337 347 362 370 380 403 441 0
-409 288 336 348 365 369 383 402 442 0
-410 299 339 348 364 372 382 405 443 0
-411 283 338 349 367 371 385 404 444 0
-412 312 335 349 366 368 384 401 445 0
-413 296 671 0
-413 -671 672 0
-413 303 -671 673 0
-413 -673 674 0
-413 335 -673 675 0
-413 -675 676 0
-413 347 -675 0
-413 303 672 0
-413 335 -672 674 0
-413 347 -674 676 0
-413 437 -676 0
-414 269 677 0
-414 -677 678 0
-414 289 -677 679 0
-414 -679 680 0
-414 336 -679 681 0
-414 -681 682 0
-414 347 -681 0
-414 289 678 0
-414 336 -678 680 0
-414 347 -680 682 0
-414 437 -682 0
-415 294 683 0
-415 -683 684 0
-415 309 -683 685 0
-415 -685 686 0
-415 337 -685 687 0
-415 -687 688 0
-415 348 -687 0
-415 309 684 0
-415 337 -684 686 0
-415 348 -686 688 0
-415 438 -688 0
-416 275 689 0
-416 -689 690 0
-416 284 -689 691 0
-416 -691 692 0
-416 338 -691 693 0
-416 -693 694 0
-416 348 -693 0
-416 284 690 0
-416 338 -690 692 0
-416 348 -692 694 0
-416 438 -694 0
-417 298 695 0
-417 -695 696 0
-417 311 -695 697 0
-417 -697 698 0
-417 339 -697 699 0
-417 -699 700 0
-417 349 -699 0
-417 311 696 0
-417 339 -696 698 0
-417 349 -698 700 0
-417 439 -700 0
-418 272 701 0
-418 -701 702 0
-418 281 -701 703 0
-418 -703 704 0
-418 340 -703 705 0
-418 -705 706 0
-418 349 -705 0
-418 281 702 0
-418 340 -702 704 0
-418 349 -704 706 0
-418 439 -706 0
-419 272 274 341 363 395 0
-420 291 294 342 362 396 0
-421 273 289 343 365 397 0
-422 295 311 344 364 398 0
-423 284 285 345 367 399 0
-424 302 303 346 366 400 0
-425 269 707 0
-425 -707 708 0
-425 341 -707 709 0
-425 -709 710 0
-425 350 -709 711 0
-425 -711 712 0
-425 406 -711 713 0
-425 -713 714 0
-425 431 -713 0
-425 341 708 0
-425 350 -708 710 0
-425 406 -710 712 0
-425 431 -712 714 0
-425 451 -714 0
-426 296 715 0
-426 -715 716 0
-426 342 -715 717 0
-426 -717 718 0
-426 351 -717 719 0
-426 -719 720 0
-426 403 -719 721 0
-426 -721 722 0
-426 432 -721 0
-426 342 716 0
-426 351 -716 718 0
-426 403 -718 720 0
-426 432 -720 722 0
-426 448 -722 0
-427 275 723 0
-427 -723 724 0
-427 343 -723 725 0
-427 -725 726 0
-427 352 -725 727 0
-427 -727 728 0
-427 402 -727 729 0
-427 -729 730 0
-427 433 -729 0
-427 343 724 0
-427 352 -724 726 0
-427 402 -726 728 0
-427 433 -728 730 0
-427 447 -730 0
-428 309 731 0
-428 -731 732 0
-428 344 -731 733 0
-428 -733 734 0
-428 353 -733 735 0
-428 -735 736 0
-428 405 -735 737 0
-428 -737 738 0
-428 434 -737 0
-428 344 732 0
-428 353 -732 734 0
-428 405 -734 736 0
-428 434 -736 738 0
-428 450 -738 0
-429 281 739 0
-429 -739 740 0
-429 345 -739 741 0
-429 -741 742 0
-429 354 -741 743 0
-429 -743 744 0
-429 404 -743 745 0
-429 -745 746 0
-429 435 -745 0
-429 345 740 0
-429 354 -740 742 0
-429 404 -742 744 0
-429 435 -744 746 0
-429 449 -746 0
-430 298 747 0
-430 -747 748 0
-430 346 -747 749 0
-430 -749 750 0
-430 355 -749 751 0
-430 -751 752 0
-430 401 -751 753 0
-430 -753 754 0
-430 436 -753 0
-430 346 748 0
-430 355 -748 750 0
-430 401 -750 752 0
-430 436 -752 754 0
-430 446 -754 0
-440 270 363 390 407 0
-441 314 362 389 408 0
-442 260 365 392 409 0
-443 316 364 391 410 0
-444 282 367 394 411 0
-445 315 366 393 412 0
-446 238 389 430 0
-447 248 390 427 0
-448 247 391 426 0
-449 257 392 429 0
-450 243 393 428 0
-451 252 394 425 0
-237 755 0
-236 755 0
-236 -237 756 0
-239 757 0
-238 757 0
-238 -239 758 0
-241 759 0
-240 759 0
-240 -241 760 0
-243 761 0
-242 761 0
-242 -243 762 0
-245 763 0
-244 763 0
-244 -245 764 0
-247 765 0
-246 765 0
-246 -247 766 0
-249 767 0
-248 767 0
-248 -249 768 0
-251 769 0
-250 769 0
-250 -251 770 0
-253 771 0
-252 771 0
-252 -253 772 0
-255 773 0
-254 773 0
-254 -255 774 0
-257 775 0
-256 775 0
-256 -257 776 0
-259 777 0
-258 777 0
-258 -259 778 0
-261 779 0
-260 779 0
-260 -261 780 0
-263 781 0
-262 781 0
-262 -263 782 0
-265 783 0
-264 783 0
-264 -265 784 0
-267 785 0
-266 785 0
-266 -267 786 0
-269 787 0
-268 787 0
-268 -269 788 0
-271 789 0
-270 789 0
-270 -271 790 0
-273 791 0
-272 791 0
-272 -273 792 0
-275 793 0
-274 793 0
-274 -275 794 0
-277 795 0
-276 795 0
-276 -277 796 0
-279 797 0
-278 797 0
-278 -279 798 0
-281 799 0
-280 799 0
-280 -281 800 0
-283 801 0
-282 801 0
-282 -283 802 0
-285 803 0
-284 803 0
-284 -285 804 0
-287 805 0
-286 805 0
-286 -287 806 0
-289 807 0
-288 807 0
-288 -289 808 0
-291 809 0
-290 809 0
-290 -291 810 0
-293 811 0
-292 811 0
-292 -293 812 0
-295 813 0
-294 813 0
-294 -295 814 0
-297 815 0
-296 815 0
-296 -297 816 0
-299 817 0
-298 817 0
-298 -299 818 0
-301 819 0
-300 819 0
-300 -301 820 0
-303 821 0
-302 821 0
-302 -303 822 0
-305 823 0
-304 823 0
-304 -305 824 0
-307 825 0
-306 825 0
-306 -307 826 0
-309 827 0
-308 827 0
-308 -309 828 0
-311 829 0
-310 829 0
-310 -311 830 0
-313 831 0
-312 831 0
-312 -313 832 0
-315 833 0
-314 833 0
-314 -315 834 0
-317 835 0
-316 835 0
-316 -317 836 0
-319 837 0
-318 837 0
-318 -319 838 0
-321 839 0
-320 839 0
-320 -321 840 0
-323 841 0
-322 841 0
-322 -323 842 0
-325 843 0
-324 843 0
-324 -325 844 0
-327 845 0
-326 845 0
-326 -327 846 0
-329 847 0
-328 847 0
-328 -329 848 0
-331 849 0
-330 849 0
-330 -331 850 0
-333 851 0
-332 851 0
-332 -333 852 0
-335 853 0
-334 853 0
-334 -335 854 0
-337 855 0
-336 855 0
-336 -337 856 0
-339 857 0
-338 857 0
-338 -339 858 0
-341 859 0
-340 859 0
-340 -341 860 0
-343 861 0
-342 861 0
-342 -343 862 0
-345 863 0
-344 863 0
-344 -345 864 0
-347 865 0
-346 865 0
-346 -347 866 0
-349 867 0
-348 867 0
-348 -349 868 0
-351 869 0
-350 869 0
-350 -351 870 0
-353 871 0
-352 871 0
-352 -353 872 0
-355 873 0
-354 873 0
-354 -355 874 0
-357 875 0
-356 875 0
-356 -357 876 0
-359 877 0
-358 877 0
-358 -359 878 0
-361 879 0
-360 879 0
-360 -361 880 0
-363 881 0
-362 881 0
-362 -363 882 0
-365 883 0
-364 883 0
-364 -365 884 0
-367 885 0
-366 885 0
-366 -367 886 0
-369 887 0
-368 887 0
-368 -369 888 0
-371 889 0
-370 889 0
-370 -371 890 0
-373 891 0
-372 891 0
-372 -373 892 0
-375 893 0
-374 893 0
-374 -375 894 0
-377 895 0
-376 895 0
-376 -377 896 0
-379 897 0
-378 897 0
-378 -379 898 0
-381 899 0
-380 899 0
-380 -381 900 0
-383 901 0
-382 901 0
-382 -383 902 0
-385 903 0
-384 903 0
-384 -385 904 0
-387 905 0
-386 905 0
-386 -387 906 0
-389 907 0
-388 907 0
-388 -389 908 0
-391 909 0
-390 909 0
-390 -391 910 0
-393 911 0
-392 911 0
-392 -393 912 0
-395 913 0
-394 913 0
-394 -395 914 0
-397 915 0
-396 915 0
-396 -397 916 0
-399 917 0
-398 917 0
-398 -399 918 0
-401 919 0
-400 919 0
-400 -401 920 0
-403 921 0
-402 921 0
-402 -403 922 0
-405 923 0
-404 923 0
-404 -405 924 0
-407 925 0
-406 925 0
-406 -407 926 0
-409 927 0
-408 927 0
-408 -409 928 0
-411 929 0
-410 929 0
-410 -411 930 0
-413 931 0
-412 931 0
-412 -413 932 0
-415 933 0
-414 933 0
-414 -415 934 0
-417 935 0
-416 935 0
-416 -417 936 0
-419 937 0
-418 937 0
-418 -419 938 0
-421 939 0
-420 939 0
-420 -421 940 0
-423 941 0
-422 941 0
-422 -423 942 0
-425 943 0
-424 943 0
-424 -425 944 0
-427 945 0
-426 945 0
-426 -427 946 0
-429 947 0
-428 947 0
-428 -429 948 0
-431 949 0
-430 949 0
-430 -431 950 0
-433 951 0
-432 951 0
-432 -433 952 0
-435 953 0
-434 953 0
-434 -435 954 0
-437 955 0
-436 955 0
-436 -437 956 0
-439 957 0
-438 957 0
-438 -439 958 0
-441 959 0
-440 959 0
-440 -441 960 0
-443 961 0
-442 961 0
-442 -443 962 0
-445 963 0
-444 963 0
-444 -445 964 0
-447 965 0
-446 965 0
-446 -447 966 0
-449 967 0
-448 967 0
-448 -449 968 0
-451 969 0
-450 969 0
-450 -451 970 0
-757 971 0
-758 972 0
-755 971 0
-756 972 0
-755 -757 972 0
-755 -758 973 0
-756 -757 973 0
-756 -758 974 0
-761 975 0
-762 976 0
-759 975 0
-760 976 0
-759 -761 976 0
-759 -762 977 0
-760 -761 977 0
-760 -762 978 0
-765 979 0
-766 980 0
-763 979 0
-764 980 0
-763 -765 980 0
-763 -766 981 0
-764 -765 981 0
-764 -766 982 0
-769 983 0
-770 984 0
-767 983 0
-768 984 0
-767 -769 984 0
-767 -770 985 0
-768 -769 985 0
-768 -770 986 0
-773 987 0
-774 988 0
-771 987 0
-772 988 0
-771 -773 988 0
-771 -774 989 0
-772 -773 989 0
-772 -774 990 0
-777 991 0
-778 992 0
-775 991 0
-776 992 0
-775 -777 992 0
-775 -778 993 0
-776 -777 993 0
-776 -778 994 0
-781 995 0
-782 996 0
-779 995 0
-780 996 0
-779 -781 996 0
-779 -782 997 0
-780 -781 997 0
-780 -782 998 0
-785 999 0
-786 1000 0
-783 999 0
-784 1000 0
-783 -785 1000 0
-783 -786 1001 0
-784 -785 1001 0
-784 -786 1002 0
-789 1003 0
-790 1004 0
-787 1003 0
-788 1004 0
-787 -789 1004 0
-787 -790 1005 0
-788 -789 1005 0
-788 -790 1006 0
-793 1007 0
-794 1008 0
-791 1007 0
-792 1008 0
-791 -793 1008 0
-791 -794 1009 0
-792 -793 1009 0
-792 -794 1010 0
-797 1011 0
-798 1012 0
-795 1011 0
-796 1012 0
-795 -797 1012 0
-795 -798 1013 0
-796 -797 1013 0
-796 -798 1014 0
-801 1015 0
-802 1016 0
-799 1015 0
-800 1016 0
-799 -801 1016 0
-799 -802 1017 0
-800 -801 1017 0
-800 -802 1018 0
-805 1019 0
-806 1020 0
-803 1019 0
-804 1020 0
-803 -805 1020 0
-803 -806 1021 0
-804 -805 1021 0
-804 -806 1022 0
-809 1023 0
-810 1024 0
-807 1023 0
-808 1024 0
-807 -809 1024 0
-807 -810 1025 0
-808 -809 1025 0
-808 -810 1026 0
-813 1027 0
-814 1028 0
-811 1027 0
-812 1028 0
-811 -813 1028 0
-811 -814 1029 0
-812 -813 1029 0
-812 -814 1030 0
-817 1031 0
-818 1032 0
-815 1031 0
-816 1032 0
-815 -817 1032 0
-815 -818 1033 0
-816 -817 1033 0
-816 -818 1034 0
-821 1035 0
-822 1036 0
-819 1035 0
-820 1036 0
-819 -821 1036 0
-819 -822 1037 0
-820 -821 1037 0
-820 -822 1038 0
-825 1039 0
-826 1040 0
-823 1039 0
-824 1040 0
-823 -825 1040 0
-823 -826 1041 0
-824 -825 1041 0
-824 -826 1042 0
-829 1043 0
-830 1044 0
-827 1043 0
-828 1044 0
-827 -829 1044 0
-827 -830 1045 0
-828 -829 1045 0
-828 -830 1046 0
-833 1047 0
-834 1048 0
-831 1047 0
-832 1048 0
-831 -833 1048 0
-831 -834 1049 0
-832 -833 1049 0
-832 -834 1050 0
-837 1051 0
-838 1052 0
-835 1051 0
-836 1052 0
-835 -837 1052 0
-835 -838 1053 0
-836 -837 1053 0
-836 -838 1054 0
-841 1055 0
-842 1056 0
-839 1055 0
-840 1056 0
-839 -841 1056 0
-839 -842 1057 0
-840 -841 1057 0
-840 -842 1058 0
-845 1059 0
-846 1060 0
-843 1059 0
-844 1060 0
-843 -845 1060 0
-843 -846 1061 0
-844 -845 1061 0
-844 -846 1062 0
-849 1063 0
-850 1064 0
-847 1063 0
-848 1064 0
-847 -849 1064 0
-847 -850 1065 0
-848 -849 1065 0
-848 -850 1066 0
-853 1067 0
-854 1068 0
-851 1067 0
-852 1068 0
-851 -853 1068 0
-851 -854 1069 0
-852 -853 1069 0
-852 -854 1070 0
-857 1071 0
-858 1072 0
-855 1071 0
-856 1072 0
-855 -857 1072 0
-855 -858 1073 0
-856 -857 1073 0
-856 -858 1074 0
-861 1075 0
-862 1076 0
-859 1075 0
-860 1076 0
-859 -861 1076 0
-859 -862 1077 0
-860 -861 1077 0
-860 -862 1078 0
-865 1079 0
-866 1080 0
-863 1079 0
-864 1080 0
-863 -865 1080 0
-863 -866 1081 0
-864 -865 1081 0
-864 -866 1082 0
-869 1083 0
-870 1084 0
-867 1083 0
-868 1084 0
-867 -869 1084 0
-867 -870 1085 0
-868 -869 1085 0
-868 -870 1086 0
-873 1087 0
-874 1088 0
-871 1087 0
-872 1088 0
-871 -873 1088 0
-871 -874 1089 0
-872 -873 1089 0
-872 -874 1090 0
-877 1091 0
-878 1092 0
-875 1091 0
-876 1092 0
-875 -877 1092 0
-875 -878 1093 0
-876 -877 1093 0
-876 -878 1094 0
-881 1095 0
-882 1096 0
-879 1095 0
-880 1096 0
-879 -881 1096 0
-879 -882 1097 0
-880 -881 1097 0
-880 -882 1098 0
-885 1099 0
-886 1100 0
-883 1099 0
-884 1100 0
-883 -885 1100 0
-883 -886 1101 0
-884 -885 1101 0
-884 -886 1102 0
-889 1103 0
-890 1104 0
-887 1103 0
-888 1104 0
-887 -889 1104 0
-887 -890 1105 0
-888 -889 1105 0
-888 -890 1106 0
-893 1107 0
-894 1108 0
-891 1107 0
-892 1108 0
-891 -893 1108 0
-891 -894 1109 0
-892 -893 1109 0
-892 -894 1110 0
-897 1111 0
-898 1112 0
-895 1111 0
-896 1112 0
-895 -897 1112 0
-895 -898 1113 0
-896 -897 1113 0
-896 -898 1114 0
-901 1115 0
-902 1116 0
-899 1115 0
-900 1116 0
-899 -901 1116 0
-899 -902 1117 0
-900 -901 1117 0
-900 -902 1118 0
-905 1119 0
-906 1120 0
-903 1119 0
-904 1120 0
-903 -905 1120 0
-903 -906 1121 0
-904 -905 1121 0
-904 -906 1122 0
-909 1123 0
-910 1124 0
-907 1123 0
-908 1124 0
-907 -909 1124 0
-907 -910 1125 0
-908 -909 1125 0
-908 -910 1126 0
-913 1127 0
-914 1128 0
-911 1127 0
-912 1128 0
-911 -913 1128 0
-911 -914 1129 0
-912 -913 1129 0
-912 -914 1130 0
-917 1131 0
-918 1132 0
-915 1131 0
-916 1132 0
-915 -917 1132 0
-915 -918 1133 0
-916 -917 1133 0
-916 -918 1134 0
-921 1135 0
-922 1136 0
-919 1135 0
-920 1136 0
-919 -921 1136 0
-919 -922 1137 0
-920 -921 1137 0
-920 -922 1138 0
-925 1139 0
-926 1140 0
-923 1139 0
-924 1140 0
-923 -925 1140 0
-923 -926 1141 0
-924 -925 1141 0
-924 -926 1142 0
-929 1143 0
-930 1144 0
-927 1143 0
-928 1144 0
-927 -929 1144 0
-927 -930 1145 0
-928 -929 1145 0
-928 -930 1146 0
-933 1147 0
-934 1148 0
-931 1147 0
-932 1148 0
-931 -933 1148 0
-931 -934 1149 0
-932 -933 1149 0
-932 -934 1150 0
-937 1151 0
-938 1152 0
-935 1151 0
-936 1152 0
-935 -937 1152 0
-935 -938 1153 0
-936 -937 1153 0
-936 -938 1154 0
-941 1155 0
-942 1156 0
-939 1155 0
-940 1156 0
-939 -941 1156 0
-939 -942 1157 0
-940 -941 1157 0
-940 -942 1158 0
-945 1159 0
-946 1160 0
-943 1159 0
-944 1160 0
-943 -945 1160 0
-943 -946 1161 0
-944 -945 1161 0
-944 -946 1162 0
-949 1163 0
-950 1164 0
-947 1163 0
-948 1164 0
-947 -949 1164 0
-947 -950 1165 0
-948 -949 1165 0
-948 -950 1166 0
-953 1167 0
-954 1168 0
-951 1167 0
-952 1168 0
-951 -953 1168 0
-951 -954 1169 0
-952 -953 1169 0
-952 -954 1170 0
-957 1171 0
-958 1172 0
-955 1171 0
-956 1172 0
-955 -957 1172 0
-955 -958 1173 0
-956 -957 1173 0
-956 -958 1174 0
-961 1175 0
-962 1176 0
-959 1175 0
-960 1176 0
-959 -961 1176 0
-959 -962 1177 0
-960 -961 1177 0
-960 -962 1178 0
-965 1179 0
-966 1180 0
-963 1179 0
-964 1180 0
-963 -965 1180 0
-963 -966 1181 0
-964 -965 1181 0
-964 -966 1182 0
-969 1183 0
-970 1184 0
-967 1183 0
-968 1184 0
-967 -969 1184 0
-967 -970 1185 0
-968 -969 1185 0
-968 -970 1186 0
-975 1187 0
-976 1188 0
-977 1189 0
-978 1190 0
-971 1187 0
-972 1188 0
-973 1189 0
-974 1190 0
-971 -975 1188 0
-971 -976 1189 0
-971 -977 1190 0
-971 -978 1191 0
-972 -975 1189 0
-972 -976 1190 0
-972 -977 1191 0
-972 -978 1192 0
-973 -975 1190 0
-973 -976 1191 0
-973 -977 1192 0
-973 -978 1193 0
-974 -975 1191 0
-974 -976 1192 0
-974 -977 1193 0
-974 -978 1194 0
-983 1195 0
-984 1196 0
-985 1197 0
-986 1198 0
-979 1195 0
-980 1196 0
-981 1197 0
-982 1198 0
-979 -983 1196 0
-979 -984 1197 0
-979 -985 1198 0
-979 -986 1199 0
-980 -983 1197 0
-980 -984 1198 0
-980 -985 1199 0
-980 -986 1200 0
-981 -983 1198 0
-981 -984 1199 0
-981 -985 1200 0
-981 -986 1201 0
-982 -983 1199 0
-982 -984 1200 0
-982 -985 1201 0
-982 -986 1202 0
-991 1203 0
-992 1204 0
-993 1205 0
-994 1206 0
-987 1203 0
-988 1204 0
-989 1205 0
-990 1206 0
-987 -991 1204 0
-987 -992 1205 0
-987 -993 1206 0
-987 -994 1207 0
-988 -991 1205 0
-988 -992 1206 0
-988 -993 1207 0
-988 -994 1208 0
-989 -991 1206 0
-989 -992 1207 0
-989 -993 1208 0
-989 -994 1209 0
-990 -991 1207 0
-990 -992 1208 0
-990 -993 1209 0
-990 -994 1210 0
-999 1211 0
-1000 1212 0
-1001 1213 0
-1002 1214 0
-995 1211 0
-996 1212 0
-997 1213 0
-998 1214 0
-995 -999 1212 0
-995 -1000 1213 0
-995 -1001 1214 0
-995 -1002 1215 0
-996 -999 1213 0
-996 -1000 1214 0
-996 -1001 1215 0
-996 -1002 1216 0
-997 -999 1214 0
-997 -1000 1215 0
-997 -1001 1216 0
-997 -1002 1217 0
-998 -999 1215 0
-998 -1000 1216 0
-998 -1001 1217 0
-998 -1002 1218 0
-1007 1219 0
-1008 1220 0
-1009 1221 0
-1010 1222 0
-1003 1219 0
-1004 1220 0
-1005 1221 0
-1006 1222 0
-1003 -1007 1220 0
-1003 -1008 1221 0
-1003 -1009 1222 0
-1003 -1010 1223 0
-1004 -1007 1221 0
-1004 -1008 1222 0
-1004 -1009 1223 0
-1004 -1010 1224 0
-1005 -1007 1222 0
-1005 -1008 1223 0
-1005 -1009 1224 0
-1005 -1010 1225 0
-1006 -1007 1223 0
-1006 -1008 1224 0
-1006 -1009 1225 0
-1006 -1010 1226 0
-1015 1227 0
-1016 1228 0
-1017 1229 0
-1018 1230 0
-1011 1227 0
-1012 1228 0
-1013 1229 0
-1014 1230 0
-1011 -1015 1228 0
-1011 -1016 1229 0
-1011 -1017 1230 0
-1011 -1018 1231 0
-1012 -1015 1229 0
-1012 -1016 1230 0
-1012 -1017 1231 0
-1012 -1018 1232 0
-1013 -1015 1230 0
-1013 -1016 1231 0
-1013 -1017 1232 0
-1013 -1018 1233 0
-1014 -1015 1231 0
-1014 -1016 1232 0
-1014 -1017 1233 0
-1014 -1018 1234 0
-1023 1235 0
-1024 1236 0
-1025 1237 0
-1026 1238 0
-1019 1235 0
-1020 1236 0
-1021 1237 0
-1022 1238 0
-1019 -1023 1236 0
-1019 -1024 1237 0
-1019 -1025 1238 0
-1019 -1026 1239 0
-1020 -1023 1237 0
-1020 -1024 1238 0
-1020 -1025 1239 0
-1020 -1026 1240 0
-1021 -1023 1238 0
-1021 -1024 1239 0
-1021 -1025 1240 0
-1021 -1026 1241 0
-1022 -1023 1239 0
-1022 -1024 1240 0
-1022 -1025 1241 0
-1022 -1026 1242 0
-1031 1243 0
-1032 1244 0
-1033 1245 0
-1034 1246 0
-1027 1243 0
-1028 1244 0
-1029 1245 0
-1030 1246 0
-1027 -1031 1244 0
-1027 -1032 1245 0
-1027 -1033 1246 0
-1027 -1034 1247 0
-1028 -1031 1245 0
-1028 -1032 1246 0
-1028 -1033 1247 0
-1028 -1034 1248 0
-1029 -1031 1246 0
-1029 -1032 1247 0
-1029 -1033 1248 0
-1029 -1034 1249 0
-1030 -1031 1247 0
-1030 -1032 1248 0
-1030 -1033 1249 0
-1030 -1034 1250 0
-1039 1251 0
-1040 1252 0
-1041 1253 0
-1042 1254 0
-1035 1251 0
-1036 1252 0
-1037 1253 0
-1038 1254 0
-1035 -1039 1252 0
-1035 -1040 1253 0
-1035 -1041 1254 0
-1035 -1042 1255 0
-1036 -1039 1253 0
-1036 -1040 1254 0
-1036 -1041 1255 0
-1036 -1042 1256 0
-1037 -1039 1254 0
-1037 -1040 1255 0
-1037 -1041 1256 0
-1037 -1042 1257 0
-1038 -1039 1255 0
-1038 -1040 1256 0
-1038 -1041 1257 0
-1038 -1042 1258 0
-1047 1259 0
-1048 1260 0
-1049 1261 0
-1050 1262 0
-1043 1259 0
-1044 1260 0
-1045 1261 0
-1046 1262 0
-1043 -1047 1260 0
-1043 -1048 1261 0
-1043 -1049 1262 0
-1043 -1050 1263 0
-1044 -1047 1261 0
-1044 -1048 1262 0
-1044 -1049 1263 0
-1044 -1050 1264 0
-1045 -1047 1262 0
-1045 -1048 1263 0
-1045 -1049 1264 0
-1045 -1050 1265 0
-1046 -1047 1263 0
-1046 -1048 1264 0
-1046 -1049 1265 0
-1046 -1050 1266 0
-1055 1267 0
-1056 1268 0
-1057 1269 0
-1058 1270 0
-1051 1267 0
-1052 1268 0
-1053 1269 0
-1054 1270 0
-1051 -1055 1268 0
-1051 -1056 1269 0
-1051 -1057 1270 0
-1051 -1058 1271 0
-1052 -1055 1269 0
-1052 -1056 1270 0
-1052 -1057 1271 0
-1052 -1058 1272 0
-1053 -1055 1270 0
-1053 -1056 1271 0
-1053 -1057 1272 0
-1053 -1058 1273 0
-1054 -1055 1271 0
-1054 -1056 1272 0
-1054 -1057 1273 0
-1054 -1058 1274 0
-1063 1275 0
-1064 1276 0
-1065 1277 0
-1066 1278 0
-1059 1275 0
-1060 1276 0
-1061 1277 0
-1062 1278 0
-1059 -1063 1276 0
-1059 -1064 1277 0
-1059 -1065 1278 0
-1059 -1066 1279 0
-1060 -1063 1277 0
-1060 -1064 1278 0
-1060 -1065 1279 0
-1060 -1066 1280 0
-1061 -1063 1278 0
-1061 -1064 1279 0
-1061 -1065 1280 0
-1061 -1066 1281 0
-1062 -1063 1279 0
-1062 -1064 1280 0
-1062 -1065 1281 0
-1062 -1066 1282 0
-1071 1283 0
-1072 1284 0
-1073 1285 0
-1074 1286 0
-1067 1283 0
-1068 1284 0
-1069 1285 0
-1070 1286 0
-1067 -1071 1284 0
-1067 -1072 1285 0
-1067 -1073 1286 0
-1067 -1074 1287 0
-1068 -1071 1285 0
-1068 -1072 1286 0
-1068 -1073 1287 0
-1068 -1074 1288 0
-1069 -1071 1286 0
-1069 -1072 1287 0
-1069 -1073 1288 0
-1069 -1074 1289 0
-1070 -1071 1287 0
-1070 -1072 1288 0
-1070 -1073 1289 0
-1070 -1074 1290 0
-1079 1291 0
-1080 1292 0
-1081 1293 0
-1082 1294 0
-1075 1291 0
-1076 1292 0
-1077 1293 0
-1078 1294 0
-1075 -1079 1292 0
-1075 -1080 1293 0
-1075 -1081 1294 0
-1075 -1082 1295 0
-1076 -1079 1293 0
-1076 -1080 1294 0
-1076 -1081 1295 0
-1076 -1082 1296 0
-1077 -1079 1294 0
-1077 -1080 1295 0
-1077 -1081 1296 0
-1077 -1082 1297 0
-1078 -1079 1295 0
-1078 -1080 1296 0
-1078 -1081 1297 0
-1078 -1082 1298 0
-1087 1299 0
-1088 1300 0
-1089 1301 0
-1090 1302 0
-1083 1299 0
-1084 1300 0
-1085 1301 0
-1086 1302 0
-1083 -1087 1300 0
-1083 -1088 1301 0
-1083 -1089 1302 0
-1083 -1090 1303 0
-1084 -1087 1301 0
-1084 -1088 1302 0
-1084 -1089 1303 0
-1084 -1090 1304 0
-1085 -1087 1302 0
-1085 -1088 1303 0
-1085 -1089 1304 0
-1085 -1090 1305 0
-1086 -1087 1303 0
-1086 -1088 1304 0
-1086 -1089 1305 0
-1086 -1090 1306 0
-1095 1307 0
-1096 1308 0
-1097 1309 0
-1098 1310 0
-1091 1307 0
-1092 1308 0
-1093 1309 0
-1094 1310 0
-1091 -1095 1308 0
-1091 -1096 1309 0
-1091 -1097 1310 0
-1091 -1098 1311 0
-1092 -1095 1309 0
-1092 -1096 1310 0
-1092 -1097 1311 0
-1092 -1098 1312 0
-1093 -1095 1310 0
-1093 -1096 1311 0
-1093 -1097 1312 0
-1093 -1098 1313 0
-1094 -1095 1311 0
-1094 -1096 1312 0
-1094 -1097 1313 0
-1094 -1098 1314 0
-1103 1315 0
-1104 1316 0
-1105 1317 0
-1106 1318 0
-1099 1315 0
-1100 1316 0
-1101 1317 0
-1102 1318 0
-1099 -1103 1316 0
-1099 -1104 1317 0
-1099 -1105 1318 0
-1099 -1106 1319 0
-1100 -1103 1317 0
-1100 -1104 1318 0
-1100 -1105 1319 0
-1100 -1106 1320 0
-1101 -1103 1318 0
-1101 -1104 1319 0
-1101 -1105 1320 0
-1101 -1106 1321 0
-1102 -1103 1319 0
-1102 -1104 1320 0
-1102 -1105 1321 0
-1102 -1106 1322 0
-1111 1323 0
-1112 1324 0
-1113 1325 0
-1114 1326 0
-1107 1323 0
-1108 1324 0
-1109 1325 0
-1110 1326 0
-1107 -1111 1324 0
-1107 -1112 1325 0
-1107 -1113 1326 0
-1107 -1114 1327 0
-1108 -1111 1325 0
-1108 -1112 1326 0
-1108 -1113 1327 0
-1108 -1114 1328 0
-1109 -1111 1326 0
-1109 -1112 1327 0
-1109 -1113 1328 0
-1109 -1114 1329 0
-1110 -1111 1327 0
-1110 -1112 1328 0
-1110 -1113 1329 0
-1110 -1114 1330 0
-1119 1331 0
-1120 1332 0
-1121 1333 0
-1122 1334 0
-1115 1331 0
-1116 1332 0
-1117 1333 0
-1118 1334 0
-1115 -1119 1332 0
-1115 -1120 1333 0
-1115 -1121 1334 0
-1115 -1122 1335 0
-1116 -1119 1333 0
-1116 -1120 1334 0
-1116 -1121 1335 0
-1116 -1122 1336 0
-1117 -1119 1334 0
-1117 -1120 1335 0
-1117 -1121 1336 0
-1117 -1122 1337 0
-1118 -1119 1335 0
-1118 -1120 1336 0
-1118 -1121 1337 0
-1118 -1122 1338 0
-1127 1339 0
-1128 1340 0
-1129 1341 0
-1130 1342 0
-1123 1339 0
-1124 1340 0
-1125 1341 0
-1126 1342 0
-1123 -1127 1340 0
-1123 -1128 1341 0
-1123 -1129 1342 0
-1123 -1130 1343 0
-1124 -1127 1341 0
-1124 -1128 1342 0
-1124 -1129 1343 0
-1124 -1130 1344 0
-1125 -1127 1342 0
-1125 -1128 1343 0
-1125 -1129 1344 0
-1125 -1130 1345 0
-1126 -1127 1343 0
-1126 -1128 1344 0
-1126 -1129 1345 0
-1126 -1130 1346 0
-1135 1347 0
-1136 1348 0
-1137 1349 0
-1138 1350 0
-1131 1347 0
-1132 1348 0
-1133 1349 0
-1134 1350 0
-1131 -1135 1348 0
-1131 -1136 1349 0
-1131 -1137 1350 0
-1131 -1138 1351 0
-1132 -1135 1349 0
-1132 -1136 1350 0
-1132 -1137 1351 0
-1132 -1138 1352 0
-1133 -1135 1350 0
-1133 -1136 1351 0
-1133 -1137 1352 0
-1133 -1138 1353 0
-1134 -1135 1351 0
-1134 -1136 1352 0
-1134 -1137 1353 0
-1134 -1138 1354 0
-1143 1355 0
-1144 1356 0
-1145 1357 0
-1146 1358 0
-1139 1355 0
-1140 1356 0
-1141 1357 0
-1142 1358 0
-1139 -1143 1356 0
-1139 -1144 1357 0
-1139 -1145 1358 0
-1139 -1146 1359 0
-1140 -1143 1357 0
-1140 -1144 1358 0
-1140 -1145 1359 0
-1140 -1146 1360 0
-1141 -1143 1358 0
-1141 -1144 1359 0
-1141 -1145 1360 0
-1141 -1146 1361 0
-1142 -1143 1359 0
-1142 -1144 1360 0
-1142 -1145 1361 0
-1142 -1146 1362 0
-1151 1363 0
-1152 1364 0
-1153 1365 0
-1154 1366 0
-1147 1363 0
-1148 1364 0
-1149 1365 0
-1150 1366 0
-1147 -1151 1364 0
-1147 -1152 1365 0
-1147 -1153 1366 0
-1147 -1154 1367 0
-1148 -1151 1365 0
-1148 -1152 1366 0
-1148 -1153 1367 0
-1148 -1154 1368 0
-1149 -1151 1366 0
-1149 -1152 1367 0
-1149 -1153 1368 0
-1149 -1154 1369 0
-1150 -1151 1367 0
-1150 -1152 1368 0
-1150 -1153 1369 0
-1150 -1154 1370 0
-1159 1371 0
-1160 1372 0
-1161 1373 0
-1162 1374 0
-1155 1371 0
-1156 1372 0
-1157 1373 0
-1158 1374 0
-1155 -1159 1372 0
-1155 -1160 1373 0
-1155 -1161 1374 0
-1155 -1162 1375 0
-1156 -1159 1373 0
-1156 -1160 1374 0
-1156 -1161 1375 0
-1156 -1162 1376 0
-1157 -1159 1374 0
-1157 -1160 1375 0
-1157 -1161 1376 0
-1157 -1162 1377 0
-1158 -1159 1375 0
-1158 -1160 1376 0
-1158 -1161 1377 0
-1158 -1162 1378 0
-1167 1379 0
-1168 1380 0
-1169 1381 0
-1170 1382 0
-1163 1379 0
-1164 1380 0
-1165 1381 0
-1166 1382 0
-1163 -1167 1380 0
-1163 -1168 1381 0
-1163 -1169 1382 0
-1163 -1170 1383 0
-1164 -1167 1381 0
-1164 -1168 1382 0
-1164 -1169 1383 0
-1164 -1170 1384 0
-1165 -1167 1382 0
-1165 -1168 1383 0
-1165 -1169 1384 0
-1165 -1170 1385 0
-1166 -1167 1383 0
-1166 -1168 1384 0
-1166 -1169 1385 0
-1166 -1170 1386 0
-1175 1387 0
-1176 1388 0
-1177 1389 0
-1178 1390 0
-1171 1387 0
-1172 1388 0
-1173 1389 0
-1174 1390 0
-1171 -1175 1388 0
-1171 -1176 1389 0
-1171 -1177 1390 0
-1171 -1178 1391 0
-1172 -1175 1389 0
-1172 -1176 1390 0
-1172 -1177 1391 0
-1172 -1178 1392 0
-1173 -1175 1390 0
-1173 -1176 1391 0
-1173 -1177 1392 0
-1173 -1178 1393 0
-1174 -1175 1391 0
-1174 -1176 1392 0
-1174 -1177 1393 0
-1174 -1178 1394 0
-1183 1395 0
-1184 1396 0
-1185 1397 0
-1186 1398 0
-1179 1395 0
-1180 1396 0
-1181 1397 0
-1182 1398 0
-1179 -1183 1396 0
-1179 -1184 1397 0
-1179 -1185 1398 0
-1179 -1186 1399 0
-1180 -1183 1397 0
-1180 -1184 1398 0
-1180 -1185 1399 0
-1180 -1186 1400 0
-1181 -1183 1398 0
-1181 -1184 1399 0
-1181 -1185 1400 0
-1181 -1186 1401 0
-1182 -1183 1399 0
-1182 -1184 1400 0
-1182 -1185 1401 0
-1182 -1186 1402 0
-1195 1403 0
-1196 1404 0
-1197 1405 0
-1198 1406 0
-1199 1407 0
-1200 1408 0
-1201 1409 0
-1202 1410 0
-1187 1403 0
-1188 1404 0
-1189 1405 0
-1190 1406 0
-1191 1407 0
-1192 1408 0
-1193 1409 0
-1194 1410 0
-1187 -1195 1404 0
-1187 -1196 1405 0
-1187 -1197 1406 0
-1187 -1198 1407 0
-1187 -1199 1408 0
-1187 -1200 1409 0
-1187 -1201 1410 0
-1187 -1202 1411 0
-1188 -1195 1405 0
-1188 -1196 1406 0
-1188 -1197 1407 0
-1188 -1198 1408 0
-1188 -1199 1409 0
-1188 -1200 1410 0
-1188 -1201 1411 0
-1188 -1202 1412 0
-1189 -1195 1406 0
-1189 -1196 1407 0
-1189 -1197 1408 0
-1189 -1198 1409 0
-1189 -1199 1410 0
-1189 -1200 1411 0
-1189 -1201 1412 0
-1189 -1202 1413 0
-1190 -1195 1407 0
-1190 -1196 1408 0
-1190 -1197 1409 0
-1190 -1198 1410 0
-1190 -1199 1411 0
-1190 -1200 1412 0
-1190 -1201 1413 0
-1190 -1202 1414 0
-1191 -1195 1408 0
-1191 -1196 1409 0
-1191 -1197 1410 0
-1191 -1198 1411 0
-1191 -1199 1412 0
-1191 -1200 1413 0
-1191 -1201 1414 0
-1191 -1202 1415 0
-1192 -1195 1409 0
-1192 -1196 1410 0
-1192 -1197 1411 0
-1192 -1198 1412 0
-1192 -1199 1413 0
-1192 -1200 1414 0
-1192 -1201 1415 0
-1192 -1202 1416 0
-1193 -1195 1410 0
-1193 -1196 1411 0
-1193 -1197 1412 0
-1193 -1198 1413 0
-1193 -1199 1414 0
-1193 -1200 1415 0
-1193 -1201 1416 0
-1193 -1202 1417 0
-1194 -1195 1411 0
-1194 -1196 1412 0
-1194 -1197 1413 0
-1194 -1198 1414 0
-1194 -1199 1415 0
-1194 -1200 1416 0
-1194 -1201 1417 0
-1194 -1202 1418 0
-1211 1419 0
-1212 1420 0
-1213 1421 0
-1214 1422 0
-1215 1423 0
-1216 1424 0
-1217 1425 0
-1218 1426 0
-1203 1419 0
-1204 1420 0
-1205 1421 0
-1206 1422 0
-1207 1423 0
-1208 1424 0
-1209 1425 0
-1210 1426 0
-1203 -1211 1420 0
-1203 -1212 1421 0
-1203 -1213 1422 0
-1203 -1214 1423 0
-1203 -1215 1424 0
-1203 -1216 1425 0
-1203 -1217 1426 0
-1203 -1218 1427 0
-1204 -1211 1421 0
-1204 -1212 1422 0
-1204 -1213 1423 0
-1204 -1214 1424 0
-1204 -1215 1425 0
-1204 -1216 1426 0
-1204 -1217 1427 0
-1204 -1218 1428 0
-1205 -1211 1422 0
-1205 -1212 1423 0
-1205 -1213 1424 0
-1205 -1214 1425 0
-1205 -1215 1426 0
-1205 -1216 1427 0
-1205 -1217 1428 0
-1205 -1218 1429 0
-1206 -1211 1423 0
-1206 -1212 1424 0
-1206 -1213 1425 0
-1206 -1214 1426 0
-1206 -1215 1427 0
-1206 -1216 1428 0
-1206 -1217 1429 0
-1206 -1218 1430 0
-1207 -1211 1424 0
-1207 -1212 1425 0
-1207 -1213 1426 0
-1207 -1214 1427 0
-1207 -1215 1428 0
-1207 -1216 1429 0
-1207 -1217 1430 0
-1207 -1218 1431 0
-1208 -1211 1425 0
-1208 -1212 1426 0
-1208 -1213 1427 0
-1208 -1214 1428 0
-1208 -1215 1429 0
-1208 -1216 1430 0
-1208 -1217 1431 0
-1208 -1218 1432 0
-1209 -1211 1426 0
-1209 -1212 1427 0
-1209 -1213 1428 0
-1209 -1214 1429 0
-1209 -1215 1430 0
-1209 -1216 1431 0
-1209 -1217 1432 0
-1209 -1218 1433 0
-1210 -1211 1427 0
-1210 -1212 1428 0
-1210 -1213 1429 0
-1210 -1214 1430 0
-1210 -1215 1431 0
-1210 -1216 1432 0
-1210 -1217 1433 0
-1210 -1218 1434 0
-1227 1435 0
-1228 1436 0
-1229 1437 0
-1230 1438 0
-1231 1439 0
-1232 1440 0
-1233 1441 0
-1234 1442 0
-1219 1435 0
-1220 1436 0
-1221 1437 0
-1222 1438 0
-1223 1439 0
-1224 1440 0
-1225 1441 0
-1226 1442 0
-1219 -1227 1436 0
-1219 -1228 1437 0
-1219 -1229 1438 0
-1219 -1230 1439 0
-1219 -1231 1440 0
-1219 -1232 1441 0
-1219 -1233 1442 0
-1219 -1234 1443 0
-1220 -1227 1437 0
-1220 -1228 1438 0
-1220 -1229 1439 0
-1220 -1230 1440 0
-1220 -1231 1441 0
-1220 -1232 1442 0
-1220 -1233 1443 0
-1220 -1234 1444 0
-1221 -1227 1438 0
-1221 -1228 1439 0
-1221 -1229 1440 0
-1221 -1230 1441 0
-1221 -1231 1442 0
-1221 -1232 1443 0
-1221 -1233 1444 0
-1221 -1234 1445 0
-1222 -1227 1439 0
-1222 -1228 1440 0
-1222 -1229 1441 0
-1222 -1230 1442 0
-1222 -1231 1443 0
-1222 -1232 1444 0
-1222 -1233 1445 0
-1222 -1234 1446 0
-1223 -1227 1440 0
-1223 -1228 1441 0
-1223 -1229 1442 0
-1223 -1230 1443 0
-1223 -1231 1444 0
-1223 -1232 1445 0
-1223 -1233 1446 0
-1223 -1234 1447 0
-1224 -1227 1441 0
-1224 -1228 1442 0
-1224 -1229 1443 0
-1224 -1230 1444 0
-1224 -1231 1445 0
-1224 -1232 1446 0
-1224 -1233 1447 0
-1224 -1234 1448 0
-1225 -1227 1442 0
-1225 -1228 1443 0
-1225 -1229 1444 0
-1225 -1230 1445 0
-1225 -1231 1446 0
-1225 -1232 1447 0
-1225 -1233 1448 0
-1225 -1234 1449 0
-1226 -1227 1443 0
-1226 -1228 1444 0
-1226 -1229 1445 0
-1226 -1230 1446 0
-1226 -1231 1447 0
-1226 -1232 1448 0
-1226 -1233 1449 0
-1226 -1234 1450 0
-1243 1451 0
-1244 1452 0
-1245 1453 0
-1246 1454 0
-1247 1455 0
-1248 1456 0
-1249 1457 0
-1250 1458 0
-1235 1451 0
-1236 1452 0
-1237 1453 0
-1238 1454 0
-1239 1455 0
-1240 1456 0
-1241 1457 0
-1242 1458 0
-1235 -1243 1452 0
-1235 -1244 1453 0
-1235 -1245 1454 0
-1235 -1246 1455 0
-1235 -1247 1456 0
-1235 -1248 1457 0
-1235 -1249 1458 0
-1235 -1250 1459 0
-1236 -1243 1453 0
-1236 -1244 1454 0
-1236 -1245 1455 0
-1236 -1246 1456 0
-1236 -1247 1457 0
-1236 -1248 1458 0
-1236 -1249 1459 0
-1236 -1250 1460 0
-1237 -1243 1454 0
-1237 -1244 1455 0
-1237 -1245 1456 0
-1237 -1246 1457 0
-1237 -1247 1458 0
-1237 -1248 1459 0
-1237 -1249 1460 0
-1237 -1250 1461 0
-1238 -1243 1455 0
-1238 -1244 1456 0
-1238 -1245 1457 0
-1238 -1246 1458 0
-1238 -1247 1459 0
-1238 -1248 1460 0
-1238 -1249 1461 0
-1238 -1250 1462 0
-1239 -1243 1456 0
-1239 -1244 1457 0
-1239 -1245 1458 0
-1239 -1246 1459 0
-1239 -1247 1460 0
-1239 -1248 1461 0
-1239 -1249 1462 0
-1239 -1250 1463 0
-1240 -1243 1457 0
-1240 -1244 1458 0
-1240 -1245 1459 0
-1240 -1246 1460 0
-1240 -1247 1461 0
-1240 -1248 1462 0
-1240 -1249 1463 0
-1240 -1250 1464 0
-1241 -1243 1458 0
-1241 -1244 1459 0
-1241 -1245 1460 0
-1241 -1246 1461 0
-1241 -1247 1462 0
-1241 -1248 1463 0
-1241 -1249 1464 0
-1241 -1250 1465 0
-1242 -1243 1459 0
-1242 -1244 1460 0
-1242 -1245 1461 0
-1242 -1246 1462 0
-1242 -1247 1463 0
-1242 -1248 1464 0
-1242 -1249 1465 0
-1242 -1250 1466 0
-1259 1467 0
-1260 1468 0
-1261 1469 0
-1262 1470 0
-1263 1471 0
-1264 1472 0
-1265 1473 0
-1266 1474 0
-1251 1467 0
-1252 1468 0
-1253 1469 0
-1254 1470 0
-1255 1471 0
-1256 1472 0
-1257 1473 0
-1258 1474 0
-1251 -1259 1468 0
-1251 -1260 1469 0
-1251 -1261 1470 0
-1251 -1262 1471 0
-1251 -1263 1472 0
-1251 -1264 1473 0
-1251 -1265 1474 0
-1251 -1266 1475 0
-1252 -1259 1469 0
-1252 -1260 1470 0
-1252 -1261 1471 0
-1252 -1262 1472 0
-1252 -1263 1473 0
-1252 -1264 1474 0
-1252 -1265 1475 0
-1252 -1266 1476 0
-1253 -1259 1470 0
-1253 -1260 1471 0
-1253 -1261 1472 0
-1253 -1262 1473 0
-1253 -1263 1474 0
-1253 -1264 1475 0
-1253 -1265 1476 0
-1253 -1266 1477 0
-1254 -1259 1471 0
-1254 -1260 1472 0
-1254 -1261 1473 0
-1254 -1262 1474 0
-1254 -1263 1475 0
-1254 -1264 1476 0
-1254 -1265 1477 0
-1254 -1266 1478 0
-1255 -1259 1472 0
-1255 -1260 1473 0
-1255 -1261 1474 0
-1255 -1262 1475 0
-1255 -1263 1476 0
-1255 -1264 1477 0
-1255 -1265 1478 0
-1255 -1266 1479 0
-1256 -1259 1473 0
-1256 -1260 1474 0
-1256 -1261 1475 0
-1256 -1262 1476 0
-1256 -1263 1477 0
-1256 -1264 1478 0
-1256 -1265 1479 0
-1256 -1266 1480 0
-1257 -1259 1474 0
-1257 -1260 1475 0
-1257 -1261 1476 0
-1257 -1262 1477 0
-1257 -1263 1478 0
-1257 -1264 1479 0
-1257 -1265 1480 0
-1257 -1266 1481 0
-1258 -1259 1475 0
-1258 -1260 1476 0
-1258 -1261 1477 0
-1258 -1262 1478 0
-1258 -1263 1479 0
-1258 -1264 1480 0
-1258 -1265 1481 0
-1258 -1266 1482 0
-1275 1483 0
-1276 1484 0
-1277 1485 0
-1278 1486 0
-1279 1487 0
-1280 1488 0
-1281 1489 0
-1282 1490 0
-1267 1483 0
-1268 1484 0
-1269 1485 0
-1270 1486 0
-1271 1487 0
-1272 1488 0
-1273 1489 0
-1274 1490 0
-1267 -1275 1484 0
-1267 -1276 1485 0
-1267 -1277 1486 0
-1267 -1278 1487 0
-1267 -1279 1488 0
-1267 -1280 1489 0
-1267 -1281 1490 0
-1267 -1282 1491 0
-1268 -1275 1485 0
-1268 -1276 1486 0
-1268 -1277 1487 0
-1268 -1278 1488 0
-1268 -1279 1489 0
-1268 -1280 1490 0
-1268 -1281 1491 0
-1268 -1282 1492 0
-1269 -1275 1486 0
-1269 -1276 1487 0
-1269 -1277 1488 0
-1269 -1278 1489 0
-1269 -1279 1490 0
-1269 -1280 1491 0
-1269 -1281 1492 0
-1269 -1282 1493 0
-1270 -1275 1487 0
-1270 -1276 1488 0
-1270 -1277 1489 0
-1270 -1278 1490 0
-1270 -1279 1491 0
-1270 -1280 1492 0
-1270 -1281 1493 0
-1270 -1282 1494 0
-1271 -1275 1488 0
-1271 -1276 1489 0
-1271 -1277 1490 0
-1271 -1278 1491 0
-1271 -1279 1492 0
-1271 -1280 1493 0
-1271 -1281 1494 0
-1271 -1282 1495 0
-1272 -1275 1489 0
-1272 -1276 1490 0
-1272 -1277 1491 0
-1272 -1278 1492 0
-1272 -1279 1493 0
-1272 -1280 1494 0
-1272 -1281 1495 0
-1272 -1282 1496 0
-1273 -1275 1490 0
-1273 -1276 1491 0
-1273 -1277 1492 0
-1273 -1278 1493 0
-1273 -1279 1494 0
-1273 -1280 1495 0
-1273 -1281 1496 0
-1273 -1282 1497 0
-1274 -1275 1491 0
-1274 -1276 1492 0
-1274 -1277 1493 0
-1274 -1278 1494 0
-1274 -1279 1495 0
-1274 -1280 1496 0
-1274 -1281 1497 0
-1274 -1282 1498 0
-1291 1499 0
-1292 1500 0
-1293 1501 0
-1294 1502 0
-1295 1503 0
-1296 1504 0
-1297 1505 0
-1298 1506 0
-1283 1499 0
-1284 1500 0
-1285 1501 0
-1286 1502 0
-1287 1503 0
-1288 1504 0
-1289 1505 0
-1290 1506 0
-1283 -1291 1500 0
-1283 -1292 1501 0
-1283 -1293 1502 0
-1283 -1294 1503 0
-1283 -1295 1504 0
-1283 -1296 1505 0
-1283 -1297 1506 0
-1283 -1298 1507 0
-1284 -1291 1501 0
-1284 -1292 1502 0
-1284 -1293 1503 0
-1284 -1294 1504 0
-1284 -1295 1505 0
-1284 -1296 1506 0
-1284 -1297 1507 0
-1284 -1298 1508 0
-1285 -1291 1502 0
-1285 -1292 1503 0
-1285 -1293 1504 0
-1285 -1294 1505 0
-1285 -1295 1506 0
-1285 -1296 1507 0
-1285 -1297 1508 0
-1285 -1298 1509 0
-1286 -1291 1503 0
-1286 -1292 1504 0
-1286 -1293 1505 0
-1286 -1294 1506 0
-1286 -1295 1507 0
-1286 -1296 1508 0
-1286 -1297 1509 0
-1286 -1298 1510 0
-1287 -1291 1504 0
-1287 -1292 1505 0
-1287 -1293 1506 0
-1287 -1294 1507 0
-1287 -1295 1508 0
-1287 -1296 1509 0
-1287 -1297 1510 0
-1287 -1298 1511 0
-1288 -1291 1505 0
-1288 -1292 1506 0
-1288 -1293 1507 0
-1288 -1294 1508 0
-1288 -1295 1509 0
-1288 -1296 1510 0
-1288 -1297 1511 0
-1288 -1298 1512 0
-1289 -1291 1506 0
-1289 -1292 1507 0
-1289 -1293 1508 0
-1289 -1294 1509 0
-1289 -1295 1510 0
-1289 -1296 1511 0
-1289 -1297 1512 0
-1289 -1298 1513 0
-1290 -1291 1507 0
-1290 -1292 1508 0
-1290 -1293 1509 0
-1290 -1294 1510 0
-1290 -1295 1511 0
-1290 -1296 1512 0
-1290 -1297 1513 0
-1290 -1298 1514 0
-1307 1515 0
-1308 1516 0
-1309 1517 0
-1310 1518 0
-1311 1519 0
-1312 1520 0
-1313 1521 0
-1314 1522 0
-1299 1515 0
-1300 1516 0
-1301 1517 0
-1302 1518 0
-1303 1519 0
-1304 1520 0
-1305 1521 0
-1306 1522 0
-1299 -1307 1516 0
-1299 -1308 1517 0
-1299 -1309 1518 0
-1299 -1310 1519 0
-1299 -1311 1520 0
-1299 -1312 1521 0
-1299 -1313 1522 0
-1299 -1314 1523 0
-1300 -1307 1517 0
-1300 -1308 1518 0
-1300 -1309 1519 0
-1300 -1310 1520 0
-1300 -1311 1521 0
-1300 -1312 1522 0
-1300 -1313 1523 0
-1300 -1314 1524 0
-1301 -1307 1518 0
-1301 -1308 1519 0
-1301 -1309 1520 0
-1301 -1310 1521 0
-1301 -1311 1522 0
-1301 -1312 1523 0
-1301 -1313 1524 0
-1301 -1314 1525 0
-1302 -1307 1519 0
-1302 -1308 1520 0
-1302 -1309 1521 0
-1302 -1310 1522 0
-1302 -1311 1523 0
-1302 -1312 1524 0
-1302 -1313 1525 0
-1302 -1314 1526 0
-1303 -1307 1520 0
-1303 -1308 1521 0
-1303 -1309 1522 0
-1303 -1310 1523 0
-1303 -1311 1524 0
-1303 -1312 1525 0
-1303 -1313 1526 0
-1303 -1314 1527 0
-1304 -1307 1521 0
-1304 -1308 1522 0
-1304 -1309 1523 0
-1304 -1310 1524 0
-1304 -1311 1525 0
-1304 -1312 1526 0
-1304 -1313 1527 0
-1304 -1314 1528 0
-1305 -1307 1522 0
-1305 -1308 1523 0
-1305 -1309 1524 0
-1305 -1310 1525 0
-1305 -1311 1526 0
-1305 -1312 1527 0
-1305 -1313 1528 0
-1305 -1314 1529 0
-1306 -1307 1523 0
-1306 -1308 1524 0
-1306 -1309 1525 0
-1306 -1310 1526 0
-1306 -1311 1527 0
-1306 -1312 1528 0
-1306 -1313 1529 0
-1306 -1314 1530 0
-1323 1531 0
-1324 1532 0
-1325 1533 0
-1326 1534 0
-1327 1535 0
-1328 1536 0
-1329 1537 0
-1330 1538 0
-1315 1531 0
-1316 1532 0
-1317 1533 0
-1318 1534 0
-1319 1535 0
-1320 1536 0
-1321 1537 0
-1322 1538 0
-1315 -1323 1532 0
-1315 -1324 1533 0
-1315 -1325 1534 0
-1315 -1326 1535 0
-1315 -1327 1536 0
-1315 -1328 1537 0
-1315 -1329 1538 0
-1315 -1330 1539 0
-1316 -1323 1533 0
-1316 -1324 1534 0
-1316 -1325 1535 0
-1316 -1326 1536 0
-1316 -1327 1537 0
-1316 -1328 1538 0
-1316 -1329 1539 0
-1316 -1330 1540 0
-1317 -1323 1534 0
-1317 -1324 1535 0
-1317 -1325 1536 0
-1317 -1326 1537 0
-1317 -1327 1538 0
-1317 -1328 1539 0
-1317 -1329 1540 0
-1317 -1330 1541 0
-1318 -1323 1535 0
-1318 -1324 1536 0
-1318 -1325 1537 0
-1318 -1326 1538 0
-1318 -1327 1539 0
-1318 -1328 1540 0
-1318 -1329 1541 0
-1318 -1330 1542 0
-1319 -1323 1536 0
-1319 -1324 1537 0
-1319 -1325 1538 0
-1319 -1326 1539 0
-1319 -1327 1540 0
-1319 -1328 1541 0
-1319 -1329 1542 0
-1319 -1330 1543 0
-1320 -1323 1537 0
-1320 -1324 1538 0
-1320 -1325 1539 0
-1320 -1326 1540 0
-1320 -1327 1541 0
-1320 -1328 1542 0
-1320 -1329 1543 0
-1320 -1330 1544 0
-1321 -1323 1538 0
-1321 -1324 1539 0
-1321 -1325 1540 0
-1321 -1326 1541 0
-1321 -1327 1542 0
-1321 -1328 1543 0
-1321 -1329 1544 0
-1321 -1330 1545 0
-1322 -1323 1539 0
-1322 -1324 1540 0
-1322 -1325 1541 0
-1322 -1326 1542 0
-1322 -1327 1543 0
-1322 -1328 1544 0
-1322 -1329 1545 0
-1322 -1330 1546 0
-1339 1547 0
-1340 1548 0
-1341 1549 0
-1342 1550 0
-1343 1551 0
-1344 1552 0
-1345 1553 0
-1346 1554 0
-1331 1547 0
-1332 1548 0
-1333 1549 0
-1334 1550 0
-1335 1551 0
-1336 1552 0
-1337 1553 0
-1338 1554 0
-1331 -1339 1548 0
-1331 -1340 1549 0
-1331 -1341 1550 0
-1331 -1342 1551 0
-1331 -1343 1552 0
-1331 -1344 1553 0
-1331 -1345 1554 0
-1331 -1346 1555 0
-1332 -1339 1549 0
-1332 -1340 1550 0
-1332 -1341 1551 0
-1332 -1342 1552 0
-1332 -1343 1553 0
-1332 -1344 1554 0
-1332 -1345 1555 0
-1332 -1346 1556 0
-1333 -1339 1550 0
-1333 -1340 1551 0
-1333 -1341 1552 0
-1333 -1342 1553 0
-1333 -1343 1554 0
-1333 -1344 1555 0
-1333 -1345 1556 0
-1333 -1346 1557 0
-1334 -1339 1551 0
-1334 -1340 1552 0
-1334 -1341 1553 0
-1334 -1342 1554 0
-1334 -1343 1555 0
-1334 -1344 1556 0
-1334 -1345 1557 0
-1334 -1346 1558 0
-1335 -1339 1552 0
-1335 -1340 1553 0
-1335 -1341 1554 0
-1335 -1342 1555 0
-1335 -1343 1556 0
-1335 -1344 1557 0
-1335 -1345 1558 0
-1335 -1346 1559 0
-1336 -1339 1553 0
-1336 -1340 1554 0
-1336 -1341 1555 0
-1336 -1342 1556 0
-1336 -1343 1557 0
-1336 -1344 1558 0
-1336 -1345 1559 0
-1336 -1346 1560 0
-1337 -1339 1554 0
-1337 -1340 1555 0
-1337 -1341 1556 0
-1337 -1342 1557 0
-1337 -1343 1558 0
-1337 -1344 1559 0
-1337 -1345 1560 0
-1337 -1346 1561 0
-1338 -1339 1555 0
-1338 -1340 1556 0
-1338 -1341 1557 0
-1338 -1342 1558 0
-1338 -1343 1559 0
-1338 -1344 1560 0
-1338 -1345 1561 0
-1338 -1346 1562 0
-1355 1563 0
-1356 1564 0
-1357 1565 0
-1358 1566 0
-1359 1567 0
-1360 1568 0
-1361 1569 0
-1362 1570 0
-1347 1563 0
-1348 1564 0
-1349 1565 0
-1350 1566 0
-1351 1567 0
-1352 1568 0
-1353 1569 0
-1354 1570 0
-1347 -1355 1564 0
-1347 -1356 1565 0
-1347 -1357 1566 0
-1347 -1358 1567 0
-1347 -1359 1568 0
-1347 -1360 1569 0
-1347 -1361 1570 0
-1347 -1362 1571 0
-1348 -1355 1565 0
-1348 -1356 1566 0
-1348 -1357 1567 0
-1348 -1358 1568 0
-1348 -1359 1569 0
-1348 -1360 1570 0
-1348 -1361 1571 0
-1348 -1362 1572 0
-1349 -1355 1566 0
-1349 -1356 1567 0
-1349 -1357 1568 0
-1349 -1358 1569 0
-1349 -1359 1570 0
-1349 -1360 1571 0
-1349 -1361 1572 0
-1349 -1362 1573 0
-1350 -1355 1567 0
-1350 -1356 1568 0
-1350 -1357 1569 0
-1350 -1358 1570 0
-1350 -1359 1571 0
-1350 -1360 1572 0
-1350 -1361 1573 0
-1350 -1362 1574 0
-1351 -1355 1568 0
-1351 -1356 1569 0
-1351 -1357 1570 0
-1351 -1358 1571 0
-1351 -1359 1572 0
-1351 -1360 1573 0
-1351 -1361 1574 0
-1351 -1362 1575 0
-1352 -1355 1569 0
-1352 -1356 1570 0
-1352 -1357 1571 0
-1352 -1358 1572 0
-1352 -1359 1573 0
-1352 -1360 1574 0
-1352 -1361 1575 0
-1352 -1362 1576 0
-1353 -1355 1570 0
-1353 -1356 1571 0
-1353 -1357 1572 0
-1353 -1358 1573 0
-1353 -1359 1574 0
-1353 -1360 1575 0
-1353 -1361 1576 0
-1353 -1362 1577 0
-1354 -1355 1571 0
-1354 -1356 1572 0
-1354 -1357 1573 0
-1354 -1358 1574 0
-1354 -1359 1575 0
-1354 -1360 1576 0
-1354 -1361 1577 0
-1354 -1362 1578 0
-1371 1579 0
-1372 1580 0
-1373 1581 0
-1374 1582 0
-1375 1583 0
-1376 1584 0
-1377 1585 0
-1378 1586 0
-1363 1579 0
-1364 1580 0
-1365 1581 0
-1366 1582 0
-1367 1583 0
-1368 1584 0
-1369 1585 0
-1370 1586 0
-1363 -1371 1580 0
-1363 -1372 1581 0
-1363 -1373 1582 0
-1363 -1374 1583 0
-1363 -1375 1584 0
-1363 -1376 1585 0
-1363 -1377 1586 0
-1363 -1378 1587 0
-1364 -1371 1581 0
-1364 -1372 1582 0
-1364 -1373 1583 0
-1364 -1374 1584 0
-1364 -1375 1585 0
-1364 -1376 1586 0
-1364 -1377 1587 0
-1364 -1378 1588 0
-1365 -1371 1582 0
-1365 -1372 1583 0
-1365 -1373 1584 0
-1365 -1374 1585 0
-1365 -1375 1586 0
-1365 -1376 1587 0
-1365 -1377 1588 0
-1365 -1378 1589 0
-1366 -1371 1583 0
-1366 -1372 1584 0
-1366 -1373 1585 0
-1366 -1374 1586 0
-1366 -1375 1587 0
-1366 -1376 1588 0
-1366 -1377 1589 0
-1366 -1378 1590 0
-1367 -1371 1584 0
-1367 -1372 1585 0
-1367 -1373 1586 0
-1367 -1374 1587 0
-1367 -1375 1588 0
-1367 -1376 1589 0
-1367 -1377 1590 0
-1367 -1378 1591 0
-1368 -1371 1585 0
-1368 -1372 1586 0
-1368 -1373 1587 0
-1368 -1374 1588 0
-1368 -1375 1589 0
-1368 -1376 1590 0
-1368 -1377 1591 0
-1368 -1378 1592 0
-1369 -1371 1586 0
-1369 -1372 1587 0
-1369 -1373 1588 0
-1369 -1374 1589 0
-1369 -1375 1590 0
-1369 -1376 1591 0
-1369 -1377 1592 0
-1369 -1378 1593 0
-1370 -1371 1587 0
-1370 -1372 1588 0
-1370 -1373 1589 0
-1370 -1374 1590 0
-1370 -1375 1591 0
-1370 -1376 1592 0
-1370 -1377 1593 0
-1370 -1378 1594 0
-1387 1595 0
-1388 1596 0
-1389 1597 0
-1390 1598 0
-1391 1599 0
-1392 1600 0
-1393 1601 0
-1394 1602 0
-1379 1595 0
-1380 1596 0
-1381 1597 0
-1382 1598 0
-1383 1599 0
-1384 1600 0
-1385 1601 0
-1386 1602 0
-1379 -1387 1596 0
-1379 -1388 1597 0
-1379 -1389 1598 0
-1379 -1390 1599 0
-1379 -1391 1600 0
-1379 -1392 1601 0
-1379 -1393 1602 0
-1379 -1394 1603 0
-1380 -1387 1597 0
-1380 -1388 1598 0
-1380 -1389 1599 0
-1380 -1390 1600 0
-1380 -1391 1601 0
-1380 -1392 1602 0
-1380 -1393 1603 0
-1380 -1394 1604 0
-1381 -1387 1598 0
-1381 -1388 1599 0
-1381 -1389 1600 0
-1381 -1390 1601 0
-1381 -1391 1602 0
-1381 -1392 1603 0
-1381 -1393 1604 0
-1381 -1394 1605 0
-1382 -1387 1599 0
-1382 -1388 1600 0
-1382 -1389 1601 0
-1382 -1390 1602 0
-1382 -1391 1603 0
-1382 -1392 1604 0
-1382 -1393 1605 0
-1382 -1394 1606 0
-1383 -1387 1600 0
-1383 -1388 1601 0
-1383 -1389 1602 0
-1383 -1390 1603 0
-1383 -1391 1604 0
-1383 -1392 1605 0
-1383 -1393 1606 0
-1383 -1394 1607 0
-1384 -1387 1601 0
-1384 -1388 1602 0
-1384 -1389 1603 0
-1384 -1390 1604 0
-1384 -1391 1605 0
-1384 -1392 1606 0
-1384 -1393 1607 0
-1384 -1394 1608 0
-1385 -1387 1602 0
-1385 -1388 1603 0
-1385 -1389 1604 0
-1385 -1390 1605 0
-1385 -1391 1606 0
-1385 -1392 1607 0
-1385 -1393 1608 0
-1385 -1394 1609 0
-1386 -1387 1603 0
-1386 -1388 1604 0
-1386 -1389 1605 0
-1386 -1390 1606 0
-1386 -1391 1607 0
-1386 -1392 1608 0
-1386 -1393 1609 0
-1386 -1394 1610 0
-1403 1611 0
-1404 1612 0
-1405 1613 0
-1406 1614 0
-1407 1615 0
-1408 1616 0
-1409 1617 0
-1410 1618 0
-1411 1619 0
-1412 1620 0
-1413 1621 0
-1414 1622 0
-1415 1623 0
-1416 1624 0
-1417 1625 0
-1418 1626 0
-1395 1611 0
-1396 1612 0
-1397 1613 0
-1398 1614 0
-1399 1615 0
-1400 1616 0
-1401 1617 0
-1402 1618 0
-1395 -1403 1612 0
-1395 -1404 1613 0
-1395 -1405 1614 0
-1395 -1406 1615 0
-1395 -1407 1616 0
-1395 -1408 1617 0
-1395 -1409 1618 0
-1395 -1410 1619 0
-1395 -1411 1620 0
-1395 -1412 1621 0
-1395 -1413 1622 0
-1395 -1414 1623 0
-1395 -1415 1624 0
-1395 -1416 1625 0
-1395 -1417 1626 0
-1395 -1418 1627 0
-1396 -1403 1613 0
-1396 -1404 1614 0
-1396 -1405 1615 0
-1396 -1406 1616 0
-1396 -1407 1617 0
-1396 -1408 1618 0
-1396 -1409 1619 0
-1396 -1410 1620 0
-1396 -1411 1621 0
-1396 -1412 1622 0
-1396 -1413 1623 0
-1396 -1414 1624 0
-1396 -1415 1625 0
-1396 -1416 1626 0
-1396 -1417 1627 0
-1396 -1418 1628 0
-1397 -1403 1614 0
-1397 -1404 1615 0
-1397 -1405 1616 0
-1397 -1406 1617 0
-1397 -1407 1618 0
-1397 -1408 1619 0
-1397 -1409 1620 0
-1397 -1410 1621 0
-1397 -1411 1622 0
-1397 -1412 1623 0
-1397 -1413 1624 0
-1397 -1414 1625 0
-1397 -1415 1626 0
-1397 -1416 1627 0
-1397 -1417 1628 0
-1397 -1418 1629 0
-1398 -1403 1615 0
-1398 -1404 1616 0
-1398 -1405 1617 0
-1398 -1406 1618 0
-1398 -1407 1619 0
-1398 -1408 1620 0
-1398 -1409 1621 0
-1398 -1410 1622 0
-1398 -1411 1623 0
-1398 -1412 1624 0
-1398 -1413 1625 0
-1398 -1414 1626 0
-1398 -1415 1627 0
-1398 -1416 1628 0
-1398 -1417 1629 0
-1398 -1418 1630 0
-1399 -1403 1616 0
-1399 -1404 1617 0
-1399 -1405 1618 0
-1399 -1406 1619 0
-1399 -1407 1620 0
-1399 -1408 1621 0
-1399 -1409 1622 0
-1399 -1410 1623 0
-1399 -1411 1624 0
-1399 -1412 1625 0
-1399 -1413 1626 0
-1399 -1414 1627 0
-1399 -1415 1628 0
-1399 -1416 1629 0
-1399 -1417 1630 0
-1399 -1418 1631 0
-1400 -1403 1617 0
-1400 -1404 1618 0
-1400 -1405 1619 0
-1400 -1406 1620 0
-1400 -1407 1621 0
-1400 -1408 1622 0
-1400 -1409 1623 0
-1400 -1410 1624 0
-1400 -1411 1625 0
-1400 -1412 1626 0
-1400 -1413 1627 0
-1400 -1414 1628 0
-1400 -1415 1629 0
-1400 -1416 1630 0
-1400 -1417 1631 0
-1400 -1418 1632 0
-1401 -1403 1618 0
-1401 -1404 1619 0
-1401 -1405 1620 0
-1401 -1406 1621 0
-1401 -1407 1622 0
-1401 -1408 1623 0
-1401 -1409 1624 0
-1401 -1410 1625 0
-1401 -1411 1626 0
-1401 -1412 1627 0
-1401 -1413 1628 0
-1401 -1414 1629 0
-1401 -1415 1630 0
-1401 -1416 1631 0
-1401 -1417 1632 0
-1401 -1418 1633 0
-1402 -1403 1619 0
-1402 -1404 1620 0
-1402 -1405 1621 0
-1402 -1406 1622 0
-1402 -1407 1623 0
-1402 -1408 1624 0
-1402 -1409 1625 0
-1402 -1410 1626 0
-1402 -1411 1627 0
-1402 -1412 1628 0
-1402 -1413 1629 0
-1402 -1414 1630 0
-1402 -1415 1631 0
-1402 -1416 1632 0
-1402 -1417 1633 0
-1402 -1418 1634 0
-1435 1635 0
-1436 1636 0
-1437 1637 0
-1438 1638 0
-1439 1639 0
-1440 1640 0
-1441 1641 0
-1442 1642 0
-1443 1643 0
-1444 1644 0
-1445 1645 0
-1446 1646 0
-1447 1647 0
-1448 1648 0
-1449 1649 0
-1450 1650 0
-1419 1635 0
-1420 1636 0
-1421 1637 0
-1422 1638 0
-1423 1639 0
-1424 1640 0
-1425 1641 0
-1426 1642 0
-1427 1643 0
-1428 1644 0
-1429 1645 0
-1430 1646 0
-1431 1647 0
-1432 1648 0
-1433 1649 0
-1434 1650 0
-1419 -1435 1636 0
-1419 -1436 1637 0
-1419 -1437 1638 0
-1419 -1438 1639 0
-1419 -1439 1640 0
-1419 -1440 1641 0
-1419 -1441 1642 0
-1419 -1442 1643 0
-1419 -1443 1644 0
-1419 -1444 1645 0
-1419 -1445 1646 0
-1419 -1446 1647 0
-1419 -1447 1648 0
-1419 -1448 1649 0
-1419 -1449 1650 0
-1419 -1450 1651 0
-1420 -1435 1637 0
-1420 -1436 1638 0
-1420 -1437 1639 0
-1420 -1438 1640 0
-1420 -1439 1641 0
-1420 -1440 1642 0
-1420 -1441 1643 0
-1420 -1442 1644 0
-1420 -1443 1645 0
-1420 -1444 1646 0
-1420 -1445 1647 0
-1420 -1446 1648 0
-1420 -1447 1649 0
-1420 -1448 1650 0
-1420 -1449 1651 0
-1420 -1450 1652 0
-1421 -1435 1638 0
-1421 -1436 1639 0
-1421 -1437 1640 0
-1421 -1438 1641 0
-1421 -1439 1642 0
-1421 -1440 1643 0
-1421 -1441 1644 0
-1421 -1442 1645 0
-1421 -1443 1646 0
-1421 -1444 1647 0
-1421 -1445 1648 0
-1421 -1446 1649 0
-1421 -1447 1650 0
-1421 -1448 1651 0
-1421 -1449 1652 0
-1421 -1450 1653 0
-1422 -1435 1639 0
-1422 -1436 1640 0
-1422 -1437 1641 0
-1422 -1438 1642 0
-1422 -1439 1643 0
-1422 -1440 1644 0
-1422 -1441 1645 0
-1422 -1442 1646 0
-1422 -1443 1647 0
-1422 -1444 1648 0
-1422 -1445 1649 0
-1422 -1446 1650 0
-1422 -1447 1651 0
-1422 -1448 1652 0
-1422 -1449 1653 0
-1422 -1450 1654 0
-1423 -1435 1640 0
-1423 -1436 1641 0
-1423 -1437 1642 0
-1423 -1438 1643 0
-1423 -1439 1644 0
-1423 -1440 1645 0
-1423 -1441 1646 0
-1423 -1442 1647 0
-1423 -1443 1648 0
-1423 -1444 1649 0
-1423 -1445 1650 0
-1423 -1446 1651 0
-1423 -1447 1652 0
-1423 -1448 1653 0
-1423 -1449 1654 0
-1423 -1450 1655 0
-1424 -1435 1641 0
-1424 -1436 1642 0
-1424 -1437 1643 0
-1424 -1438 1644 0
-1424 -1439 1645 0
-1424 -1440 1646 0
-1424 -1441 1647 0
-1424 -1442 1648 0
-1424 -1443 1649 0
-1424 -1444 1650 0
-1424 -1445 1651 0
-1424 -1446 1652 0
-1424 -1447 1653 0
-1424 -1448 1654 0
-1424 -1449 1655 0
-1424 -1450 1656 0
-1425 -1435 1642 0
-1425 -1436 1643 0
-1425 -1437 1644 0
-1425 -1438 1645 0
-1425 -1439 1646 0
-1425 -1440 1647 0
-1425 -1441 1648 0
-1425 -1442 1649 0
-1425 -1443 1650 0
-1425 -1444 1651 0
-1425 -1445 1652 0
-1425 -1446 1653 0
-1425 -1447 1654 0
-1425 -1448 1655 0
-1425 -1449 1656 0
-1425 -1450 1657 0
-1426 -1435 1643 0
-1426 -1436 1644 0
-1426 -1437 1645 0
-1426 -1438 1646 0
-1426 -1439 1647 0
-1426 -1440 1648 0
-1426 -1441 1649 0
-1426 -1442 1650 0
-1426 -1443 1651 0
-1426 -1444 1652 0
-1426 -1445 1653 0
-1426 -1446 1654 0
-1426 -1447 1655 0
-1426 -1448 1656 0
-1426 -1449 1657 0
-1426 -1450 1658 0
-1427 -1435 1644 0
-1427 -1436 1645 0
-1427 -1437 1646 0
-1427 -1438 1647 0
-1427 -1439 1648 0
-1427 -1440 1649 0
-1427 -1441 1650 0
-1427 -1442 1651 0
-1427 -1443 1652 0
-1427 -1444 1653 0
-1427 -1445 1654 0
-1427 -1446 1655 0
-1427 -1447 1656 0
-1427 -1448 1657 0
-1427 -1449 1658 0
-1427 -1450 1659 0
-1428 -1435 1645 0
-1428 -1436 1646 0
-1428 -1437 1647 0
-1428 -1438 1648 0
-1428 -1439 1649 0
-1428 -1440 1650 0
-1428 -1441 1651 0
-1428 -1442 1652 0
-1428 -1443 1653 0
-1428 -1444 1654 0
-1428 -1445 1655 0
-1428 -1446 1656 0
-1428 -1447 1657 0
-1428 -1448 1658 0
-1428 -1449 1659 0
-1428 -1450 1660 0
-1429 -1435 1646 0
-1429 -1436 1647 0
-1429 -1437 1648 0
-1429 -1438 1649 0
-1429 -1439 1650 0
-1429 -1440 1651 0
-1429 -1441 1652 0
-1429 -1442 1653 0
-1429 -1443 1654 0
-1429 -1444 1655 0
-1429 -1445 1656 0
-1429 -1446 1657 0
-1429 -1447 1658 0
-1429 -1448 1659 0
-1429 -1449 1660 0
-1429 -1450 1661 0
-1430 -1435 1647 0
-1430 -1436 1648 0
-1430 -1437 1649 0
-1430 -1438 1650 0
-1430 -1439 1651 0
-1430 -1440 1652 0
-1430 -1441 1653 0
-1430 -1442 1654 0
-1430 -1443 1655 0
-1430 -1444 1656 0
-1430 -1445 1657 0
-1430 -1446 1658 0
-1430 -1447 1659 0
-1430 -1448 1660 0
-1430 -1449 1661 0
-1430 -1450 1662 0
-1431 -1435 1648 0
-1431 -1436 1649 0
-1431 -1437 1650 0
-1431 -1438 1651 0
-1431 -1439 1652 0
-1431 -1440 1653 0
-1431 -1441 1654 0
-1431 -1442 1655 0
-1431 -1443 1656 0
-1431 -1444 1657 0
-1431 -1445 1658 0
-1431 -1446 1659 0
-1431 -1447 1660 0
-1431 -1448 1661 0
-1431 -1449 1662 0
-1431 -1450 1663 0
-1432 -1435 1649 0
-1432 -1436 1650 0
-1432 -1437 1651 0
-1432 -1438 1652 0
-1432 -1439 1653 0
-1432 -1440 1654 0
-1432 -1441 1655 0
-1432 -1442 1656 0
-1432 -1443 1657 0
-1432 -1444 1658 0
-1432 -1445 1659 0
-1432 -1446 1660 0
-1432 -1447 1661 0
-1432 -1448 1662 0
-1432 -1449 1663 0
-1432 -1450 1664 0
-1433 -1435 1650 0
-1433 -1436 1651 0
-1433 -1437 1652 0
-1433 -1438 1653 0
-1433 -1439 1654 0
-1433 -1440 1655 0
-1433 -1441 1656 0
-1433 -1442 1657 0
-1433 -1443 1658 0
-1433 -1444 1659 0
-1433 -1445 1660 0
-1433 -1446 1661 0
-1433 -1447 1662 0
-1433 -1448 1663 0
-1433 -1449 1664 0
-1433 -1450 1665 0
-1434 -1435 1651 0
-1434 -1436 1652 0
-1434 -1437 1653 0
-1434 -1438 1654 0
-1434 -1439 1655 0
-1434 -1440 1656 0
-1434 -1441 1657 0
-1434 -1442 1658 0
-1434 -1443 1659 0
-1434 -1444 1660 0
-1434 -1445 1661 0
-1434 -1446 1662 0
-1434 -1447 1663 0
-1434 -1448 1664 0
-1434 -1449 1665 0
-1434 -1450 1666 0
-1467 1667 0
-1468 1668 0
-1469 1669 0
-1470 1670 0
-1471 1671 0
-1472 1672 0
-1473 1673 0
-1474 1674 0
-1475 1675 0
-1476 1676 0
-1477 1677 0
-1478 1678 0
-1479 1679 0
-1480 1680 0
-1481 1681 0
-1482 1682 0
-1451 1667 0
-1452 1668 0
-1453 1669 0
-1454 1670 0
-1455 1671 0
-1456 1672 0
-1457 1673 0
-1458 1674 0
-1459 1675 0
-1460 1676 0
-1461 1677 0
-1462 1678 0
-1463 1679 0
-1464 1680 0
-1465 1681 0
-1466 1682 0
-1451 -1467 1668 0
-1451 -1468 1669 0
-1451 -1469 1670 0
-1451 -1470 1671 0
-1451 -1471 1672 0
-1451 -1472 1673 0
-1451 -1473 1674 0
-1451 -1474 1675 0
-1451 -1475 1676 0
-1451 -1476 1677 0
-1451 -1477 1678 0
-1451 -1478 1679 0
-1451 -1479 1680 0
-1451 -1480 1681 0
-1451 -1481 1682 0
-1451 -1482 1683 0
-1452 -1467 1669 0
-1452 -1468 1670 0
-1452 -1469 1671 0
-1452 -1470 1672 0
-1452 -1471 1673 0
-1452 -1472 1674 0
-1452 -1473 1675 0
-1452 -1474 1676 0
-1452 -1475 1677 0
-1452 -1476 1678 0
-1452 -1477 1679 0
-1452 -1478 1680 0
-1452 -1479 1681 0
-1452 -1480 1682 0
-1452 -1481 1683 0
-1452 -1482 1684 0
-1453 -1467 1670 0
-1453 -1468 1671 0
-1453 -1469 1672 0
-1453 -1470 1673 0
-1453 -1471 1674 0
-1453 -1472 1675 0
-1453 -1473 1676 0
-1453 -1474 1677 0
-1453 -1475 1678 0
-1453 -1476 1679 0
-1453 -1477 1680 0
-1453 -1478 1681 0
-1453 -1479 1682 0
-1453 -1480 1683 0
-1453 -1481 1684 0
-1453 -1482 1685 0
-1454 -1467 1671 0
-1454 -1468 1672 0
-1454 -1469 1673 0
-1454 -1470 1674 0
-1454 -1471 1675 0
-1454 -1472 1676 0
-1454 -1473 1677 0
-1454 -1474 1678 0
-1454 -1475 1679 0
-1454 -1476 1680 0
-1454 -1477 1681 0
-1454 -1478 1682 0
-1454 -1479 1683 0
-1454 -1480 1684 0
-1454 -1481 1685 0
-1454 -1482 1686 0
-1455 -1467 1672 0
-1455 -1468 1673 0
-1455 -1469 1674 0
-1455 -1470 1675 0
-1455 -1471 1676 0
-1455 -1472 1677 0
-1455 -1473 1678 0
-1455 -1474 1679 0
-1455 -1475 1680 0
-1455 -1476 1681 0
-1455 -1477 1682 0
-1455 -1478 1683 0
-1455 -1479 1684 0
-1455 -1480 1685 0
-1455 -1481 1686 0
-1455 -1482 1687 0
-1456 -1467 1673 0
-1456 -1468 1674 0
-1456 -1469 1675 0
-1456 -1470 1676 0
-1456 -1471 1677 0
-1456 -1472 1678 0
-1456 -1473 1679 0
-1456 -1474 1680 0
-1456 -1475 1681 0
-1456 -1476 1682 0
-1456 -1477 1683 0
-1456 -1478 1684 0
-1456 -1479 1685 0
-1456 -1480 1686 0
-1456 -1481 1687 0
-1456 -1482 1688 0
-1457 -1467 1674 0
-1457 -1468 1675 0
-1457 -1469 1676 0
-1457 -1470 1677 0
-1457 -1471 1678 0
-1457 -1472 1679 0
-1457 -1473 1680 0
-1457 -1474 1681 0
-1457 -1475 1682 0
-1457 -1476 1683 0
-1457 -1477 1684 0
-1457 -1478 1685 0
-1457 -1479 1686 0
-1457 -1480 1687 0
-1457 -1481 1688 0
-1457 -1482 1689 0
-1458 -1467 1675 0
-1458 -1468 1676 0
-1458 -1469 1677 0
-1458 -1470 1678 0
-1458 -1471 1679 0
-1458 -1472 1680 0
-1458 -1473 1681 0
-1458 -1474 1682 0
-1458 -1475 1683 0
-1458 -1476 1684 0
-1458 -1477 1685 0
-1458 -1478 1686 0
-1458 -1479 1687 0
-1458 -1480 1688 0
-1458 -1481 1689 0
-1458 -1482 1690 0
-1459 -1467 1676 0
-1459 -1468 1677 0
-1459 -1469 1678 0
-1459 -1470 1679 0
-1459 -1471 1680 0
-1459 -1472 1681 0
-1459 -1473 1682 0
-1459 -1474 1683 0
-1459 -1475 1684 0
-1459 -1476 1685 0
-1459 -1477 1686 0
-1459 -1478 1687 0
-1459 -1479 1688 0
-1459 -1480 1689 0
-1459 -1481 1690 0
-1459 -1482 1691 0
-1460 -1467 1677 0
-1460 -1468 1678 0
-1460 -1469 1679 0
-1460 -1470 1680 0
-1460 -1471 1681 0
-1460 -1472 1682 0
-1460 -1473 1683 0
-1460 -1474 1684 0
-1460 -1475 1685 0
-1460 -1476 1686 0
-1460 -1477 1687 0
-1460 -1478 1688 0
-1460 -1479 1689 0
-1460 -1480 1690 0
-1460 -1481 1691 0
-1460 -1482 1692 0
-1461 -1467 1678 0
-1461 -1468 1679 0
-1461 -1469 1680 0
-1461 -1470 1681 0
-1461 -1471 1682 0
-1461 -1472 1683 0
-1461 -1473 1684 0
-1461 -1474 1685 0
-1461 -1475 1686 0
-1461 -1476 1687 0
-1461 -1477 1688 0
-1461 -1478 1689 0
-1461 -1479 1690 0
-1461 -1480 1691 0
-1461 -1481 1692 0
-1461 -1482 1693 0
-1462 -1467 1679 0
-1462 -1468 1680 0
-1462 -1469 1681 0
-1462 -1470 1682 0
-1462 -1471 1683 0
-1462 -1472 1684 0
-1462 -1473 1685 0
-1462 -1474 1686 0
-1462 -1475 1687 0
-1462 -1476 1688 0
-1462 -1477 1689 0
-1462 -1478 1690 0
-1462 -1479 1691 0
-1462 -1480 1692 0
-1462 -1481 1693 0
-1462 -1482 1694 0
-1463 -1467 1680 0
-1463 -1468 1681 0
-1463 -1469 1682 0
-1463 -1470 1683 0
-1463 -1471 1684 0
-1463 -1472 1685 0
-1463 -1473 1686 0
-1463 -1474 1687 0
-1463 -1475 1688 0
-1463 -1476 1689 0
-1463 -1477 1690 0
-1463 -1478 1691 0
-1463 -1479 1692 0
-1463 -1480 1693 0
-1463 -1481 1694 0
-1463 -1482 1695 0
-1464 -1467 1681 0
-1464 -1468 1682 0
-1464 -1469 1683 0
-1464 -1470 1684 0
-1464 -1471 1685 0
-1464 -1472 1686 0
-1464 -1473 1687 0
-1464 -1474 1688 0
-1464 -1475 1689 0
-1464 -1476 1690 0
-1464 -1477 1691 0
-1464 -1478 1692 0
-1464 -1479 1693 0
-1464 -1480 1694 0
-1464 -1481 1695 0
-1464 -1482 1696 0
-1465 -1467 1682 0
-1465 -1468 1683 0
-1465 -1469 1684 0
-1465 -1470 1685 0
-1465 -1471 1686 0
-1465 -1472 1687 0
-1465 -1473 1688 0
-1465 -1474 1689 0
-1465 -1475 1690 0
-1465 -1476 1691 0
-1465 -1477 1692 0
-1465 -1478 1693 0
-1465 -1479 1694 0
-1465 -1480 1695 0
-1465 -1481 1696 0
-1465 -1482 1697 0
-1466 -1467 1683 0
-1466 -1468 1684 0
-1466 -1469 1685 0
-1466 -1470 1686 0
-1466 -1471 1687 0
-1466 -1472 1688 0
-1466 -1473 1689 0
-1466 -1474 1690 0
-1466 -1475 1691 0
-1466 -1476 1692 0
-1466 -1477 1693 0
-1466 -1478 1694 0
-1466 -1479 1695 0
-1466 -1480 1696 0
-1466 -1481 1697 0
-1466 -1482 1698 0
-1499 1699 0
-1500 1700 0
-1501 1701 0
-1502 1702 0
-1503 1703 0
-1504 1704 0
-1505 1705 0
-1506 1706 0
-1507 1707 0
-1508 1708 0
-1509 1709 0
-1510 1710 0
-1511 1711 0
-1512 1712 0
-1513 1713 0
-1514 1714 0
-1483 1699 0
-1484 1700 0
-1485 1701 0
-1486 1702 0
-1487 1703 0
-1488 1704 0
-1489 1705 0
-1490 1706 0
-1491 1707 0
-1492 1708 0
-1493 1709 0
-1494 1710 0
-1495 1711 0
-1496 1712 0
-1497 1713 0
-1498 1714 0
-1483 -1499 1700 0
-1483 -1500 1701 0
-1483 -1501 1702 0
-1483 -1502 1703 0
-1483 -1503 1704 0
-1483 -1504 1705 0
-1483 -1505 1706 0
-1483 -1506 1707 0
-1483 -1507 1708 0
-1483 -1508 1709 0
-1483 -1509 1710 0
-1483 -1510 1711 0
-1483 -1511 1712 0
-1483 -1512 1713 0
-1483 -1513 1714 0
-1483 -1514 1715 0
-1484 -1499 1701 0
-1484 -1500 1702 0
-1484 -1501 1703 0
-1484 -1502 1704 0
-1484 -1503 1705 0
-1484 -1504 1706 0
-1484 -1505 1707 0
-1484 -1506 1708 0
-1484 -1507 1709 0
-1484 -1508 1710 0
-1484 -1509 1711 0
-1484 -1510 1712 0
-1484 -1511 1713 0
-1484 -1512 1714 0
-1484 -1513 1715 0
-1484 -1514 1716 0
-1485 -1499 1702 0
-1485 -1500 1703 0
-1485 -1501 1704 0
-1485 -1502 1705 0
-1485 -1503 1706 0
-1485 -1504 1707 0
-1485 -1505 1708 0
-1485 -1506 1709 0
-1485 -1507 1710 0
-1485 -1508 1711 0
-1485 -1509 1712 0
-1485 -1510 1713 0
-1485 -1511 1714 0
-1485 -1512 1715 0
-1485 -1513 1716 0
-1485 -1514 1717 0
-1486 -1499 1703 0
-1486 -1500 1704 0
-1486 -1501 1705 0
-1486 -1502 1706 0
-1486 -1503 1707 0
-1486 -1504 1708 0
-1486 -1505 1709 0
-1486 -1506 1710 0
-1486 -1507 1711 0
-1486 -1508 1712 0
-1486 -1509 1713 0
-1486 -1510 1714 0
-1486 -1511 1715 0
-1486 -1512 1716 0
-1486 -1513 1717 0
-1486 -1514 1718 0
-1487 -1499 1704 0
-1487 -1500 1705 0
-1487 -1501 1706 0
-1487 -1502 1707 0
-1487 -1503 1708 0
-1487 -1504 1709 0
-1487 -1505 1710 0
-1487 -1506 1711 0
-1487 -1507 1712 0
-1487 -1508 1713 0
-1487 -1509 1714 0
-1487 -1510 1715 0
-1487 -1511 1716 0
-1487 -1512 1717 0
-1487 -1513 1718 0
-1487 -1514 1719 0
-1488 -1499 1705 0
-1488 -1500 1706 0
-1488 -1501 1707 0
-1488 -1502 1708 0
-1488 -1503 1709 0
-1488 -1504 1710 0
-1488 -1505 1711 0
-1488 -1506 1712 0
-1488 -1507 1713 0
-1488 -1508 1714 0
-1488 -1509 1715 0
-1488 -1510 1716 0
-1488 -1511 1717 0
-1488 -1512 1718 0
-1488 -1513 1719 0
-1488 -1514 1720 0
-1489 -1499 1706 0
-1489 -1500 1707 0
-1489 -1501 1708 0
-1489 -1502 1709 0
-1489 -1503 1710 0
-1489 -1504 1711 0
-1489 -1505 1712 0
-1489 -1506 1713 0
-1489 -1507 1714 0
-1489 -1508 1715 0
-1489 -1509 1716 0
-1489 -1510 1717 0
-1489 -1511 1718 0
-1489 -1512 1719 0
-1489 -1513 1720 0
-1489 -1514 1721 0
-1490 -1499 1707 0
-1490 -1500 1708 0
-1490 -1501 1709 0
-1490 -1502 1710 0
-1490 -1503 1711 0
-1490 -1504 1712 0
-1490 -1505 1713 0
-1490 -1506 1714 0
-1490 -1507 1715 0
-1490 -1508 1716 0
-1490 -1509 1717 0
-1490 -1510 1718 0
-1490 -1511 1719 0
-1490 -1512 1720 0
-1490 -1513 1721 0
-1490 -1514 1722 0
-1491 -1499 1708 0
-1491 -1500 1709 0
-1491 -1501 1710 0
-1491 -1502 1711 0
-1491 -1503 1712 0
-1491 -1504 1713 0
-1491 -1505 1714 0
-1491 -1506 1715 0
-1491 -1507 1716 0
-1491 -1508 1717 0
-1491 -1509 1718 0
-1491 -1510 1719 0
-1491 -1511 1720 0
-1491 -1512 1721 0
-1491 -1513 1722 0
-1491 -1514 1723 0
-1492 -1499 1709 0
-1492 -1500 1710 0
-1492 -1501 1711 0
-1492 -1502 1712 0
-1492 -1503 1713 0
-1492 -1504 1714 0
-1492 -1505 1715 0
-1492 -1506 1716 0
-1492 -1507 1717 0
-1492 -1508 1718 0
-1492 -1509 1719 0
-1492 -1510 1720 0
-1492 -1511 1721 0
-1492 -1512 1722 0
-1492 -1513 1723 0
-1492 -1514 1724 0
-1493 -1499 1710 0
-1493 -1500 1711 0
-1493 -1501 1712 0
-1493 -1502 1713 0
-1493 -1503 1714 0
-1493 -1504 1715 0
-1493 -1505 1716 0
-1493 -1506 1717 0
-1493 -1507 1718 0
-1493 -1508 1719 0
-1493 -1509 1720 0
-1493 -1510 1721 0
-1493 -1511 1722 0
-1493 -1512 1723 0
-1493 -1513 1724 0
-1493 -1514 1725 0
-1494 -1499 1711 0
-1494 -1500 1712 0
-1494 -1501 1713 0
-1494 -1502 1714 0
-1494 -1503 1715 0
-1494 -1504 1716 0
-1494 -1505 1717 0
-1494 -1506 1718 0
-1494 -1507 1719 0
-1494 -1508 1720 0
-1494 -1509 1721 0
-1494 -1510 1722 0
-1494 -1511 1723 0
-1494 -1512 1724 0
-1494 -1513 1725 0
-1494 -1514 1726 0
-1495 -1499 1712 0
-1495 -1500 1713 0
-1495 -1501 1714 0
-1495 -1502 1715 0
-1495 -1503 1716 0
-1495 -1504 1717 0
-1495 -1505 1718 0
-1495 -1506 1719 0
-1495 -1507 1720 0
-1495 -1508 1721 0
-1495 -1509 1722 0
-1495 -1510 1723 0
-1495 -1511 1724 0
-1495 -1512 1725 0
-1495 -1513 1726 0
-1495 -1514 1727 0
-1496 -1499 1713 0
-1496 -1500 1714 0
-1496 -1501 1715 0
-1496 -1502 1716 0
-1496 -1503 1717 0
-1496 -1504 1718 0
-1496 -1505 1719 0
-1496 -1506 1720 0
-1496 -1507 1721 0
-1496 -1508 1722 0
-1496 -1509 1723 0
-1496 -1510 1724 0
-1496 -1511 1725 0
-1496 -1512 1726 0
-1496 -1513 1727 0
-1496 -1514 1728 0
-1497 -1499 1714 0
-1497 -1500 1715 0
-1497 -1501 1716 0
-1497 -1502 1717 0
-1497 -1503 1718 0
-1497 -1504 1719 0
-1497 -1505 1720 0
-1497 -1506 1721 0
-1497 -1507 1722 0
-1497 -1508 1723 0
-1497 -1509 1724 0
-1497 -1510 1725 0
-1497 -1511 1726 0
-1497 -1512 1727 0
-1497 -1513 1728 0
-1497 -1514 1729 0
-1498 -1499 1715 0
-1498 -1500 1716 0
-1498 -1501 1717 0
-1498 -1502 1718 0
-1498 -1503 1719 0
-1498 -1504 1720 0
-1498 -1505 1721 0
-1498 -1506 1722 0
-1498 -1507 1723 0
-1498 -1508 1724 0
-1498 -1509 1725 0
-1498 -1510 1726 0
-1498 -1511 1727 0
-1498 -1512 1728 0
-1498 -1513 1729 0
-1498 -1514 1730 0
-1531 1731 0
-1532 1732 0
-1533 1733 0
-1534 1734 0
-1535 1735 0
-1536 1736 0
-1537 1737 0
-1538 1738 0
-1539 1739 0
-1540 1740 0
-1541 1741 0
-1542 1742 0
-1543 1743 0
-1544 1744 0
-1545 1745 0
-1546 1746 0
-1515 1731 0
-1516 1732 0
-1517 1733 0
-1518 1734 0
-1519 1735 0
-1520 1736 0
-1521 1737 0
-1522 1738 0
-1523 1739 0
-1524 1740 0
-1525 1741 0
-1526 1742 0
-1527 1743 0
-1528 1744 0
-1529 1745 0
-1530 1746 0
-1515 -1531 1732 0
-1515 -1532 1733 0
-1515 -1533 1734 0
-1515 -1534 1735 0
-1515 -1535 1736 0
-1515 -1536 1737 0
-1515 -1537 1738 0
-1515 -1538 1739 0
-1515 -1539 1740 0
-1515 -1540 1741 0
-1515 -1541 1742 0
-1515 -1542 1743 0
-1515 -1543 1744 0
-1515 -1544 1745 0
-1515 -1545 1746 0
-1515 -1546 1747 0
-1516 -1531 1733 0
-1516 -1532 1734 0
-1516 -1533 1735 0
-1516 -1534 1736 0
-1516 -1535 1737 0
-1516 -1536 1738 0
-1516 -1537 1739 0
-1516 -1538 1740 0
-1516 -1539 1741 0
-1516 -1540 1742 0
-1516 -1541 1743 0
-1516 -1542 1744 0
-1516 -1543 1745 0
-1516 -1544 1746 0
-1516 -1545 1747 0
-1516 -1546 1748 0
-1517 -1531 1734 0
-1517 -1532 1735 0
-1517 -1533 1736 0
-1517 -1534 1737 0
-1517 -1535 1738 0
-1517 -1536 1739 0
-1517 -1537 1740 0
-1517 -1538 1741 0
-1517 -1539 1742 0
-1517 -1540 1743 0
-1517 -1541 1744 0
-1517 -1542 1745 0
-1517 -1543 1746 0
-1517 -1544 1747 0
-1517 -1545 1748 0
-1517 -1546 1749 0
-1518 -1531 1735 0
-1518 -1532 1736 0
-1518 -1533 1737 0
-1518 -1534 1738 0
-1518 -1535 1739 0
-1518 -1536 1740 0
-1518 -1537 1741 0
-1518 -1538 1742 0
-1518 -1539 1743 0
-1518 -1540 1744 0
-1518 -1541 1745 0
-1518 -1542 1746 0
-1518 -1543 1747 0
-1518 -1544 1748 0
-1518 -1545 1749 0
-1518 -1546 1750 0
-1519 -1531 1736 0
-1519 -1532 1737 0
-1519 -1533 1738 0
-1519 -1534 1739 0
-1519 -1535 1740 0
-1519 -1536 1741 0
-1519 -1537 1742 0
-1519 -1538 1743 0
-1519 -1539 1744 0
-1519 -1540 1745 0
-1519 -1541 1746 0
-1519 -1542 1747 0
-1519 -1543 1748 0
-1519 -1544 1749 0
-1519 -1545 1750 0
-1519 -1546 1751 0
-1520 -1531 1737 0
-1520 -1532 1738 0
-1520 -1533 1739 0
-1520 -1534 1740 0
-1520 -1535 1741 0
-1520 -1536 1742 0
-1520 -1537 1743 0
-1520 -1538 1744 0
-1520 -1539 1745 0
-1520 -1540 1746 0
-1520 -1541 1747 0
-1520 -1542 1748 0
-1520 -1543 1749 0
-1520 -1544 1750 0
-1520 -1545 1751 0
-1520 -1546 1752 0
-1521 -1531 1738 0
-1521 -1532 1739 0
-1521 -1533 1740 0
-1521 -1534 1741 0
-1521 -1535 1742 0
-1521 -1536 1743 0
-1521 -1537 1744 0
-1521 -1538 1745 0
-1521 -1539 1746 0
-1521 -1540 1747 0
-1521 -1541 1748 0
-1521 -1542 1749 0
-1521 -1543 1750 0
-1521 -1544 1751 0
-1521 -1545 1752 0
-1521 -1546 1753 0
-1522 -1531 1739 0
-1522 -1532 1740 0
-1522 -1533 1741 0
-1522 -1534 1742 0
-1522 -1535 1743 0
-1522 -1536 1744 0
-1522 -1537 1745 0
-1522 -1538 1746 0
-1522 -1539 1747 0
-1522 -1540 1748 0
-1522 -1541 1749 0
-1522 -1542 1750 0
-1522 -1543 1751 0
-1522 -1544 1752 0
-1522 -1545 1753 0
-1522 -1546 1754 0
-1523 -1531 1740 0
-1523 -1532 1741 0
-1523 -1533 1742 0
-1523 -1534 1743 0
-1523 -1535 1744 0
-1523 -1536 1745 0
-1523 -1537 1746 0
-1523 -1538 1747 0
-1523 -1539 1748 0
-1523 -1540 1749 0
-1523 -1541 1750 0
-1523 -1542 1751 0
-1523 -1543 1752 0
-1523 -1544 1753 0
-1523 -1545 1754 0
-1523 -1546 1755 0
-1524 -1531 1741 0
-1524 -1532 1742 0
-1524 -1533 1743 0
-1524 -1534 1744 0
-1524 -1535 1745 0
-1524 -1536 1746 0
-1524 -1537 1747 0
-1524 -1538 1748 0
-1524 -1539 1749 0
-1524 -1540 1750 0
-1524 -1541 1751 0
-1524 -1542 1752 0
-1524 -1543 1753 0
-1524 -1544 1754 0
-1524 -1545 1755 0
-1524 -1546 1756 0
-1525 -1531 1742 0
-1525 -1532 1743 0
-1525 -1533 1744 0
-1525 -1534 1745 0
-1525 -1535 1746 0
-1525 -1536 1747 0
-1525 -1537 1748 0
-1525 -1538 1749 0
-1525 -1539 1750 0
-1525 -1540 1751 0
-1525 -1541 1752 0
-1525 -1542 1753 0
-1525 -1543 1754 0
-1525 -1544 1755 0
-1525 -1545 1756 0
-1525 -1546 1757 0
-1526 -1531 1743 0
-1526 -1532 1744 0
-1526 -1533 1745 0
-1526 -1534 1746 0
-1526 -1535 1747 0
-1526 -1536 1748 0
-1526 -1537 1749 0
-1526 -1538 1750 0
-1526 -1539 1751 0
-1526 -1540 1752 0
-1526 -1541 1753 0
-1526 -1542 1754 0
-1526 -1543 1755 0
-1526 -1544 1756 0
-1526 -1545 1757 0
-1526 -1546 1758 0
-1527 -1531 1744 0
-1527 -1532 1745 0
-1527 -1533 1746 0
-1527 -1534 1747 0
-1527 -1535 1748 0
-1527 -1536 1749 0
-1527 -1537 1750 0
-1527 -1538 1751 0
-1527 -1539 1752 0
-1527 -1540 1753 0
-1527 -1541 1754 0
-1527 -1542 1755 0
-1527 -1543 1756 0
-1527 -1544 1757 0
-1527 -1545 1758 0
-1527 -1546 1759 0
-1528 -1531 1745 0
-1528 -1532 1746 0
-1528 -1533 1747 0
-1528 -1534 1748 0
-1528 -1535 1749 0
-1528 -1536 1750 0
-1528 -1537 1751 0
-1528 -1538 1752 0
-1528 -1539 1753 0
-1528 -1540 1754 0
-1528 -1541 1755 0
-1528 -1542 1756 0
-1528 -1543 1757 0
-1528 -1544 1758 0
-1528 -1545 1759 0
-1528 -1546 1760 0
-1529 -1531 1746 0
-1529 -1532 1747 0
-1529 -1533 1748 0
-1529 -1534 1749 0
-1529 -1535 1750 0
-1529 -1536 1751 0
-1529 -1537 1752 0
-1529 -1538 1753 0
-1529 -1539 1754 0
-1529 -1540 1755 0
-1529 -1541 1756 0
-1529 -1542 1757 0
-1529 -1543 1758 0
-1529 -1544 1759 0
-1529 -1545 1760 0
-1529 -1546 1761 0
-1530 -1531 1747 0
-1530 -1532 1748 0
-1530 -1533 1749 0
-1530 -1534 1750 0
-1530 -1535 1751 0
-1530 -1536 1752 0
-1530 -1537 1753 0
-1530 -1538 1754 0
-1530 -1539 1755 0
-1530 -1540 1756 0
-1530 -1541 1757 0
-1530 -1542 1758 0
-1530 -1543 1759 0
-1530 -1544 1760 0
-1530 -1545 1761 0
-1530 -1546 1762 0
-1563 1763 0
-1564 1764 0
-1565 1765 0
-1566 1766 0
-1567 1767 0
-1568 1768 0
-1569 1769 0
-1570 1770 0
-1571 1771 0
-1572 1772 0
-1573 1773 0
-1574 1774 0
-1575 1775 0
-1576 1776 0
-1577 1777 0
-1578 1778 0
-1547 1763 0
-1548 1764 0
-1549 1765 0
-1550 1766 0
-1551 1767 0
-1552 1768 0
-1553 1769 0
-1554 1770 0
-1555 1771 0
-1556 1772 0
-1557 1773 0
-1558 1774 0
-1559 1775 0
-1560 1776 0
-1561 1777 0
-1562 1778 0
-1547 -1563 1764 0
-1547 -1564 1765 0
-1547 -1565 1766 0
-1547 -1566 1767 0
-1547 -1567 1768 0
-1547 -1568 1769 0
-1547 -1569 1770 0
-1547 -1570 1771 0
-1547 -1571 1772 0
-1547 -1572 1773 0
-1547 -1573 1774 0
-1547 -1574 1775 0
-1547 -1575 1776 0
-1547 -1576 1777 0
-1547 -1577 1778 0
-1547 -1578 1779 0
-1548 -1563 1765 0
-1548 -1564 1766 0
-1548 -1565 1767 0
-1548 -1566 1768 0
-1548 -1567 1769 0
-1548 -1568 1770 0
-1548 -1569 1771 0
-1548 -1570 1772 0
-1548 -1571 1773 0
-1548 -1572 1774 0
-1548 -1573 1775 0
-1548 -1574 1776 0
-1548 -1575 1777 0
-1548 -1576 1778 0
-1548 -1577 1779 0
-1548 -1578 1780 0
-1549 -1563 1766 0
-1549 -1564 1767 0
-1549 -1565 1768 0
-1549 -1566 1769 0
-1549 -1567 1770 0
-1549 -1568 1771 0
-1549 -1569 1772 0
-1549 -1570 1773 0
-1549 -1571 1774 0
-1549 -1572 1775 0
-1549 -1573 1776 0
-1549 -1574 1777 0
-1549 -1575 1778 0
-1549 -1576 1779 0
-1549 -1577 1780 0
-1549 -1578 1781 0
-1550 -1563 1767 0
-1550 -1564 1768 0
-1550 -1565 1769 0
-1550 -1566 1770 0
-1550 -1567 1771 0
-1550 -1568 1772 0
-1550 -1569 1773 0
-1550 -1570 1774 0
-1550 -1571 1775 0
-1550 -1572 1776 0
-1550 -1573 1777 0
-1550 -1574 1778 0
-1550 -1575 1779 0
-1550 -1576 1780 0
-1550 -1577 1781 0
-1550 -1578 1782 0
-1551 -1563 1768 0
-1551 -1564 1769 0
-1551 -1565 1770 0
-1551 -1566 1771 0
-1551 -1567 1772 0
-1551 -1568 1773 0
-1551 -1569 1774 0
-1551 -1570 1775 0
-1551 -1571 1776 0
-1551 -1572 1777 0
-1551 -1573 1778 0
-1551 -1574 1779 0
-1551 -1575 1780 0
-1551 -1576 1781 0
-1551 -1577 1782 0
-1551 -1578 1783 0
-1552 -1563 1769 0
-1552 -1564 1770 0
-1552 -1565 1771 0
-1552 -1566 1772 0
-1552 -1567 1773 0
-1552 -1568 1774 0
-1552 -1569 1775 0
-1552 -1570 1776 0
-1552 -1571 1777 0
-1552 -1572 1778 0
-1552 -1573 1779 0
-1552 -1574 1780 0
-1552 -1575 1781 0
-1552 -1576 1782 0
-1552 -1577 1783 0
-1552 -1578 1784 0
-1553 -1563 1770 0
-1553 -1564 1771 0
-1553 -1565 1772 0
-1553 -1566 1773 0
-1553 -1567 1774 0
-1553 -1568 1775 0
-1553 -1569 1776 0
-1553 -1570 1777 0
-1553 -1571 1778 0
-1553 -1572 1779 0
-1553 -1573 1780 0
-1553 -1574 1781 0
-1553 -1575 1782 0
-1553 -1576 1783 0
-1553 -1577 1784 0
-1553 -1578 1785 0
-1554 -1563 1771 0
-1554 -1564 1772 0
-1554 -1565 1773 0
-1554 -1566 1774 0
-1554 -1567 1775 0
-1554 -1568 1776 0
-1554 -1569 1777 0
-1554 -1570 1778 0
-1554 -1571 1779 0
-1554 -1572 1780 0
-1554 -1573 1781 0
-1554 -1574 1782 0
-1554 -1575 1783 0
-1554 -1576 1784 0
-1554 -1577 1785 0
-1554 -1578 1786 0
-1555 -1563 1772 0
-1555 -1564 1773 0
-1555 -1565 1774 0
-1555 -1566 1775 0
-1555 -1567 1776 0
-1555 -1568 1777 0
-1555 -1569 1778 0
-1555 -1570 1779 0
-1555 -1571 1780 0
-1555 -1572 1781 0
-1555 -1573 1782 0
-1555 -1574 1783 0
-1555 -1575 1784 0
-1555 -1576 1785 0
-1555 -1577 1786 0
-1555 -1578 1787 0
-1556 -1563 1773 0
-1556 -1564 1774 0
-1556 -1565 1775 0
-1556 -1566 1776 0
-1556 -1567 1777 0
-1556 -1568 1778 0
-1556 -1569 1779 0
-1556 -1570 1780 0
-1556 -1571 1781 0
-1556 -1572 1782 0
-1556 -1573 1783 0
-1556 -1574 1784 0
-1556 -1575 1785 0
-1556 -1576 1786 0
-1556 -1577 1787 0
-1556 -1578 1788 0
-1557 -1563 1774 0
-1557 -1564 1775 0
-1557 -1565 1776 0
-1557 -1566 1777 0
-1557 -1567 1778 0
-1557 -1568 1779 0
-1557 -1569 1780 0
-1557 -1570 1781 0
-1557 -1571 1782 0
-1557 -1572 1783 0
-1557 -1573 1784 0
-1557 -1574 1785 0
-1557 -1575 1786 0
-1557 -1576 1787 0
-1557 -1577 1788 0
-1557 -1578 1789 0
-1558 -1563 1775 0
-1558 -1564 1776 0
-1558 -1565 1777 0
-1558 -1566 1778 0
-1558 -1567 1779 0
-1558 -1568 1780 0
-1558 -1569 1781 0
-1558 -1570 1782 0
-1558 -1571 1783 0
-1558 -1572 1784 0
-1558 -1573 1785 0
-1558 -1574 1786 0
-1558 -1575 1787 0
-1558 -1576 1788 0
-1558 -1577 1789 0
-1558 -1578 1790 0
-1559 -1563 1776 0
-1559 -1564 1777 0
-1559 -1565 1778 0
-1559 -1566 1779 0
-1559 -1567 1780 0
-1559 -1568 1781 0
-1559 -1569 1782 0
-1559 -1570 1783 0
-1559 -1571 1784 0
-1559 -1572 1785 0
-1559 -1573 1786 0
-1559 -1574 1787 0
-1559 -1575 1788 0
-1559 -1576 1789 0
-1559 -1577 1790 0
-1559 -1578 1791 0
-1560 -1563 1777 0
-1560 -1564 1778 0
-1560 -1565 1779 0
-1560 -1566 1780 0
-1560 -1567 1781 0
-1560 -1568 1782 0
-1560 -1569 1783 0
-1560 -1570 1784 0
-1560 -1571 1785 0
-1560 -1572 1786 0
-1560 -1573 1787 0
-1560 -1574 1788 0
-1560 -1575 1789 0
-1560 -1576 1790 0
-1560 -1577 1791 0
-1560 -1578 1792 0
-1561 -1563 1778 0
-1561 -1564 1779 0
-1561 -1565 1780 0
-1561 -1566 1781 0
-1561 -1567 1782 0
-1561 -1568 1783 0
-1561 -1569 1784 0
-1561 -1570 1785 0
-1561 -1571 1786 0
-1561 -1572 1787 0
-1561 -1573 1788 0
-1561 -1574 1789 0
-1561 -1575 1790 0
-1561 -1576 1791 0
-1561 -1577 1792 0
-1561 -1578 1793 0
-1562 -1563 1779 0
-1562 -1564 1780 0
-1562 -1565 1781 0
-1562 -1566 1782 0
-1562 -1567 1783 0
-1562 -1568 1784 0
-1562 -1569 1785 0
-1562 -1570 1786 0
-1562 -1571 1787 0
-1562 -1572 1788 0
-1562 -1573 1789 0
-1562 -1574 1790 0
-1562 -1575 1791 0
-1562 -1576 1792 0
-1562 -1577 1793 0
-1562 -1578 1794 0
-1595 1795 0
-1596 1796 0
-1597 1797 0
-1598 1798 0
-1599 1799 0
-1600 1800 0
-1601 1801 0
-1602 1802 0
-1603 1803 0
-1604 1804 0
-1605 1805 0
-1606 1806 0
-1607 1807 0
-1608 1808 0
-1609 1809 0
-1610 1810 0
-1579 1795 0
-1580 1796 0
-1581 1797 0
-1582 1798 0
-1583 1799 0
-1584 1800 0
-1585 1801 0
-1586 1802 0
-1587 1803 0
-1588 1804 0
-1589 1805 0
-1590 1806 0
-1591 1807 0
-1592 1808 0
-1593 1809 0
-1594 1810 0
-1579 -1595 1796 0
-1579 -1596 1797 0
-1579 -1597 1798 0
-1579 -1598 1799 0
-1579 -1599 1800 0
-1579 -1600 1801 0
-1579 -1601 1802 0
-1579 -1602 1803 0
-1579 -1603 1804 0
-1579 -1604 1805 0
-1579 -1605 1806 0
-1579 -1606 1807 0
-1579 -1607 1808 0
-1579 -1608 1809 0
-1579 -1609 1810 0
-1579 -1610 1811 0
-1580 -1595 1797 0
-1580 -1596 1798 0
-1580 -1597 1799 0
-1580 -1598 1800 0
-1580 -1599 1801 0
-1580 -1600 1802 0
-1580 -1601 1803 0
-1580 -1602 1804 0
-1580 -1603 1805 0
-1580 -1604 1806 0
-1580 -1605 1807 0
-1580 -1606 1808 0
-1580 -1607 1809 0
-1580 -1608 1810 0
-1580 -1609 1811 0
-1580 -1610 1812 0
-1581 -1595 1798 0
-1581 -1596 1799 0
-1581 -1597 1800 0
-1581 -1598 1801 0
-1581 -1599 1802 0
-1581 -1600 1803 0
-1581 -1601 1804 0
-1581 -1602 1805 0
-1581 -1603 1806 0
-1581 -1604 1807 0
-1581 -1605 1808 0
-1581 -1606 1809 0
-1581 -1607 1810 0
-1581 -1608 1811 0
-1581 -1609 1812 0
-1581 -1610 1813 0
-1582 -1595 1799 0
-1582 -1596 1800 0
-1582 -1597 1801 0
-1582 -1598 1802 0
-1582 -1599 1803 0
-1582 -1600 1804 0
-1582 -1601 1805 0
-1582 -1602 1806 0
-1582 -1603 1807 0
-1582 -1604 1808 0
-1582 -1605 1809 0
-1582 -1606 1810 0
-1582 -1607 1811 0
-1582 -1608 1812 0
-1582 -1609 1813 0
-1582 -1610 1814 0
-1583 -1595 1800 0
-1583 -1596 1801 0
-1583 -1597 1802 0
-1583 -1598 1803 0
-1583 -1599 1804 0
-1583 -1600 1805 0
-1583 -1601 1806 0
-1583 -1602 1807 0
-1583 -1603 1808 0
-1583 -1604 1809 0
-1583 -1605 1810 0
-1583 -1606 1811 0
-1583 -1607 1812 0
-1583 -1608 1813 0
-1583 -1609 1814 0
-1583 -1610 1815 0
-1584 -1595 1801 0
-1584 -1596 1802 0
-1584 -1597 1803 0
-1584 -1598 1804 0
-1584 -1599 1805 0
-1584 -1600 1806 0
-1584 -1601 1807 0
-1584 -1602 1808 0
-1584 -1603 1809 0
-1584 -1604 1810 0
-1584 -1605 1811 0
-1584 -1606 1812 0
-1584 -1607 1813 0
-1584 -1608 1814 0
-1584 -1609 1815 0
-1584 -1610 1816 0
-1585 -1595 1802 0
-1585 -1596 1803 0
-1585 -1597 1804 0
-1585 -1598 1805 0
-1585 -1599 1806 0
-1585 -1600 1807 0
-1585 -1601 1808 0
-1585 -1602 1809 0
-1585 -1603 1810 0
-1585 -1604 1811 0
-1585 -1605 1812 0
-1585 -1606 1813 0
-1585 -1607 1814 0
-1585 -1608 1815 0
-1585 -1609 1816 0
-1585 -1610 1817 0
-1586 -1595 1803 0
-1586 -1596 1804 0
-1586 -1597 1805 0
-1586 -1598 1806 0
-1586 -1599 1807 0
-1586 -1600 1808 0
-1586 -1601 1809 0
-1586 -1602 1810 0
-1586 -1603 1811 0
-1586 -1604 1812 0
-1586 -1605 1813 0
-1586 -1606 1814 0
-1586 -1607 1815 0
-1586 -1608 1816 0
-1586 -1609 1817 0
-1586 -1610 1818 0
-1587 -1595 1804 0
-1587 -1596 1805 0
-1587 -1597 1806 0
-1587 -1598 1807 0
-1587 -1599 1808 0
-1587 -1600 1809 0
-1587 -1601 1810 0
-1587 -1602 1811 0
-1587 -1603 1812 0
-1587 -1604 1813 0
-1587 -1605 1814 0
-1587 -1606 1815 0
-1587 -1607 1816 0
-1587 -1608 1817 0
-1587 -1609 1818 0
-1587 -1610 1819 0
-1588 -1595 1805 0
-1588 -1596 1806 0
-1588 -1597 1807 0
-1588 -1598 1808 0
-1588 -1599 1809 0
-1588 -1600 1810 0
-1588 -1601 1811 0
-1588 -1602 1812 0
-1588 -1603 1813 0
-1588 -1604 1814 0
-1588 -1605 1815 0
-1588 -1606 1816 0
-1588 -1607 1817 0
-1588 -1608 1818 0
-1588 -1609 1819 0
-1588 -1610 1820 0
-1589 -1595 1806 0
-1589 -1596 1807 0
-1589 -1597 1808 0
-1589 -1598 1809 0
-1589 -1599 1810 0
-1589 -1600 1811 0
-1589 -1601 1812 0
-1589 -1602 1813 0
-1589 -1603 1814 0
-1589 -1604 1815 0
-1589 -1605 1816 0
-1589 -1606 1817 0
-1589 -1607 1818 0
-1589 -1608 1819 0
-1589 -1609 1820 0
-1589 -1610 1821 0
-1590 -1595 1807 0
-1590 -1596 1808 0
-1590 -1597 1809 0
-1590 -1598 1810 0
-1590 -1599 1811 0
-1590 -1600 1812 0
-1590 -1601 1813 0
-1590 -1602 1814 0
-1590 -1603 1815 0
-1590 -1604 1816 0
-1590 -1605 1817 0
-1590 -1606 1818 0
-1590 -1607 1819 0
-1590 -1608 1820 0
-1590 -1609 1821 0
-1590 -1610 1822 0
-1591 -1595 1808 0
-1591 -1596 1809 0
-1591 -1597 1810 0
-1591 -1598 1811 0
-1591 -1599 1812 0
-1591 -1600 1813 0
-1591 -1601 1814 0
-1591 -1602 1815 0
-1591 -1603 1816 0
-1591 -1604 1817 0
-1591 -1605 1818 0
-1591 -1606 1819 0
-1591 -1607 1820 0
-1591 -1608 1821 0
-1591 -1609 1822 0
-1591 -1610 1823 0
-1592 -1595 1809 0
-1592 -1596 1810 0
-1592 -1597 1811 0
-1592 -1598 1812 0
-1592 -1599 1813 0
-1592 -1600 1814 0
-1592 -1601 1815 0
-1592 -1602 1816 0
-1592 -1603 1817 0
-1592 -1604 1818 0
-1592 -1605 1819 0
-1592 -1606 1820 0
-1592 -1607 1821 0
-1592 -1608 1822 0
-1592 -1609 1823 0
-1592 -1610 1824 0
-1593 -1595 1810 0
-1593 -1596 1811 0
-1593 -1597 1812 0
-1593 -1598 1813 0
-1593 -1599 1814 0
-1593 -1600 1815 0
-1593 -1601 1816 0
-1593 -1602 1817 0
-1593 -1603 1818 0
-1593 -1604 1819 0
-1593 -1605 1820 0
-1593 -1606 1821 0
-1593 -1607 1822 0
-1593 -1608 1823 0
-1593 -1609 1824 0
-1593 -1610 1825 0
-1594 -1595 1811 0
-1594 -1596 1812 0
-1594 -1597 1813 0
-1594 -1598 1814 0
-1594 -1599 1815 0
-1594 -1600 1816 0
-1594 -1601 1817 0
-1594 -1602 1818 0
-1594 -1603 1819 0
-1594 -1604 1820 0
-1594 -1605 1821 0
-1594 -1606 1822 0
-1594 -1607 1823 0
-1594 -1608 1824 0
-1594 -1609 1825 0
-1594 -1610 1826 0
-1635 1827 0
-1636 1828 0
-1637 1829 0
-1638 1830 0
-1639 1831 0
-1640 1832 0
-1641 1833 0
-1642 1834 0
-1643 1835 0
-1644 1836 0
-1645 1837 0
-1646 1838 0
-1647 1839 0
-1648 1840 0
-1649 1841 0
-1650 1842 0
-1651 1843 0
-1652 1844 0
-1653 1845 0
-1654 1846 0
-1655 1847 0
-1656 1848 0
-1657 1849 0
-1658 1850 0
-1659 1851 0
-1660 1852 0
-1661 1853 0
-1662 1854 0
-1663 1855 0
-1664 1856 0
-1665 1857 0
-1666 1858 0
-1611 1827 0
-1612 1828 0
-1613 1829 0
-1614 1830 0
-1615 1831 0
-1616 1832 0
-1617 1833 0
-1618 1834 0
-1619 1835 0
-1620 1836 0
-1621 1837 0
-1622 1838 0
-1623 1839 0
-1624 1840 0
-1625 1841 0
-1626 1842 0
-1627 1843 0
-1628 1844 0
-1629 1845 0
-1630 1846 0
-1631 1847 0
-1632 1848 0
-1633 1849 0
-1634 1850 0
-1611 -1635 1828 0
-1611 -1636 1829 0
-1611 -1637 1830 0
-1611 -1638 1831 0
-1611 -1639 1832 0
-1611 -1640 1833 0
-1611 -1641 1834 0
-1611 -1642 1835 0
-1611 -1643 1836 0
-1611 -1644 1837 0
-1611 -1645 1838 0
-1611 -1646 1839 0
-1611 -1647 1840 0
-1611 -1648 1841 0
-1611 -1649 1842 0
-1611 -1650 1843 0
-1611 -1651 1844 0
-1611 -1652 1845 0
-1611 -1653 1846 0
-1611 -1654 1847 0
-1611 -1655 1848 0
-1611 -1656 1849 0
-1611 -1657 1850 0
-1611 -1658 1851 0
-1611 -1659 1852 0
-1611 -1660 1853 0
-1611 -1661 1854 0
-1611 -1662 1855 0
-1611 -1663 1856 0
-1611 -1664 1857 0
-1611 -1665 1858 0
-1611 -1666 1859 0
-1612 -1635 1829 0
-1612 -1636 1830 0
-1612 -1637 1831 0
-1612 -1638 1832 0
-1612 -1639 1833 0
-1612 -1640 1834 0
-1612 -1641 1835 0
-1612 -1642 1836 0
-1612 -1643 1837 0
-1612 -1644 1838 0
-1612 -1645 1839 0
-1612 -1646 1840 0
-1612 -1647 1841 0
-1612 -1648 1842 0
-1612 -1649 1843 0
-1612 -1650 1844 0
-1612 -1651 1845 0
-1612 -1652 1846 0
-1612 -1653 1847 0
-1612 -1654 1848 0
-1612 -1655 1849 0
-1612 -1656 1850 0
-1612 -1657 1851 0
-1612 -1658 1852 0
-1612 -1659 1853 0
-1612 -1660 1854 0
-1612 -1661 1855 0
-1612 -1662 1856 0
-1612 -1663 1857 0
-1612 -1664 1858 0
-1612 -1665 1859 0
-1612 -1666 1860 0
-1613 -1635 1830 0
-1613 -1636 1831 0
-1613 -1637 1832 0
-1613 -1638 1833 0
-1613 -1639 1834 0
-1613 -1640 1835 0
-1613 -1641 1836 0
-1613 -1642 1837 0
-1613 -1643 1838 0
-1613 -1644 1839 0
-1613 -1645 1840 0
-1613 -1646 1841 0
-1613 -1647 1842 0
-1613 -1648 1843 0
-1613 -1649 1844 0
-1613 -1650 1845 0
-1613 -1651 1846 0
-1613 -1652 1847 0
-1613 -1653 1848 0
-1613 -1654 1849 0
-1613 -1655 1850 0
-1613 -1656 1851 0
-1613 -1657 1852 0
-1613 -1658 1853 0
-1613 -1659 1854 0
-1613 -1660 1855 0
-1613 -1661 1856 0
-1613 -1662 1857 0
-1613 -1663 1858 0
-1613 -1664 1859 0
-1613 -1665 1860 0
-1613 -1666 1861 0
-1614 -1635 1831 0
-1614 -1636 1832 0
-1614 -1637 1833 0
-1614 -1638 1834 0
-1614 -1639 1835 0
-1614 -1640 1836 0
-1614 -1641 1837 0
-1614 -1642 1838 0
-1614 -1643 1839 0
-1614 -1644 1840 0
-1614 -1645 1841 0
-1614 -1646 1842 0
-1614 -1647 1843 0
-1614 -1648 1844 0
-1614 -1649 1845 0
-1614 -1650 1846 0
-1614 -1651 1847 0
-1614 -1652 1848 0
-1614 -1653 1849 0
-1614 -1654 1850 0
-1614 -1655 1851 0
-1614 -1656 1852 0
-1614 -1657 1853 0
-1614 -1658 1854 0
-1614 -1659 1855 0
-1614 -1660 1856 0
-1614 -1661 1857 0
-1614 -1662 1858 0
-1614 -1663 1859 0
-1614 -1664 1860 0
-1614 -1665 1861 0
-1614 -1666 1862 0
-1615 -1635 1832 0
-1615 -1636 1833 0
-1615 -1637 1834 0
-1615 -1638 1835 0
-1615 -1639 1836 0
-1615 -1640 1837 0
-1615 -1641 1838 0
-1615 -1642 1839 0
-1615 -1643 1840 0
-1615 -1644 1841 0
-1615 -1645 1842 0
-1615 -1646 1843 0
-1615 -1647 1844 0
-1615 -1648 1845 0
-1615 -1649 1846 0
-1615 -1650 1847 0
-1615 -1651 1848 0
-1615 -1652 1849 0
-1615 -1653 1850 0
-1615 -1654 1851 0
-1615 -1655 1852 0
-1615 -1656 1853 0
-1615 -1657 1854 0
-1615 -1658 1855 0
-1615 -1659 1856 0
-1615 -1660 1857 0
-1615 -1661 1858 0
-1615 -1662 1859 0
-1615 -1663 1860 0
-1615 -1664 1861 0
-1615 -1665 1862 0
-1615 -1666 1863 0
-1616 -1635 1833 0
-1616 -1636 1834 0
-1616 -1637 1835 0
-1616 -1638 1836 0
-1616 -1639 1837 0
-1616 -1640 1838 0
-1616 -1641 1839 0
-1616 -1642 1840 0
-1616 -1643 1841 0
-1616 -1644 1842 0
-1616 -1645 1843 0
-1616 -1646 1844 0
-1616 -1647 1845 0
-1616 -1648 1846 0
-1616 -1649 1847 0
-1616 -1650 1848 0
-1616 -1651 1849 0
-1616 -1652 1850 0
-1616 -1653 1851 0
-1616 -1654 1852 0
-1616 -1655 1853 0
-1616 -1656 1854 0
-1616 -1657 1855 0
-1616 -1658 1856 0
-1616 -1659 1857 0
-1616 -1660 1858 0
-1616 -1661 1859 0
-1616 -1662 1860 0
-1616 -1663 1861 0
-1616 -1664 1862 0
-1616 -1665 1863 0
-1616 -1666 1864 0
-1617 -1635 1834 0
-1617 -1636 1835 0
-1617 -1637 1836 0
-1617 -1638 1837 0
-1617 -1639 1838 0
-1617 -1640 1839 0
-1617 -1641 1840 0
-1617 -1642 1841 0
-1617 -1643 1842 0
-1617 -1644 1843 0
-1617 -1645 1844 0
-1617 -1646 1845 0
-1617 -1647 1846 0
-1617 -1648 1847 0
-1617 -1649 1848 0
-1617 -1650 1849 0
-1617 -1651 1850 0
-1617 -1652 1851 0
-1617 -1653 1852 0
-1617 -1654 1853 0
-1617 -1655 1854 0
-1617 -1656 1855 0
-1617 -1657 1856 0
-1617 -1658 1857 0
-1617 -1659 1858 0
-1617 -1660 1859 0
-1617 -1661 1860 0
-1617 -1662 1861 0
-1617 -1663 1862 0
-1617 -1664 1863 0
-1617 -1665 1864 0
-1617 -1666 1865 0
-1618 -1635 1835 0
-1618 -1636 1836 0
-1618 -1637 1837 0
-1618 -1638 1838 0
-1618 -1639 1839 0
-1618 -1640 1840 0
-1618 -1641 1841 0
-1618 -1642 1842 0
-1618 -1643 1843 0
-1618 -1644 1844 0
-1618 -1645 1845 0
-1618 -1646 1846 0
-1618 -1647 1847 0
-1618 -1648 1848 0
-1618 -1649 1849 0
-1618 -1650 1850 0
-1618 -1651 1851 0
-1618 -1652 1852 0
-1618 -1653 1853 0
-1618 -1654 1854 0
-1618 -1655 1855 0
-1618 -1656 1856 0
-1618 -1657 1857 0
-1618 -1658 1858 0
-1618 -1659 1859 0
-1618 -1660 1860 0
-1618 -1661 1861 0
-1618 -1662 1862 0
-1618 -1663 1863 0
-1618 -1664 1864 0
-1618 -1665 1865 0
-1618 -1666 1866 0
-1619 -1635 1836 0
-1619 -1636 1837 0
-1619 -1637 1838 0
-1619 -1638 1839 0
-1619 -1639 1840 0
-1619 -1640 1841 0
-1619 -1641 1842 0
-1619 -1642 1843 0
-1619 -1643 1844 0
-1619 -1644 1845 0
-1619 -1645 1846 0
-1619 -1646 1847 0
-1619 -1647 1848 0
-1619 -1648 1849 0
-1619 -1649 1850 0
-1619 -1650 1851 0
-1619 -1651 1852 0
-1619 -1652 1853 0
-1619 -1653 1854 0
-1619 -1654 1855 0
-1619 -1655 1856 0
-1619 -1656 1857 0
-1619 -1657 1858 0
-1619 -1658 1859 0
-1619 -1659 1860 0
-1619 -1660 1861 0
-1619 -1661 1862 0
-1619 -1662 1863 0
-1619 -1663 1864 0
-1619 -1664 1865 0
-1619 -1665 1866 0
-1619 -1666 1867 0
-1620 -1635 1837 0
-1620 -1636 1838 0
-1620 -1637 1839 0
-1620 -1638 1840 0
-1620 -1639 1841 0
-1620 -1640 1842 0
-1620 -1641 1843 0
-1620 -1642 1844 0
-1620 -1643 1845 0
-1620 -1644 1846 0
-1620 -1645 1847 0
-1620 -1646 1848 0
-1620 -1647 1849 0
-1620 -1648 1850 0
-1620 -1649 1851 0
-1620 -1650 1852 0
-1620 -1651 1853 0
-1620 -1652 1854 0
-1620 -1653 1855 0
-1620 -1654 1856 0
-1620 -1655 1857 0
-1620 -1656 1858 0
-1620 -1657 1859 0
-1620 -1658 1860 0
-1620 -1659 1861 0
-1620 -1660 1862 0
-1620 -1661 1863 0
-1620 -1662 1864 0
-1620 -1663 1865 0
-1620 -1664 1866 0
-1620 -1665 1867 0
-1620 -1666 1868 0
-1621 -1635 1838 0
-1621 -1636 1839 0
-1621 -1637 1840 0
-1621 -1638 1841 0
-1621 -1639 1842 0
-1621 -1640 1843 0
-1621 -1641 1844 0
-1621 -1642 1845 0
-1621 -1643 1846 0
-1621 -1644 1847 0
-1621 -1645 1848 0
-1621 -1646 1849 0
-1621 -1647 1850 0
-1621 -1648 1851 0
-1621 -1649 1852 0
-1621 -1650 1853 0
-1621 -1651 1854 0
-1621 -1652 1855 0
-1621 -1653 1856 0
-1621 -1654 1857 0
-1621 -1655 1858 0
-1621 -1656 1859 0
-1621 -1657 1860 0
-1621 -1658 1861 0
-1621 -1659 1862 0
-1621 -1660 1863 0
-1621 -1661 1864 0
-1621 -1662 1865 0
-1621 -1663 1866 0
-1621 -1664 1867 0
-1621 -1665 1868 0
-1621 -1666 1869 0
-1622 -1635 1839 0
-1622 -1636 1840 0
-1622 -1637 1841 0
-1622 -1638 1842 0
-1622 -1639 1843 0
-1622 -1640 1844 0
-1622 -1641 1845 0
-1622 -1642 1846 0
-1622 -1643 1847 0
-1622 -1644 1848 0
-1622 -1645 1849 0
-1622 -1646 1850 0
-1622 -1647 1851 0
-1622 -1648 1852 0
-1622 -1649 1853 0
-1622 -1650 1854 0
-1622 -1651 1855 0
-1622 -1652 1856 0
-1622 -1653 1857 0
-1622 -1654 1858 0
-1622 -1655 1859 0
-1622 -1656 1860 0
-1622 -1657 1861 0
-1622 -1658 1862 0
-1622 -1659 1863 0
-1622 -1660 1864 0
-1622 -1661 1865 0
-1622 -1662 1866 0
-1622 -1663 1867 0
-1622 -1664 1868 0
-1622 -1665 1869 0
-1622 -1666 1870 0
-1623 -1635 1840 0
-1623 -1636 1841 0
-1623 -1637 1842 0
-1623 -1638 1843 0
-1623 -1639 1844 0
-1623 -1640 1845 0
-1623 -1641 1846 0
-1623 -1642 1847 0
-1623 -1643 1848 0
-1623 -1644 1849 0
-1623 -1645 1850 0
-1623 -1646 1851 0
-1623 -1647 1852 0
-1623 -1648 1853 0
-1623 -1649 1854 0
-1623 -1650 1855 0
-1623 -1651 1856 0
-1623 -1652 1857 0
-1623 -1653 1858 0
-1623 -1654 1859 0
-1623 -1655 1860 0
-1623 -1656 1861 0
-1623 -1657 1862 0
-1623 -1658 1863 0
-1623 -1659 1864 0
-1623 -1660 1865 0
-1623 -1661 1866 0
-1623 -1662 1867 0
-1623 -1663 1868 0
-1623 -1664 1869 0
-1623 -1665 1870 0
-1623 -1666 1871 0
-1624 -1635 1841 0
-1624 -1636 1842 0
-1624 -1637 1843 0
-1624 -1638 1844 0
-1624 -1639 1845 0
-1624 -1640 1846 0
-1624 -1641 1847 0
-1624 -1642 1848 0
-1624 -1643 1849 0
-1624 -1644 1850 0
-1624 -1645 1851 0
-1624 -1646 1852 0
-1624 -1647 1853 0
-1624 -1648 1854 0
-1624 -1649 1855 0
-1624 -1650 1856 0
-1624 -1651 1857 0
-1624 -1652 1858 0
-1624 -1653 1859 0
-1624 -1654 1860 0
-1624 -1655 1861 0
-1624 -1656 1862 0
-1624 -1657 1863 0
-1624 -1658 1864 0
-1624 -1659 1865 0
-1624 -1660 1866 0
-1624 -1661 1867 0
-1624 -1662 1868 0
-1624 -1663 1869 0
-1624 -1664 1870 0
-1624 -1665 1871 0
-1624 -1666 1872 0
-1625 -1635 1842 0
-1625 -1636 1843 0
-1625 -1637 1844 0
-1625 -1638 1845 0
-1625 -1639 1846 0
-1625 -1640 1847 0
-1625 -1641 1848 0
-1625 -1642 1849 0
-1625 -1643 1850 0
-1625 -1644 1851 0
-1625 -1645 1852 0
-1625 -1646 1853 0
-1625 -1647 1854 0
-1625 -1648 1855 0
-1625 -1649 1856 0
-1625 -1650 1857 0
-1625 -1651 1858 0
-1625 -1652 1859 0
-1625 -1653 1860 0
-1625 -1654 1861 0
-1625 -1655 1862 0
-1625 -1656 1863 0
-1625 -1657 1864 0
-1625 -1658 1865 0
-1625 -1659 1866 0
-1625 -1660 1867 0
-1625 -1661 1868 0
-1625 -1662 1869 0
-1625 -1663 1870 0
-1625 -1664 1871 0
-1625 -1665 1872 0
-1625 -1666 1873 0
-1626 -1635 1843 0
-1626 -1636 1844 0
-1626 -1637 1845 0
-1626 -1638 1846 0
-1626 -1639 1847 0
-1626 -1640 1848 0
-1626 -1641 1849 0
-1626 -1642 1850 0
-1626 -1643 1851 0
-1626 -1644 1852 0
-1626 -1645 1853 0
-1626 -1646 1854 0
-1626 -1647 1855 0
-1626 -1648 1856 0
-1626 -1649 1857 0
-1626 -1650 1858 0
-1626 -1651 1859 0
-1626 -1652 1860 0
-1626 -1653 1861 0
-1626 -1654 1862 0
-1626 -1655 1863 0
-1626 -1656 1864 0
-1626 -1657 1865 0
-1626 -1658 1866 0
-1626 -1659 1867 0
-1626 -1660 1868 0
-1626 -1661 1869 0
-1626 -1662 1870 0
-1626 -1663 1871 0
-1626 -1664 1872 0
-1626 -1665 1873 0
-1626 -1666 1874 0
-1627 -1635 1844 0
-1627 -1636 1845 0
-1627 -1637 1846 0
-1627 -1638 1847 0
-1627 -1639 1848 0
-1627 -1640 1849 0
-1627 -1641 1850 0
-1627 -1642 1851 0
-1627 -1643 1852 0
-1627 -1644 1853 0
-1627 -1645 1854 0
-1627 -1646 1855 0
-1627 -1647 1856 0
-1627 -1648 1857 0
-1627 -1649 1858 0
-1627 -1650 1859 0
-1627 -1651 1860 0
-1627 -1652 1861 0
-1627 -1653 1862 0
-1627 -1654 1863 0
-1627 -1655 1864 0
-1627 -1656 1865 0
-1627 -1657 1866 0
-1627 -1658 1867 0
-1627 -1659 1868 0
-1627 -1660 1869 0
-1627 -1661 1870 0
-1627 -1662 1871 0
-1627 -1663 1872 0
-1627 -1664 1873 0
-1627 -1665 1874 0
-1627 -1666 1875 0
-1628 -1635 1845 0
-1628 -1636 1846 0
-1628 -1637 1847 0
-1628 -1638 1848 0
-1628 -1639 1849 0
-1628 -1640 1850 0
-1628 -1641 1851 0
-1628 -1642 1852 0
-1628 -1643 1853 0
-1628 -1644 1854 0
-1628 -1645 1855 0
-1628 -1646 1856 0
-1628 -1647 1857 0
-1628 -1648 1858 0
-1628 -1649 1859 0
-1628 -1650 1860 0
-1628 -1651 1861 0
-1628 -1652 1862 0
-1628 -1653 1863 0
-1628 -1654 1864 0
-1628 -1655 1865 0
-1628 -1656 1866 0
-1628 -1657 1867 0
-1628 -1658 1868 0
-1628 -1659 1869 0
-1628 -1660 1870 0
-1628 -1661 1871 0
-1628 -1662 1872 0
-1628 -1663 1873 0
-1628 -1664 1874 0
-1628 -1665 1875 0
-1628 -1666 1876 0
-1629 -1635 1846 0
-1629 -1636 1847 0
-1629 -1637 1848 0
-1629 -1638 1849 0
-1629 -1639 1850 0
-1629 -1640 1851 0
-1629 -1641 1852 0
-1629 -1642 1853 0
-1629 -1643 1854 0
-1629 -1644 1855 0
-1629 -1645 1856 0
-1629 -1646 1857 0
-1629 -1647 1858 0
-1629 -1648 1859 0
-1629 -1649 1860 0
-1629 -1650 1861 0
-1629 -1651 1862 0
-1629 -1652 1863 0
-1629 -1653 1864 0
-1629 -1654 1865 0
-1629 -1655 1866 0
-1629 -1656 1867 0
-1629 -1657 1868 0
-1629 -1658 1869 0
-1629 -1659 1870 0
-1629 -1660 1871 0
-1629 -1661 1872 0
-1629 -1662 1873 0
-1629 -1663 1874 0
-1629 -1664 1875 0
-1629 -1665 1876 0
-1629 -1666 1877 0
-1630 -1635 1847 0
-1630 -1636 1848 0
-1630 -1637 1849 0
-1630 -1638 1850 0
-1630 -1639 1851 0
-1630 -1640 1852 0
-1630 -1641 1853 0
-1630 -1642 1854 0
-1630 -1643 1855 0
-1630 -1644 1856 0
-1630 -1645 1857 0
-1630 -1646 1858 0
-1630 -1647 1859 0
-1630 -1648 1860 0
-1630 -1649 1861 0
-1630 -1650 1862 0
-1630 -1651 1863 0
-1630 -1652 1864 0
-1630 -1653 1865 0
-1630 -1654 1866 0
-1630 -1655 1867 0
-1630 -1656 1868 0
-1630 -1657 1869 0
-1630 -1658 1870 0
-1630 -1659 1871 0
-1630 -1660 1872 0
-1630 -1661 1873 0
-1630 -1662 1874 0
-1630 -1663 1875 0
-1630 -1664 1876 0
-1630 -1665 1877 0
-1630 -1666 1878 0
-1631 -1635 1848 0
-1631 -1636 1849 0
-1631 -1637 1850 0
-1631 -1638 1851 0
-1631 -1639 1852 0
-1631 -1640 1853 0
-1631 -1641 1854 0
-1631 -1642 1855 0
-1631 -1643 1856 0
-1631 -1644 1857 0
-1631 -1645 1858 0
-1631 -1646 1859 0
-1631 -1647 1860 0
-1631 -1648 1861 0
-1631 -1649 1862 0
-1631 -1650 1863 0
-1631 -1651 1864 0
-1631 -1652 1865 0
-1631 -1653 1866 0
-1631 -1654 1867 0
-1631 -1655 1868 0
-1631 -1656 1869 0
-1631 -1657 1870 0
-1631 -1658 1871 0
-1631 -1659 1872 0
-1631 -1660 1873 0
-1631 -1661 1874 0
-1631 -1662 1875 0
-1631 -1663 1876 0
-1631 -1664 1877 0
-1631 -1665 1878 0
-1631 -1666 1879 0
-1632 -1635 1849 0
-1632 -1636 1850 0
-1632 -1637 1851 0
-1632 -1638 1852 0
-1632 -1639 1853 0
-1632 -1640 1854 0
-1632 -1641 1855 0
-1632 -1642 1856 0
-1632 -1643 1857 0
-1632 -1644 1858 0
-1632 -1645 1859 0
-1632 -1646 1860 0
-1632 -1647 1861 0
-1632 -1648 1862 0
-1632 -1649 1863 0
-1632 -1650 1864 0
-1632 -1651 1865 0
-1632 -1652 1866 0
-1632 -1653 1867 0
-1632 -1654 1868 0
-1632 -1655 1869 0
-1632 -1656 1870 0
-1632 -1657 1871 0
-1632 -1658 1872 0
-1632 -1659 1873 0
-1632 -1660 1874 0
-1632 -1661 1875 0
-1632 -1662 1876 0
-1632 -1663 1877 0
-1632 -1664 1878 0
-1632 -1665 1879 0
-1632 -1666 1880 0
-1633 -1635 1850 0
-1633 -1636 1851 0
-1633 -1637 1852 0
-1633 -1638 1853 0
-1633 -1639 1854 0
-1633 -1640 1855 0
-1633 -1641 1856 0
-1633 -1642 1857 0
-1633 -1643 1858 0
-1633 -1644 1859 0
-1633 -1645 1860 0
-1633 -1646 1861 0
-1633 -1647 1862 0
-1633 -1648 1863 0
-1633 -1649 1864 0
-1633 -1650 1865 0
-1633 -1651 1866 0
-1633 -1652 1867 0
-1633 -1653 1868 0
-1633 -1654 1869 0
-1633 -1655 1870 0
-1633 -1656 1871 0
-1633 -1657 1872 0
-1633 -1658 1873 0
-1633 -1659 1874 0
-1633 -1660 1875 0
-1633 -1661 1876 0
-1633 -1662 1877 0
-1633 -1663 1878 0
-1633 -1664 1879 0
-1633 -1665 1880 0
-1633 -1666 1881 0
-1634 -1635 1851 0
-1634 -1636 1852 0
-1634 -1637 1853 0
-1634 -1638 1854 0
-1634 -1639 1855 0
-1634 -1640 1856 0
-1634 -1641 1857 0
-1634 -1642 1858 0
-1634 -1643 1859 0
-1634 -1644 1860 0
-1634 -1645 1861 0
-1634 -1646 1862 0
-1634 -1647 1863 0
-1634 -1648 1864 0
-1634 -1649 1865 0
-1634 -1650 1866 0
-1634 -1651 1867 0
-1634 -1652 1868 0
-1634 -1653 1869 0
-1634 -1654 1870 0
-1634 -1655 1871 0
-1634 -1656 1872 0
-1634 -1657 1873 0
-1634 -1658 1874 0
-1634 -1659 1875 0
-1634 -1660 1876 0
-1634 -1661 1877 0
-1634 -1662 1878 0
-1634 -1663 1879 0
-1634 -1664 1880 0
-1634 -1665 1881 0
-1634 -1666 1882 0
-1699 1883 0
-1700 1884 0
-1701 1885 0
-1702 1886 0
-1703 1887 0
-1704 1888 0
-1705 1889 0
-1706 1890 0
-1707 1891 0
-1708 1892 0
-1709 1893 0
-1710 1894 0
-1711 1895 0
-1712 1896 0
-1713 1897 0
-1714 1898 0
-1715 1899 0
-1716 1900 0
-1717 1901 0
-1718 1902 0
-1719 1903 0
-1720 1904 0
-1721 1905 0
-1722 1906 0
-1723 1907 0
-1724 1908 0
-1725 1909 0
-1726 1910 0
-1727 1911 0
-1728 1912 0
-1729 1913 0
-1730 1914 0
-1667 1883 0
-1668 1884 0
-1669 1885 0
-1670 1886 0
-1671 1887 0
-1672 1888 0
-1673 1889 0
-1674 1890 0
-1675 1891 0
-1676 1892 0
-1677 1893 0
-1678 1894 0
-1679 1895 0
-1680 1896 0
-1681 1897 0
-1682 1898 0
-1683 1899 0
-1684 1900 0
-1685 1901 0
-1686 1902 0
-1687 1903 0
-1688 1904 0
-1689 1905 0
-1690 1906 0
-1691 1907 0
-1692 1908 0
-1693 1909 0
-1694 1910 0
-1695 1911 0
-1696 1912 0
-1697 1913 0
-1698 1914 0
-1667 -1699 1884 0
-1667 -1700 1885 0
-1667 -1701 1886 0
-1667 -1702 1887 0
-1667 -1703 1888 0
-1667 -1704 1889 0
-1667 -1705 1890 0
-1667 -1706 1891 0
-1667 -1707 1892 0
-1667 -1708 1893 0
-1667 -1709 1894 0
-1667 -1710 1895 0
-1667 -1711 1896 0
-1667 -1712 1897 0
-1667 -1713 1898 0
-1667 -1714 1899 0
-1667 -1715 1900 0
-1667 -1716 1901 0
-1667 -1717 1902 0
-1667 -1718 1903 0
-1667 -1719 1904 0
-1667 -1720 1905 0
-1667 -1721 1906 0
-1667 -1722 1907 0
-1667 -1723 1908 0
-1667 -1724 1909 0
-1667 -1725 1910 0
-1667 -1726 1911 0
-1667 -1727 1912 0
-1667 -1728 1913 0
-1667 -1729 1914 0
-1667 -1730 1915 0
-1668 -1699 1885 0
-1668 -1700 1886 0
-1668 -1701 1887 0
-1668 -1702 1888 0
-1668 -1703 1889 0
-1668 -1704 1890 0
-1668 -1705 1891 0
-1668 -1706 1892 0
-1668 -1707 1893 0
-1668 -1708 1894 0
-1668 -1709 1895 0
-1668 -1710 1896 0
-1668 -1711 1897 0
-1668 -1712 1898 0
-1668 -1713 1899 0
-1668 -1714 1900 0
-1668 -1715 1901 0
-1668 -1716 1902 0
-1668 -1717 1903 0
-1668 -1718 1904 0
-1668 -1719 1905 0
-1668 -1720 1906 0
-1668 -1721 1907 0
-1668 -1722 1908 0
-1668 -1723 1909 0
-1668 -1724 1910 0
-1668 -1725 1911 0
-1668 -1726 1912 0
-1668 -1727 1913 0
-1668 -1728 1914 0
-1668 -1729 1915 0
-1668 -1730 1916 0
-1669 -1699 1886 0
-1669 -1700 1887 0
-1669 -1701 1888 0
-1669 -1702 1889 0
-1669 -1703 1890 0
-1669 -1704 1891 0
-1669 -1705 1892 0
-1669 -1706 1893 0
-1669 -1707 1894 0
-1669 -1708 1895 0
-1669 -1709 1896 0
-1669 -1710 1897 0
-1669 -1711 1898 0
-1669 -1712 1899 0
-1669 -1713 1900 0
-1669 -1714 1901 0
-1669 -1715 1902 0
-1669 -1716 1903 0
-1669 -1717 1904 0
-1669 -1718 1905 0
-1669 -1719 1906 0
-1669 -1720 1907 0
-1669 -1721 1908 0
-1669 -1722 1909 0
-1669 -1723 1910 0
-1669 -1724 1911 0
-1669 -1725 1912 0
-1669 -1726 1913 0
-1669 -1727 1914 0
-1669 -1728 1915 0
-1669 -1729 1916 0
-1669 -1730 1917 0
-1670 -1699 1887 0
-1670 -1700 1888 0
-1670 -1701 1889 0
-1670 -1702 1890 0
-1670 -1703 1891 0
-1670 -1704 1892 0
-1670 -1705 1893 0
-1670 -1706 1894 0
-1670 -1707 1895 0
-1670 -1708 1896 0
-1670 -1709 1897 0
-1670 -1710 1898 0
-1670 -1711 1899 0
-1670 -1712 1900 0
-1670 -1713 1901 0
-1670 -1714 1902 0
-1670 -1715 1903 0
-1670 -1716 1904 0
-1670 -1717 1905 0
-1670 -1718 1906 0
-1670 -1719 1907 0
-1670 -1720 1908 0
-1670 -1721 1909 0
-1670 -1722 1910 0
-1670 -1723 1911 0
-1670 -1724 1912 0
-1670 -1725 1913 0
-1670 -1726 1914 0
-1670 -1727 1915 0
-1670 -1728 1916 0
-1670 -1729 1917 0
-1670 -1730 1918 0
-1671 -1699 1888 0
-1671 -1700 1889 0
-1671 -1701 1890 0
-1671 -1702 1891 0
-1671 -1703 1892 0
-1671 -1704 1893 0
-1671 -1705 1894 0
-1671 -1706 1895 0
-1671 -1707 1896 0
-1671 -1708 1897 0
-1671 -1709 1898 0
-1671 -1710 1899 0
-1671 -1711 1900 0
-1671 -1712 1901 0
-1671 -1713 1902 0
-1671 -1714 1903 0
-1671 -1715 1904 0
-1671 -1716 1905 0
-1671 -1717 1906 0
-1671 -1718 1907 0
-1671 -1719 1908 0
-1671 -1720 1909 0
-1671 -1721 1910 0
-1671 -1722 1911 0
-1671 -1723 1912 0
-1671 -1724 1913 0
-1671 -1725 1914 0
-1671 -1726 1915 0
-1671 -1727 1916 0
-1671 -1728 1917 0
-1671 -1729 1918 0
-1671 -1730 1919 0
-1672 -1699 1889 0
-1672 -1700 1890 0
-1672 -1701 1891 0
-1672 -1702 1892 0
-1672 -1703 1893 0
-1672 -1704 1894 0
-1672 -1705 1895 0
-1672 -1706 1896 0
-1672 -1707 1897 0
-1672 -1708 1898 0
-1672 -1709 1899 0
-1672 -1710 1900 0
-1672 -1711 1901 0
-1672 -1712 1902 0
-1672 -1713 1903 0
-1672 -1714 1904 0
-1672 -1715 1905 0
-1672 -1716 1906 0
-1672 -1717 1907 0
-1672 -1718 1908 0
-1672 -1719 1909 0
-1672 -1720 1910 0
-1672 -1721 1911 0
-1672 -1722 1912 0
-1672 -1723 1913 0
-1672 -1724 1914 0
-1672 -1725 1915 0
-1672 -1726 1916 0
-1672 -1727 1917 0
-1672 -1728 1918 0
-1672 -1729 1919 0
-1672 -1730 1920 0
-1673 -1699 1890 0
-1673 -1700 1891 0
-1673 -1701 1892 0
-1673 -1702 1893 0
-1673 -1703 1894 0
-1673 -1704 1895 0
-1673 -1705 1896 0
-1673 -1706 1897 0
-1673 -1707 1898 0
-1673 -1708 1899 0
-1673 -1709 1900 0
-1673 -1710 1901 0
-1673 -1711 1902 0
-1673 -1712 1903 0
-1673 -1713 1904 0
-1673 -1714 1905 0
-1673 -1715 1906 0
-1673 -1716 1907 0
-1673 -1717 1908 0
-1673 -1718 1909 0
-1673 -1719 1910 0
-1673 -1720 1911 0
-1673 -1721 1912 0
-1673 -1722 1913 0
-1673 -1723 1914 0
-1673 -1724 1915 0
-1673 -1725 1916 0
-1673 -1726 1917 0
-1673 -1727 1918 0
-1673 -1728 1919 0
-1673 -1729 1920 0
-1673 -1730 1921 0
-1674 -1699 1891 0
-1674 -1700 1892 0
-1674 -1701 1893 0
-1674 -1702 1894 0
-1674 -1703 1895 0
-1674 -1704 1896 0
-1674 -1705 1897 0
-1674 -1706 1898 0
-1674 -1707 1899 0
-1674 -1708 1900 0
-1674 -1709 1901 0
-1674 -1710 1902 0
-1674 -1711 1903 0
-1674 -1712 1904 0
-1674 -1713 1905 0
-1674 -1714 1906 0
-1674 -1715 1907 0
-1674 -1716 1908 0
-1674 -1717 1909 0
-1674 -1718 1910 0
-1674 -1719 1911 0
-1674 -1720 1912 0
-1674 -1721 1913 0
-1674 -1722 1914 0
-1674 -1723 1915 0
-1674 -1724 1916 0
-1674 -1725 1917 0
-1674 -1726 1918 0
-1674 -1727 1919 0
-1674 -1728 1920 0
-1674 -1729 1921 0
-1674 -1730 1922 0
-1675 -1699 1892 0
-1675 -1700 1893 0
-1675 -1701 1894 0
-1675 -1702 1895 0
-1675 -1703 1896 0
-1675 -1704 1897 0
-1675 -1705 1898 0
-1675 -1706 1899 0
-1675 -1707 1900 0
-1675 -1708 1901 0
-1675 -1709 1902 0
-1675 -1710 1903 0
-1675 -1711 1904 0
-1675 -1712 1905 0
-1675 -1713 1906 0
-1675 -1714 1907 0
-1675 -1715 1908 0
-1675 -1716 1909 0
-1675 -1717 1910 0
-1675 -1718 1911 0
-1675 -1719 1912 0
-1675 -1720 1913 0
-1675 -1721 1914 0
-1675 -1722 1915 0
-1675 -1723 1916 0
-1675 -1724 1917 0
-1675 -1725 1918 0
-1675 -1726 1919 0
-1675 -1727 1920 0
-1675 -1728 1921 0
-1675 -1729 1922 0
-1675 -1730 1923 0
-1676 -1699 1893 0
-1676 -1700 1894 0
-1676 -1701 1895 0
-1676 -1702 1896 0
-1676 -1703 1897 0
-1676 -1704 1898 0
-1676 -1705 1899 0
-1676 -1706 1900 0
-1676 -1707 1901 0
-1676 -1708 1902 0
-1676 -1709 1903 0
-1676 -1710 1904 0
-1676 -1711 1905 0
-1676 -1712 1906 0
-1676 -1713 1907 0
-1676 -1714 1908 0
-1676 -1715 1909 0
-1676 -1716 1910 0
-1676 -1717 1911 0
-1676 -1718 1912 0
-1676 -1719 1913 0
-1676 -1720 1914 0
-1676 -1721 1915 0
-1676 -1722 1916 0
-1676 -1723 1917 0
-1676 -1724 1918 0
-1676 -1725 1919 0
-1676 -1726 1920 0
-1676 -1727 1921 0
-1676 -1728 1922 0
-1676 -1729 1923 0
-1676 -1730 1924 0
-1677 -1699 1894 0
-1677 -1700 1895 0
-1677 -1701 1896 0
-1677 -1702 1897 0
-1677 -1703 1898 0
-1677 -1704 1899 0
-1677 -1705 1900 0
-1677 -1706 1901 0
-1677 -1707 1902 0
-1677 -1708 1903 0
-1677 -1709 1904 0
-1677 -1710 1905 0
-1677 -1711 1906 0
-1677 -1712 1907 0
-1677 -1713 1908 0
-1677 -1714 1909 0
-1677 -1715 1910 0
-1677 -1716 1911 0
-1677 -1717 1912 0
-1677 -1718 1913 0
-1677 -1719 1914 0
-1677 -1720 1915 0
-1677 -1721 1916 0
-1677 -1722 1917 0
-1677 -1723 1918 0
-1677 -1724 1919 0
-1677 -1725 1920 0
-1677 -1726 1921 0
-1677 -1727 1922 0
-1677 -1728 1923 0
-1677 -1729 1924 0
-1677 -1730 1925 0
-1678 -1699 1895 0
-1678 -1700 1896 0
-1678 -1701 1897 0
-1678 -1702 1898 0
-1678 -1703 1899 0
-1678 -1704 1900 0
-1678 -1705 1901 0
-1678 -1706 1902 0
-1678 -1707 1903 0
-1678 -1708 1904 0
-1678 -1709 1905 0
-1678 -1710 1906 0
-1678 -1711 1907 0
-1678 -1712 1908 0
-1678 -1713 1909 0
-1678 -1714 1910 0
-1678 -1715 1911 0
-1678 -1716 1912 0
-1678 -1717 1913 0
-1678 -1718 1914 0
-1678 -1719 1915 0
-1678 -1720 1916 0
-1678 -1721 1917 0
-1678 -1722 1918 0
-1678 -1723 1919 0
-1678 -1724 1920 0
-1678 -1725 1921 0
-1678 -1726 1922 0
-1678 -1727 1923 0
-1678 -1728 1924 0
-1678 -1729 1925 0
-1678 -1730 1926 0
-1679 -1699 1896 0
-1679 -1700 1897 0
-1679 -1701 1898 0
-1679 -1702 1899 0
-1679 -1703 1900 0
-1679 -1704 1901 0
-1679 -1705 1902 0
-1679 -1706 1903 0
-1679 -1707 1904 0
-1679 -1708 1905 0
-1679 -1709 1906 0
-1679 -1710 1907 0
-1679 -1711 1908 0
-1679 -1712 1909 0
-1679 -1713 1910 0
-1679 -1714 1911 0
-1679 -1715 1912 0
-1679 -1716 1913 0
-1679 -1717 1914 0
-1679 -1718 1915 0
-1679 -1719 1916 0
-1679 -1720 1917 0
-1679 -1721 1918 0
-1679 -1722 1919 0
-1679 -1723 1920 0
-1679 -1724 1921 0
-1679 -1725 1922 0
-1679 -1726 1923 0
-1679 -1727 1924 0
-1679 -1728 1925 0
-1679 -1729 1926 0
-1679 -1730 1927 0
-1680 -1699 1897 0
-1680 -1700 1898 0
-1680 -1701 1899 0
-1680 -1702 1900 0
-1680 -1703 1901 0
-1680 -1704 1902 0
-1680 -1705 1903 0
-1680 -1706 1904 0
-1680 -1707 1905 0
-1680 -1708 1906 0
-1680 -1709 1907 0
-1680 -1710 1908 0
-1680 -1711 1909 0
-1680 -1712 1910 0
-1680 -1713 1911 0
-1680 -1714 1912 0
-1680 -1715 1913 0
-1680 -1716 1914 0
-1680 -1717 1915 0
-1680 -1718 1916 0
-1680 -1719 1917 0
-1680 -1720 1918 0
-1680 -1721 1919 0
-1680 -1722 1920 0
-1680 -1723 1921 0
-1680 -1724 1922 0
-1680 -1725 1923 0
-1680 -1726 1924 0
-1680 -1727 1925 0
-1680 -1728 1926 0
-1680 -1729 1927 0
-1680 -1730 1928 0
-1681 -1699 1898 0
-1681 -1700 1899 0
-1681 -1701 1900 0
-1681 -1702 1901 0
-1681 -1703 1902 0
-1681 -1704 1903 0
-1681 -1705 1904 0
-1681 -1706 1905 0
-1681 -1707 1906 0
-1681 -1708 1907 0
-1681 -1709 1908 0
-1681 -1710 1909 0
-1681 -1711 1910 0
-1681 -1712 1911 0
-1681 -1713 1912 0
-1681 -1714 1913 0
-1681 -1715 1914 0
-1681 -1716 1915 0
-1681 -1717 1916 0
-1681 -1718 1917 0
-1681 -1719 1918 0
-1681 -1720 1919 0
-1681 -1721 1920 0
-1681 -1722 1921 0
-1681 -1723 1922 0
-1681 -1724 1923 0
-1681 -1725 1924 0
-1681 -1726 1925 0
-1681 -1727 1926 0
-1681 -1728 1927 0
-1681 -1729 1928 0
-1681 -1730 1929 0
-1682 -1699 1899 0
-1682 -1700 1900 0
-1682 -1701 1901 0
-1682 -1702 1902 0
-1682 -1703 1903 0
-1682 -1704 1904 0
-1682 -1705 1905 0
-1682 -1706 1906 0
-1682 -1707 1907 0
-1682 -1708 1908 0
-1682 -1709 1909 0
-1682 -1710 1910 0
-1682 -1711 1911 0
-1682 -1712 1912 0
-1682 -1713 1913 0
-1682 -1714 1914 0
-1682 -1715 1915 0
-1682 -1716 1916 0
-1682 -1717 1917 0
-1682 -1718 1918 0
-1682 -1719 1919 0
-1682 -1720 1920 0
-1682 -1721 1921 0
-1682 -1722 1922 0
-1682 -1723 1923 0
-1682 -1724 1924 0
-1682 -1725 1925 0
-1682 -1726 1926 0
-1682 -1727 1927 0
-1682 -1728 1928 0
-1682 -1729 1929 0
-1682 -1730 1930 0
-1683 -1699 1900 0
-1683 -1700 1901 0
-1683 -1701 1902 0
-1683 -1702 1903 0
-1683 -1703 1904 0
-1683 -1704 1905 0
-1683 -1705 1906 0
-1683 -1706 1907 0
-1683 -1707 1908 0
-1683 -1708 1909 0
-1683 -1709 1910 0
-1683 -1710 1911 0
-1683 -1711 1912 0
-1683 -1712 1913 0
-1683 -1713 1914 0
-1683 -1714 1915 0
-1683 -1715 1916 0
-1683 -1716 1917 0
-1683 -1717 1918 0
-1683 -1718 1919 0
-1683 -1719 1920 0
-1683 -1720 1921 0
-1683 -1721 1922 0
-1683 -1722 1923 0
-1683 -1723 1924 0
-1683 -1724 1925 0
-1683 -1725 1926 0
-1683 -1726 1927 0
-1683 -1727 1928 0
-1683 -1728 1929 0
-1683 -1729 1930 0
-1683 -1730 1931 0
-1684 -1699 1901 0
-1684 -1700 1902 0
-1684 -1701 1903 0
-1684 -1702 1904 0
-1684 -1703 1905 0
-1684 -1704 1906 0
-1684 -1705 1907 0
-1684 -1706 1908 0
-1684 -1707 1909 0
-1684 -1708 1910 0
-1684 -1709 1911 0
-1684 -1710 1912 0
-1684 -1711 1913 0
-1684 -1712 1914 0
-1684 -1713 1915 0
-1684 -1714 1916 0
-1684 -1715 1917 0
-1684 -1716 1918 0
-1684 -1717 1919 0
-1684 -1718 1920 0
-1684 -1719 1921 0
-1684 -1720 1922 0
-1684 -1721 1923 0
-1684 -1722 1924 0
-1684 -1723 1925 0
-1684 -1724 1926 0
-1684 -1725 1927 0
-1684 -1726 1928 0
-1684 -1727 1929 0
-1684 -1728 1930 0
-1684 -1729 1931 0
-1684 -1730 1932 0
-1685 -1699 1902 0
-1685 -1700 1903 0
-1685 -1701 1904 0
-1685 -1702 1905 0
-1685 -1703 1906 0
-1685 -1704 1907 0
-1685 -1705 1908 0
-1685 -1706 1909 0
-1685 -1707 1910 0
-1685 -1708 1911 0
-1685 -1709 1912 0
-1685 -1710 1913 0
-1685 -1711 1914 0
-1685 -1712 1915 0
-1685 -1713 1916 0
-1685 -1714 1917 0
-1685 -1715 1918 0
-1685 -1716 1919 0
-1685 -1717 1920 0
-1685 -1718 1921 0
-1685 -1719 1922 0
-1685 -1720 1923 0
-1685 -1721 1924 0
-1685 -1722 1925 0
-1685 -1723 1926 0
-1685 -1724 1927 0
-1685 -1725 1928 0
-1685 -1726 1929 0
-1685 -1727 1930 0
-1685 -1728 1931 0
-1685 -1729 1932 0
-1685 -1730 1933 0
-1686 -1699 1903 0
-1686 -1700 1904 0
-1686 -1701 1905 0
-1686 -1702 1906 0
-1686 -1703 1907 0
-1686 -1704 1908 0
-1686 -1705 1909 0
-1686 -1706 1910 0
-1686 -1707 1911 0
-1686 -1708 1912 0
-1686 -1709 1913 0
-1686 -1710 1914 0
-1686 -1711 1915 0
-1686 -1712 1916 0
-1686 -1713 1917 0
-1686 -1714 1918 0
-1686 -1715 1919 0
-1686 -1716 1920 0
-1686 -1717 1921 0
-1686 -1718 1922 0
-1686 -1719 1923 0
-1686 -1720 1924 0
-1686 -1721 1925 0
-1686 -1722 1926 0
-1686 -1723 1927 0
-1686 -1724 1928 0
-1686 -1725 1929 0
-1686 -1726 1930 0
-1686 -1727 1931 0
-1686 -1728 1932 0
-1686 -1729 1933 0
-1686 -1730 1934 0
-1687 -1699 1904 0
-1687 -1700 1905 0
-1687 -1701 1906 0
-1687 -1702 1907 0
-1687 -1703 1908 0
-1687 -1704 1909 0
-1687 -1705 1910 0
-1687 -1706 1911 0
-1687 -1707 1912 0
-1687 -1708 1913 0
-1687 -1709 1914 0
-1687 -1710 1915 0
-1687 -1711 1916 0
-1687 -1712 1917 0
-1687 -1713 1918 0
-1687 -1714 1919 0
-1687 -1715 1920 0
-1687 -1716 1921 0
-1687 -1717 1922 0
-1687 -1718 1923 0
-1687 -1719 1924 0
-1687 -1720 1925 0
-1687 -1721 1926 0
-1687 -1722 1927 0
-1687 -1723 1928 0
-1687 -1724 1929 0
-1687 -1725 1930 0
-1687 -1726 1931 0
-1687 -1727 1932 0
-1687 -1728 1933 0
-1687 -1729 1934 0
-1687 -1730 1935 0
-1688 -1699 1905 0
-1688 -1700 1906 0
-1688 -1701 1907 0
-1688 -1702 1908 0
-1688 -1703 1909 0
-1688 -1704 1910 0
-1688 -1705 1911 0
-1688 -1706 1912 0
-1688 -1707 1913 0
-1688 -1708 1914 0
-1688 -1709 1915 0
-1688 -1710 1916 0
-1688 -1711 1917 0
-1688 -1712 1918 0
-1688 -1713 1919 0
-1688 -1714 1920 0
-1688 -1715 1921 0
-1688 -1716 1922 0
-1688 -1717 1923 0
-1688 -1718 1924 0
-1688 -1719 1925 0
-1688 -1720 1926 0
-1688 -1721 1927 0
-1688 -1722 1928 0
-1688 -1723 1929 0
-1688 -1724 1930 0
-1688 -1725 1931 0
-1688 -1726 1932 0
-1688 -1727 1933 0
-1688 -1728 1934 0
-1688 -1729 1935 0
-1688 -1730 1936 0
-1689 -1699 1906 0
-1689 -1700 1907 0
-1689 -1701 1908 0
-1689 -1702 1909 0
-1689 -1703 1910 0
-1689 -1704 1911 0
-1689 -1705 1912 0
-1689 -1706 1913 0
-1689 -1707 1914 0
-1689 -1708 1915 0
-1689 -1709 1916 0
-1689 -1710 1917 0
-1689 -1711 1918 0
-1689 -1712 1919 0
-1689 -1713 1920 0
-1689 -1714 1921 0
-1689 -1715 1922 0
-1689 -1716 1923 0
-1689 -1717 1924 0
-1689 -1718 1925 0
-1689 -1719 1926 0
-1689 -1720 1927 0
-1689 -1721 1928 0
-1689 -1722 1929 0
-1689 -1723 1930 0
-1689 -1724 1931 0
-1689 -1725 1932 0
-1689 -1726 1933 0
-1689 -1727 1934 0
-1689 -1728 1935 0
-1689 -1729 1936 0
-1689 -1730 1937 0
-1690 -1699 1907 0
-1690 -1700 1908 0
-1690 -1701 1909 0
-1690 -1702 1910 0
-1690 -1703 1911 0
-1690 -1704 1912 0
-1690 -1705 1913 0
-1690 -1706 1914 0
-1690 -1707 1915 0
-1690 -1708 1916 0
-1690 -1709 1917 0
-1690 -1710 1918 0
-1690 -1711 1919 0
-1690 -1712 1920 0
-1690 -1713 1921 0
-1690 -1714 1922 0
-1690 -1715 1923 0
-1690 -1716 1924 0
-1690 -1717 1925 0
-1690 -1718 1926 0
-1690 -1719 1927 0
-1690 -1720 1928 0
-1690 -1721 1929 0
-1690 -1722 1930 0
-1690 -1723 1931 0
-1690 -1724 1932 0
-1690 -1725 1933 0
-1690 -1726 1934 0
-1690 -1727 1935 0
-1690 -1728 1936 0
-1690 -1729 1937 0
-1690 -1730 1938 0
-1691 -1699 1908 0
-1691 -1700 1909 0
-1691 -1701 1910 0
-1691 -1702 1911 0
-1691 -1703 1912 0
-1691 -1704 1913 0
-1691 -1705 1914 0
-1691 -1706 1915 0
-1691 -1707 1916 0
-1691 -1708 1917 0
-1691 -1709 1918 0
-1691 -1710 1919 0
-1691 -1711 1920 0
-1691 -1712 1921 0
-1691 -1713 1922 0
-1691 -1714 1923 0
-1691 -1715 1924 0
-1691 -1716 1925 0
-1691 -1717 1926 0
-1691 -1718 1927 0
-1691 -1719 1928 0
-1691 -1720 1929 0
-1691 -1721 1930 0
-1691 -1722 1931 0
-1691 -1723 1932 0
-1691 -1724 1933 0
-1691 -1725 1934 0
-1691 -1726 1935 0
-1691 -1727 1936 0
-1691 -1728 1937 0
-1691 -1729 1938 0
-1691 -1730 1939 0
-1692 -1699 1909 0
-1692 -1700 1910 0
-1692 -1701 1911 0
-1692 -1702 1912 0
-1692 -1703 1913 0
-1692 -1704 1914 0
-1692 -1705 1915 0
-1692 -1706 1916 0
-1692 -1707 1917 0
-1692 -1708 1918 0
-1692 -1709 1919 0
-1692 -1710 1920 0
-1692 -1711 1921 0
-1692 -1712 1922 0
-1692 -1713 1923 0
-1692 -1714 1924 0
-1692 -1715 1925 0
-1692 -1716 1926 0
-1692 -1717 1927 0
-1692 -1718 1928 0
-1692 -1719 1929 0
-1692 -1720 1930 0
-1692 -1721 1931 0
-1692 -1722 1932 0
-1692 -1723 1933 0
-1692 -1724 1934 0
-1692 -1725 1935 0
-1692 -1726 1936 0
-1692 -1727 1937 0
-1692 -1728 1938 0
-1692 -1729 1939 0
-1692 -1730 1940 0
-1693 -1699 1910 0
-1693 -1700 1911 0
-1693 -1701 1912 0
-1693 -1702 1913 0
-1693 -1703 1914 0
-1693 -1704 1915 0
-1693 -1705 1916 0
-1693 -1706 1917 0
-1693 -1707 1918 0
-1693 -1708 1919 0
-1693 -1709 1920 0
-1693 -1710 1921 0
-1693 -1711 1922 0
-1693 -1712 1923 0
-1693 -1713 1924 0
-1693 -1714 1925 0
-1693 -1715 1926 0
-1693 -1716 1927 0
-1693 -1717 1928 0
-1693 -1718 1929 0
-1693 -1719 1930 0
-1693 -1720 1931 0
-1693 -1721 1932 0
-1693 -1722 1933 0
-1693 -1723 1934 0
-1693 -1724 1935 0
-1693 -1725 1936 0
-1693 -1726 1937 0
-1693 -1727 1938 0
-1693 -1728 1939 0
-1693 -1729 1940 0
-1693 -1730 1941 0
-1694 -1699 1911 0
-1694 -1700 1912 0
-1694 -1701 1913 0
-1694 -1702 1914 0
-1694 -1703 1915 0
-1694 -1704 1916 0
-1694 -1705 1917 0
-1694 -1706 1918 0
-1694 -1707 1919 0
-1694 -1708 1920 0
-1694 -1709 1921 0
-1694 -1710 1922 0
-1694 -1711 1923 0
-1694 -1712 1924 0
-1694 -1713 1925 0
-1694 -1714 1926 0
-1694 -1715 1927 0
-1694 -1716 1928 0
-1694 -1717 1929 0
-1694 -1718 1930 0
-1694 -1719 1931 0
-1694 -1720 1932 0
-1694 -1721 1933 0
-1694 -1722 1934 0
-1694 -1723 1935 0
-1694 -1724 1936 0
-1694 -1725 1937 0
-1694 -1726 1938 0
-1694 -1727 1939 0
-1694 -1728 1940 0
-1694 -1729 1941 0
-1694 -1730 1942 0
-1695 -1699 1912 0
-1695 -1700 1913 0
-1695 -1701 1914 0
-1695 -1702 1915 0
-1695 -1703 1916 0
-1695 -1704 1917 0
-1695 -1705 1918 0
-1695 -1706 1919 0
-1695 -1707 1920 0
-1695 -1708 1921 0
-1695 -1709 1922 0
-1695 -1710 1923 0
-1695 -1711 1924 0
-1695 -1712 1925 0
-1695 -1713 1926 0
-1695 -1714 1927 0
-1695 -1715 1928 0
-1695 -1716 1929 0
-1695 -1717 1930 0
-1695 -1718 1931 0
-1695 -1719 1932 0
-1695 -1720 1933 0
-1695 -1721 1934 0
-1695 -1722 1935 0
-1695 -1723 1936 0
-1695 -1724 1937 0
-1695 -1725 1938 0
-1695 -1726 1939 0
-1695 -1727 1940 0
-1695 -1728 1941 0
-1695 -1729 1942 0
-1695 -1730 1943 0
-1696 -1699 1913 0
-1696 -1700 1914 0
-1696 -1701 1915 0
-1696 -1702 1916 0
-1696 -1703 1917 0
-1696 -1704 1918 0
-1696 -1705 1919 0
-1696 -1706 1920 0
-1696 -1707 1921 0
-1696 -1708 1922 0
-1696 -1709 1923 0
-1696 -1710 1924 0
-1696 -1711 1925 0
-1696 -1712 1926 0
-1696 -1713 1927 0
-1696 -1714 1928 0
-1696 -1715 1929 0
-1696 -1716 1930 0
-1696 -1717 1931 0
-1696 -1718 1932 0
-1696 -1719 1933 0
-1696 -1720 1934 0
-1696 -1721 1935 0
-1696 -1722 1936 0
-1696 -1723 1937 0
-1696 -1724 1938 0
-1696 -1725 1939 0
-1696 -1726 1940 0
-1696 -1727 1941 0
-1696 -1728 1942 0
-1696 -1729 1943 0
-1696 -1730 1944 0
-1697 -1699 1914 0
-1697 -1700 1915 0
-1697 -1701 1916 0
-1697 -1702 1917 0
-1697 -1703 1918 0
-1697 -1704 1919 0
-1697 -1705 1920 0
-1697 -1706 1921 0
-1697 -1707 1922 0
-1697 -1708 1923 0
-1697 -1709 1924 0
-1697 -1710 1925 0
-1697 -1711 1926 0
-1697 -1712 1927 0
-1697 -1713 1928 0
-1697 -1714 1929 0
-1697 -1715 1930 0
-1697 -1716 1931 0
-1697 -1717 1932 0
-1697 -1718 1933 0
-1697 -1719 1934 0
-1697 -1720 1935 0
-1697 -1721 1936 0
-1697 -1722 1937 0
-1697 -1723 1938 0
-1697 -1724 1939 0
-1697 -1725 1940 0
-1697 -1726 1941 0
-1697 -1727 1942 0
-1697 -1728 1943 0
-1697 -1729 1944 0
-1697 -1730 1945 0
-1698 -1699 1915 0
-1698 -1700 1916 0
-1698 -1701 1917 0
-1698 -1702 1918 0
-1698 -1703 1919 0
-1698 -1704 1920 0
-1698 -1705 1921 0
-1698 -1706 1922 0
-1698 -1707 1923 0
-1698 -1708 1924 0
-1698 -1709 1925 0
-1698 -1710 1926 0
-1698 -1711 1927 0
-1698 -1712 1928 0
-1698 -1713 1929 0
-1698 -1714 1930 0
-1698 -1715 1931 0
-1698 -1716 1932 0
-1698 -1717 1933 0
-1698 -1718 1934 0
-1698 -1719 1935 0
-1698 -1720 1936 0
-1698 -1721 1937 0
-1698 -1722 1938 0
-1698 -1723 1939 0
-1698 -1724 1940 0
-1698 -1725 1941 0
-1698 -1726 1942 0
-1698 -1727 1943 0
-1698 -1728 1944 0
-1698 -1729 1945 0
-1698 -1730 1946 0
-1763 1947 0
-1764 1948 0
-1765 1949 0
-1766 1950 0
-1767 1951 0
-1768 1952 0
-1769 1953 0
-1770 1954 0
-1771 1955 0
-1772 1956 0
-1773 1957 0
-1774 1958 0
-1775 1959 0
-1776 1960 0
-1777 1961 0
-1778 1962 0
-1779 1963 0
-1780 1964 0
-1781 1965 0
-1782 1966 0
-1783 1967 0
-1784 1968 0
-1785 1969 0
-1786 1970 0
-1787 1971 0
-1788 1972 0
-1789 1973 0
-1790 1974 0
-1791 1975 0
-1792 1976 0
-1793 1977 0
-1794 1978 0
-1731 1947 0
-1732 1948 0
-1733 1949 0
-1734 1950 0
-1735 1951 0
-1736 1952 0
-1737 1953 0
-1738 1954 0
-1739 1955 0
-1740 1956 0
-1741 1957 0
-1742 1958 0
-1743 1959 0
-1744 1960 0
-1745 1961 0
-1746 1962 0
-1747 1963 0
-1748 1964 0
-1749 1965 0
-1750 1966 0
-1751 1967 0
-1752 1968 0
-1753 1969 0
-1754 1970 0
-1755 1971 0
-1756 1972 0
-1757 1973 0
-1758 1974 0
-1759 1975 0
-1760 1976 0
-1761 1977 0
-1762 1978 0
-1731 -1763 1948 0
-1731 -1764 1949 0
-1731 -1765 1950 0
-1731 -1766 1951 0
-1731 -1767 1952 0
-1731 -1768 1953 0
-1731 -1769 1954 0
-1731 -1770 1955 0
-1731 -1771 1956 0
-1731 -1772 1957 0
-1731 -1773 1958 0
-1731 -1774 1959 0
-1731 -1775 1960 0
-1731 -1776 1961 0
-1731 -1777 1962 0
-1731 -1778 1963 0
-1731 -1779 1964 0
-1731 -1780 1965 0
-1731 -1781 1966 0
-1731 -1782 1967 0
-1731 -1783 1968 0
-1731 -1784 1969 0
-1731 -1785 1970 0
-1731 -1786 1971 0
-1731 -1787 1972 0
-1731 -1788 1973 0
-1731 -1789 1974 0
-1731 -1790 1975 0
-1731 -1791 1976 0
-1731 -1792 1977 0
-1731 -1793 1978 0
-1731 -1794 1979 0
-1732 -1763 1949 0
-1732 -1764 1950 0
-1732 -1765 1951 0
-1732 -1766 1952 0
-1732 -1767 1953 0
-1732 -1768 1954 0
-1732 -1769 1955 0
-1732 -1770 1956 0
-1732 -1771 1957 0
-1732 -1772 1958 0
-1732 -1773 1959 0
-1732 -1774 1960 0
-1732 -1775 1961 0
-1732 -1776 1962 0
-1732 -1777 1963 0
-1732 -1778 1964 0
-1732 -1779 1965 0
-1732 -1780 1966 0
-1732 -1781 1967 0
-1732 -1782 1968 0
-1732 -1783 1969 0
-1732 -1784 1970 0
-1732 -1785 1971 0
-1732 -1786 1972 0
-1732 -1787 1973 0
-1732 -1788 1974 0
-1732 -1789 1975 0
-1732 -1790 1976 0
-1732 -1791 1977 0
-1732 -1792 1978 0
-1732 -1793 1979 0
-1732 -1794 1980 0
-1733 -1763 1950 0
-1733 -1764 1951 0
-1733 -1765 1952 0
-1733 -1766 1953 0
-1733 -1767 1954 0
-1733 -1768 1955 0
-1733 -1769 1956 0
-1733 -1770 1957 0
-1733 -1771 1958 0
-1733 -1772 1959 0
-1733 -1773 1960 0
-1733 -1774 1961 0
-1733 -1775 1962 0
-1733 -1776 1963 0
-1733 -1777 1964 0
-1733 -1778 1965 0
-1733 -1779 1966 0
-1733 -1780 1967 0
-1733 -1781 1968 0
-1733 -1782 1969 0
-1733 -1783 1970 0
-1733 -1784 1971 0
-1733 -1785 1972 0
-1733 -1786 1973 0
-1733 -1787 1974 0
-1733 -1788 1975 0
-1733 -1789 1976 0
-1733 -1790 1977 0
-1733 -1791 1978 0
-1733 -1792 1979 0
-1733 -1793 1980 0
-1733 -1794 1981 0
-1734 -1763 1951 0
-1734 -1764 1952 0
-1734 -1765 1953 0
-1734 -1766 1954 0
-1734 -1767 1955 0
-1734 -1768 1956 0
-1734 -1769 1957 0
-1734 -1770 1958 0
-1734 -1771 1959 0
-1734 -1772 1960 0
-1734 -1773 1961 0
-1734 -1774 1962 0
-1734 -1775 1963 0
-1734 -1776 1964 0
-1734 -1777 1965 0
-1734 -1778 1966 0
-1734 -1779 1967 0
-1734 -1780 1968 0
-1734 -1781 1969 0
-1734 -1782 1970 0
-1734 -1783 1971 0
-1734 -1784 1972 0
-1734 -1785 1973 0
-1734 -1786 1974 0
-1734 -1787 1975 0
-1734 -1788 1976 0
-1734 -1789 1977 0
-1734 -1790 1978 0
-1734 -1791 1979 0
-1734 -1792 1980 0
-1734 -1793 1981 0
-1734 -1794 1982 0
-1735 -1763 1952 0
-1735 -1764 1953 0
-1735 -1765 1954 0
-1735 -1766 1955 0
-1735 -1767 1956 0
-1735 -1768 1957 0
-1735 -1769 1958 0
-1735 -1770 1959 0
-1735 -1771 1960 0
-1735 -1772 1961 0
-1735 -1773 1962 0
-1735 -1774 1963 0
-1735 -1775 1964 0
-1735 -1776 1965 0
-1735 -1777 1966 0
-1735 -1778 1967 0
-1735 -1779 1968 0
-1735 -1780 1969 0
-1735 -1781 1970 0
-1735 -1782 1971 0
-1735 -1783 1972 0
-1735 -1784 1973 0
-1735 -1785 1974 0
-1735 -1786 1975 0
-1735 -1787 1976 0
-1735 -1788 1977 0
-1735 -1789 1978 0
-1735 -1790 1979 0
-1735 -1791 1980 0
-1735 -1792 1981 0
-1735 -1793 1982 0
-1735 -1794 1983 0
-1736 -1763 1953 0
-1736 -1764 1954 0
-1736 -1765 1955 0
-1736 -1766 1956 0
-1736 -1767 1957 0
-1736 -1768 1958 0
-1736 -1769 1959 0
-1736 -1770 1960 0
-1736 -1771 1961 0
-1736 -1772 1962 0
-1736 -1773 1963 0
-1736 -1774 1964 0
-1736 -1775 1965 0
-1736 -1776 1966 0
-1736 -1777 1967 0
-1736 -1778 1968 0
-1736 -1779 1969 0
-1736 -1780 1970 0
-1736 -1781 1971 0
-1736 -1782 1972 0
-1736 -1783 1973 0
-1736 -1784 1974 0
-1736 -1785 1975 0
-1736 -1786 1976 0
-1736 -1787 1977 0
-1736 -1788 1978 0
-1736 -1789 1979 0
-1736 -1790 1980 0
-1736 -1791 1981 0
-1736 -1792 1982 0
-1736 -1793 1983 0
-1736 -1794 1984 0
-1737 -1763 1954 0
-1737 -1764 1955 0
-1737 -1765 1956 0
-1737 -1766 1957 0
-1737 -1767 1958 0
-1737 -1768 1959 0
-1737 -1769 1960 0
-1737 -1770 1961 0
-1737 -1771 1962 0
-1737 -1772 1963 0
-1737 -1773 1964 0
-1737 -1774 1965 0
-1737 -1775 1966 0
-1737 -1776 1967 0
-1737 -1777 1968 0
-1737 -1778 1969 0
-1737 -1779 1970 0
-1737 -1780 1971 0
-1737 -1781 1972 0
-1737 -1782 1973 0
-1737 -1783 1974 0
-1737 -1784 1975 0
-1737 -1785 1976 0
-1737 -1786 1977 0
-1737 -1787 1978 0
-1737 -1788 1979 0
-1737 -1789 1980 0
-1737 -1790 1981 0
-1737 -1791 1982 0
-1737 -1792 1983 0
-1737 -1793 1984 0
-1737 -1794 1985 0
-1738 -1763 1955 0
-1738 -1764 1956 0
-1738 -1765 1957 0
-1738 -1766 1958 0
-1738 -1767 1959 0
-1738 -1768 1960 0
-1738 -1769 1961 0
-1738 -1770 1962 0
-1738 -1771 1963 0
-1738 -1772 1964 0
-1738 -1773 1965 0
-1738 -1774 1966 0
-1738 -1775 1967 0
-1738 -1776 1968 0
-1738 -1777 1969 0
-1738 -1778 1970 0
-1738 -1779 1971 0
-1738 -1780 1972 0
-1738 -1781 1973 0
-1738 -1782 1974 0
-1738 -1783 1975 0
-1738 -1784 1976 0
-1738 -1785 1977 0
-1738 -1786 1978 0
-1738 -1787 1979 0
-1738 -1788 1980 0
-1738 -1789 1981 0
-1738 -1790 1982 0
-1738 -1791 1983 0
-1738 -1792 1984 0
-1738 -1793 1985 0
-1738 -1794 1986 0
-1739 -1763 1956 0
-1739 -1764 1957 0
-1739 -1765 1958 0
-1739 -1766 1959 0
-1739 -1767 1960 0
-1739 -1768 1961 0
-1739 -1769 1962 0
-1739 -1770 1963 0
-1739 -1771 1964 0
-1739 -1772 1965 0
-1739 -1773 1966 0
-1739 -1774 1967 0
-1739 -1775 1968 0
-1739 -1776 1969 0
-1739 -1777 1970 0
-1739 -1778 1971 0
-1739 -1779 1972 0
-1739 -1780 1973 0
-1739 -1781 1974 0
-1739 -1782 1975 0
-1739 -1783 1976 0
-1739 -1784 1977 0
-1739 -1785 1978 0
-1739 -1786 1979 0
-1739 -1787 1980 0
-1739 -1788 1981 0
-1739 -1789 1982 0
-1739 -1790 1983 0
-1739 -1791 1984 0
-1739 -1792 1985 0
-1739 -1793 1986 0
-1739 -1794 1987 0
-1740 -1763 1957 0
-1740 -1764 1958 0
-1740 -1765 1959 0
-1740 -1766 1960 0
-1740 -1767 1961 0
-1740 -1768 1962 0
-1740 -1769 1963 0
-1740 -1770 1964 0
-1740 -1771 1965 0
-1740 -1772 1966 0
-1740 -1773 1967 0
-1740 -1774 1968 0
-1740 -1775 1969 0
-1740 -1776 1970 0
-1740 -1777 1971 0
-1740 -1778 1972 0
-1740 -1779 1973 0
-1740 -1780 1974 0
-1740 -1781 1975 0
-1740 -1782 1976 0
-1740 -1783 1977 0
-1740 -1784 1978 0
-1740 -1785 1979 0
-1740 -1786 1980 0
-1740 -1787 1981 0
-1740 -1788 1982 0
-1740 -1789 1983 0
-1740 -1790 1984 0
-1740 -1791 1985 0
-1740 -1792 1986 0
-1740 -1793 1987 0
-1740 -1794 1988 0
-1741 -1763 1958 0
-1741 -1764 1959 0
-1741 -1765 1960 0
-1741 -1766 1961 0
-1741 -1767 1962 0
-1741 -1768 1963 0
-1741 -1769 1964 0
-1741 -1770 1965 0
-1741 -1771 1966 0
-1741 -1772 1967 0
-1741 -1773 1968 0
-1741 -1774 1969 0
-1741 -1775 1970 0
-1741 -1776 1971 0
-1741 -1777 1972 0
-1741 -1778 1973 0
-1741 -1779 1974 0
-1741 -1780 1975 0
-1741 -1781 1976 0
-1741 -1782 1977 0
-1741 -1783 1978 0
-1741 -1784 1979 0
-1741 -1785 1980 0
-1741 -1786 1981 0
-1741 -1787 1982 0
-1741 -1788 1983 0
-1741 -1789 1984 0
-1741 -1790 1985 0
-1741 -1791 1986 0
-1741 -1792 1987 0
-1741 -1793 1988 0
-1741 -1794 1989 0
-1742 -1763 1959 0
-1742 -1764 1960 0
-1742 -1765 1961 0
-1742 -1766 1962 0
-1742 -1767 1963 0
-1742 -1768 1964 0
-1742 -1769 1965 0
-1742 -1770 1966 0
-1742 -1771 1967 0
-1742 -1772 1968 0
-1742 -1773 1969 0
-1742 -1774 1970 0
-1742 -1775 1971 0
-1742 -1776 1972 0
-1742 -1777 1973 0
-1742 -1778 1974 0
-1742 -1779 1975 0
-1742 -1780 1976 0
-1742 -1781 1977 0
-1742 -1782 1978 0
-1742 -1783 1979 0
-1742 -1784 1980 0
-1742 -1785 1981 0
-1742 -1786 1982 0
-1742 -1787 1983 0
-1742 -1788 1984 0
-1742 -1789 1985 0
-1742 -1790 1986 0
-1742 -1791 1987 0
-1742 -1792 1988 0
-1742 -1793 1989 0
-1742 -1794 1990 0
-1743 -1763 1960 0
-1743 -1764 1961 0
-1743 -1765 1962 0
-1743 -1766 1963 0
-1743 -1767 1964 0
-1743 -1768 1965 0
-1743 -1769 1966 0
-1743 -1770 1967 0
-1743 -1771 1968 0
-1743 -1772 1969 0
-1743 -1773 1970 0
-1743 -1774 1971 0
-1743 -1775 1972 0
-1743 -1776 1973 0
-1743 -1777 1974 0
-1743 -1778 1975 0
-1743 -1779 1976 0
-1743 -1780 1977 0
-1743 -1781 1978 0
-1743 -1782 1979 0
-1743 -1783 1980 0
-1743 -1784 1981 0
-1743 -1785 1982 0
-1743 -1786 1983 0
-1743 -1787 1984 0
-1743 -1788 1985 0
-1743 -1789 1986 0
-1743 -1790 1987 0
-1743 -1791 1988 0
-1743 -1792 1989 0
-1743 -1793 1990 0
-1743 -1794 1991 0
-1744 -1763 1961 0
-1744 -1764 1962 0
-1744 -1765 1963 0
-1744 -1766 1964 0
-1744 -1767 1965 0
-1744 -1768 1966 0
-1744 -1769 1967 0
-1744 -1770 1968 0
-1744 -1771 1969 0
-1744 -1772 1970 0
-1744 -1773 1971 0
-1744 -1774 1972 0
-1744 -1775 1973 0
-1744 -1776 1974 0
-1744 -1777 1975 0
-1744 -1778 1976 0
-1744 -1779 1977 0
-1744 -1780 1978 0
-1744 -1781 1979 0
-1744 -1782 1980 0
-1744 -1783 1981 0
-1744 -1784 1982 0
-1744 -1785 1983 0
-1744 -1786 1984 0
-1744 -1787 1985 0
-1744 -1788 1986 0
-1744 -1789 1987 0
-1744 -1790 1988 0
-1744 -1791 1989 0
-1744 -1792 1990 0
-1744 -1793 1991 0
-1744 -1794 1992 0
-1745 -1763 1962 0
-1745 -1764 1963 0
-1745 -1765 1964 0
-1745 -1766 1965 0
-1745 -1767 1966 0
-1745 -1768 1967 0
-1745 -1769 1968 0
-1745 -1770 1969 0
-1745 -1771 1970 0
-1745 -1772 1971 0
-1745 -1773 1972 0
-1745 -1774 1973 0
-1745 -1775 1974 0
-1745 -1776 1975 0
-1745 -1777 1976 0
-1745 -1778 1977 0
-1745 -1779 1978 0
-1745 -1780 1979 0
-1745 -1781 1980 0
-1745 -1782 1981 0
-1745 -1783 1982 0
-1745 -1784 1983 0
-1745 -1785 1984 0
-1745 -1786 1985 0
-1745 -1787 1986 0
-1745 -1788 1987 0
-1745 -1789 1988 0
-1745 -1790 1989 0
-1745 -1791 1990 0
-1745 -1792 1991 0
-1745 -1793 1992 0
-1745 -1794 1993 0
-1746 -1763 1963 0
-1746 -1764 1964 0
-1746 -1765 1965 0
-1746 -1766 1966 0
-1746 -1767 1967 0
-1746 -1768 1968 0
-1746 -1769 1969 0
-1746 -1770 1970 0
-1746 -1771 1971 0
-1746 -1772 1972 0
-1746 -1773 1973 0
-1746 -1774 1974 0
-1746 -1775 1975 0
-1746 -1776 1976 0
-1746 -1777 1977 0
-1746 -1778 1978 0
-1746 -1779 1979 0
-1746 -1780 1980 0
-1746 -1781 1981 0
-1746 -1782 1982 0
-1746 -1783 1983 0
-1746 -1784 1984 0
-1746 -1785 1985 0
-1746 -1786 1986 0
-1746 -1787 1987 0
-1746 -1788 1988 0
-1746 -1789 1989 0
-1746 -1790 1990 0
-1746 -1791 1991 0
-1746 -1792 1992 0
-1746 -1793 1993 0
-1746 -1794 1994 0
-1747 -1763 1964 0
-1747 -1764 1965 0
-1747 -1765 1966 0
-1747 -1766 1967 0
-1747 -1767 1968 0
-1747 -1768 1969 0
-1747 -1769 1970 0
-1747 -1770 1971 0
-1747 -1771 1972 0
-1747 -1772 1973 0
-1747 -1773 1974 0
-1747 -1774 1975 0
-1747 -1775 1976 0
-1747 -1776 1977 0
-1747 -1777 1978 0
-1747 -1778 1979 0
-1747 -1779 1980 0
-1747 -1780 1981 0
-1747 -1781 1982 0
-1747 -1782 1983 0
-1747 -1783 1984 0
-1747 -1784 1985 0
-1747 -1785 1986 0
-1747 -1786 1987 0
-1747 -1787 1988 0
-1747 -1788 1989 0
-1747 -1789 1990 0
-1747 -1790 1991 0
-1747 -1791 1992 0
-1747 -1792 1993 0
-1747 -1793 1994 0
-1747 -1794 1995 0
-1748 -1763 1965 0
-1748 -1764 1966 0
-1748 -1765 1967 0
-1748 -1766 1968 0
-1748 -1767 1969 0
-1748 -1768 1970 0
-1748 -1769 1971 0
-1748 -1770 1972 0
-1748 -1771 1973 0
-1748 -1772 1974 0
-1748 -1773 1975 0
-1748 -1774 1976 0
-1748 -1775 1977 0
-1748 -1776 1978 0
-1748 -1777 1979 0
-1748 -1778 1980 0
-1748 -1779 1981 0
-1748 -1780 1982 0
-1748 -1781 1983 0
-1748 -1782 1984 0
-1748 -1783 1985 0
-1748 -1784 1986 0
-1748 -1785 1987 0
-1748 -1786 1988 0
-1748 -1787 1989 0
-1748 -1788 1990 0
-1748 -1789 1991 0
-1748 -1790 1992 0
-1748 -1791 1993 0
-1748 -1792 1994 0
-1748 -1793 1995 0
-1748 -1794 1996 0
-1749 -1763 1966 0
-1749 -1764 1967 0
-1749 -1765 1968 0
-1749 -1766 1969 0
-1749 -1767 1970 0
-1749 -1768 1971 0
-1749 -1769 1972 0
-1749 -1770 1973 0
-1749 -1771 1974 0
-1749 -1772 1975 0
-1749 -1773 1976 0
-1749 -1774 1977 0
-1749 -1775 1978 0
-1749 -1776 1979 0
-1749 -1777 1980 0
-1749 -1778 1981 0
-1749 -1779 1982 0
-1749 -1780 1983 0
-1749 -1781 1984 0
-1749 -1782 1985 0
-1749 -1783 1986 0
-1749 -1784 1987 0
-1749 -1785 1988 0
-1749 -1786 1989 0
-1749 -1787 1990 0
-1749 -1788 1991 0
-1749 -1789 1992 0
-1749 -1790 1993 0
-1749 -1791 1994 0
-1749 -1792 1995 0
-1749 -1793 1996 0
-1749 -1794 1997 0
-1750 -1763 1967 0
-1750 -1764 1968 0
-1750 -1765 1969 0
-1750 -1766 1970 0
-1750 -1767 1971 0
-1750 -1768 1972 0
-1750 -1769 1973 0
-1750 -1770 1974 0
-1750 -1771 1975 0
-1750 -1772 1976 0
-1750 -1773 1977 0
-1750 -1774 1978 0
-1750 -1775 1979 0
-1750 -1776 1980 0
-1750 -1777 1981 0
-1750 -1778 1982 0
-1750 -1779 1983 0
-1750 -1780 1984 0
-1750 -1781 1985 0
-1750 -1782 1986 0
-1750 -1783 1987 0
-1750 -1784 1988 0
-1750 -1785 1989 0
-1750 -1786 1990 0
-1750 -1787 1991 0
-1750 -1788 1992 0
-1750 -1789 1993 0
-1750 -1790 1994 0
-1750 -1791 1995 0
-1750 -1792 1996 0
-1750 -1793 1997 0
-1750 -1794 1998 0
-1751 -1763 1968 0
-1751 -1764 1969 0
-1751 -1765 1970 0
-1751 -1766 1971 0
-1751 -1767 1972 0
-1751 -1768 1973 0
-1751 -1769 1974 0
-1751 -1770 1975 0
-1751 -1771 1976 0
-1751 -1772 1977 0
-1751 -1773 1978 0
-1751 -1774 1979 0
-1751 -1775 1980 0
-1751 -1776 1981 0
-1751 -1777 1982 0
-1751 -1778 1983 0
-1751 -1779 1984 0
-1751 -1780 1985 0
-1751 -1781 1986 0
-1751 -1782 1987 0
-1751 -1783 1988 0
-1751 -1784 1989 0
-1751 -1785 1990 0
-1751 -1786 1991 0
-1751 -1787 1992 0
-1751 -1788 1993 0
-1751 -1789 1994 0
-1751 -1790 1995 0
-1751 -1791 1996 0
-1751 -1792 1997 0
-1751 -1793 1998 0
-1751 -1794 1999 0
-1752 -1763 1969 0
-1752 -1764 1970 0
-1752 -1765 1971 0
-1752 -1766 1972 0
-1752 -1767 1973 0
-1752 -1768 1974 0
-1752 -1769 1975 0
-1752 -1770 1976 0
-1752 -1771 1977 0
-1752 -1772 1978 0
-1752 -1773 1979 0
-1752 -1774 1980 0
-1752 -1775 1981 0
-1752 -1776 1982 0
-1752 -1777 1983 0
-1752 -1778 1984 0
-1752 -1779 1985 0
-1752 -1780 1986 0
-1752 -1781 1987 0
-1752 -1782 1988 0
-1752 -1783 1989 0
-1752 -1784 1990 0
-1752 -1785 1991 0
-1752 -1786 1992 0
-1752 -1787 1993 0
-1752 -1788 1994 0
-1752 -1789 1995 0
-1752 -1790 1996 0
-1752 -1791 1997 0
-1752 -1792 1998 0
-1752 -1793 1999 0
-1752 -1794 2000 0
-1753 -1763 1970 0
-1753 -1764 1971 0
-1753 -1765 1972 0
-1753 -1766 1973 0
-1753 -1767 1974 0
-1753 -1768 1975 0
-1753 -1769 1976 0
-1753 -1770 1977 0
-1753 -1771 1978 0
-1753 -1772 1979 0
-1753 -1773 1980 0
-1753 -1774 1981 0
-1753 -1775 1982 0
-1753 -1776 1983 0
-1753 -1777 1984 0
-1753 -1778 1985 0
-1753 -1779 1986 0
-1753 -1780 1987 0
-1753 -1781 1988 0
-1753 -1782 1989 0
-1753 -1783 1990 0
-1753 -1784 1991 0
-1753 -1785 1992 0
-1753 -1786 1993 0
-1753 -1787 1994 0
-1753 -1788 1995 0
-1753 -1789 1996 0
-1753 -1790 1997 0
-1753 -1791 1998 0
-1753 -1792 1999 0
-1753 -1793 2000 0
-1753 -1794 2001 0
-1754 -1763 1971 0
-1754 -1764 1972 0
-1754 -1765 1973 0
-1754 -1766 1974 0
-1754 -1767 1975 0
-1754 -1768 1976 0
-1754 -1769 1977 0
-1754 -1770 1978 0
-1754 -1771 1979 0
-1754 -1772 1980 0
-1754 -1773 1981 0
-1754 -1774 1982 0
-1754 -1775 1983 0
-1754 -1776 1984 0
-1754 -1777 1985 0
-1754 -1778 1986 0
-1754 -1779 1987 0
-1754 -1780 1988 0
-1754 -1781 1989 0
-1754 -1782 1990 0
-1754 -1783 1991 0
-1754 -1784 1992 0
-1754 -1785 1993 0
-1754 -1786 1994 0
-1754 -1787 1995 0
-1754 -1788 1996 0
-1754 -1789 1997 0
-1754 -1790 1998 0
-1754 -1791 1999 0
-1754 -1792 2000 0
-1754 -1793 2001 0
-1754 -1794 2002 0
-1755 -1763 1972 0
-1755 -1764 1973 0
-1755 -1765 1974 0
-1755 -1766 1975 0
-1755 -1767 1976 0
-1755 -1768 1977 0
-1755 -1769 1978 0
-1755 -1770 1979 0
-1755 -1771 1980 0
-1755 -1772 1981 0
-1755 -1773 1982 0
-1755 -1774 1983 0
-1755 -1775 1984 0
-1755 -1776 1985 0
-1755 -1777 1986 0
-1755 -1778 1987 0
-1755 -1779 1988 0
-1755 -1780 1989 0
-1755 -1781 1990 0
-1755 -1782 1991 0
-1755 -1783 1992 0
-1755 -1784 1993 0
-1755 -1785 1994 0
-1755 -1786 1995 0
-1755 -1787 1996 0
-1755 -1788 1997 0
-1755 -1789 1998 0
-1755 -1790 1999 0
-1755 -1791 2000 0
-1755 -1792 2001 0
-1755 -1793 2002 0
-1755 -1794 2003 0
-1756 -1763 1973 0
-1756 -1764 1974 0
-1756 -1765 1975 0
-1756 -1766 1976 0
-1756 -1767 1977 0
-1756 -1768 1978 0
-1756 -1769 1979 0
-1756 -1770 1980 0
-1756 -1771 1981 0
-1756 -1772 1982 0
-1756 -1773 1983 0
-1756 -1774 1984 0
-1756 -1775 1985 0
-1756 -1776 1986 0
-1756 -1777 1987 0
-1756 -1778 1988 0
-1756 -1779 1989 0
-1756 -1780 1990 0
-1756 -1781 1991 0
-1756 -1782 1992 0
-1756 -1783 1993 0
-1756 -1784 1994 0
-1756 -1785 1995 0
-1756 -1786 1996 0
-1756 -1787 1997 0
-1756 -1788 1998 0
-1756 -1789 1999 0
-1756 -1790 2000 0
-1756 -1791 2001 0
-1756 -1792 2002 0
-1756 -1793 2003 0
-1756 -1794 2004 0
-1757 -1763 1974 0
-1757 -1764 1975 0
-1757 -1765 1976 0
-1757 -1766 1977 0
-1757 -1767 1978 0
-1757 -1768 1979 0
-1757 -1769 1980 0
-1757 -1770 1981 0
-1757 -1771 1982 0
-1757 -1772 1983 0
-1757 -1773 1984 0
-1757 -1774 1985 0
-1757 -1775 1986 0
-1757 -1776 1987 0
-1757 -1777 1988 0
-1757 -1778 1989 0
-1757 -1779 1990 0
-1757 -1780 1991 0
-1757 -1781 1992 0
-1757 -1782 1993 0
-1757 -1783 1994 0
-1757 -1784 1995 0
-1757 -1785 1996 0
-1757 -1786 1997 0
-1757 -1787 1998 0
-1757 -1788 1999 0
-1757 -1789 2000 0
-1757 -1790 2001 0
-1757 -1791 2002 0
-1757 -1792 2003 0
-1757 -1793 2004 0
-1757 -1794 2005 0
-1758 -1763 1975 0
-1758 -1764 1976 0
-1758 -1765 1977 0
-1758 -1766 1978 0
-1758 -1767 1979 0
-1758 -1768 1980 0
-1758 -1769 1981 0
-1758 -1770 1982 0
-1758 -1771 1983 0
-1758 -1772 1984 0
-1758 -1773 1985 0
-1758 -1774 1986 0
-1758 -1775 1987 0
-1758 -1776 1988 0
-1758 -1777 1989 0
-1758 -1778 1990 0
-1758 -1779 1991 0
-1758 -1780 1992 0
-1758 -1781 1993 0
-1758 -1782 1994 0
-1758 -1783 1995 0
-1758 -1784 1996 0
-1758 -1785 1997 0
-1758 -1786 1998 0
-1758 -1787 1999 0
-1758 -1788 2000 0
-1758 -1789 2001 0
-1758 -1790 2002 0
-1758 -1791 2003 0
-1758 -1792 2004 0
-1758 -1793 2005 0
-1758 -1794 2006 0
-1759 -1763 1976 0
-1759 -1764 1977 0
-1759 -1765 1978 0
-1759 -1766 1979 0
-1759 -1767 1980 0
-1759 -1768 1981 0
-1759 -1769 1982 0
-1759 -1770 1983 0
-1759 -1771 1984 0
-1759 -1772 1985 0
-1759 -1773 1986 0
-1759 -1774 1987 0
-1759 -1775 1988 0
-1759 -1776 1989 0
-1759 -1777 1990 0
-1759 -1778 1991 0
-1759 -1779 1992 0
-1759 -1780 1993 0
-1759 -1781 1994 0
-1759 -1782 1995 0
-1759 -1783 1996 0
-1759 -1784 1997 0
-1759 -1785 1998 0
-1759 -1786 1999 0
-1759 -1787 2000 0
-1759 -1788 2001 0
-1759 -1789 2002 0
-1759 -1790 2003 0
-1759 -1791 2004 0
-1759 -1792 2005 0
-1759 -1793 2006 0
-1759 -1794 2007 0
-1760 -1763 1977 0
-1760 -1764 1978 0
-1760 -1765 1979 0
-1760 -1766 1980 0
-1760 -1767 1981 0
-1760 -1768 1982 0
-1760 -1769 1983 0
-1760 -1770 1984 0
-1760 -1771 1985 0
-1760 -1772 1986 0
-1760 -1773 1987 0
-1760 -1774 1988 0
-1760 -1775 1989 0
-1760 -1776 1990 0
-1760 -1777 1991 0
-1760 -1778 1992 0
-1760 -1779 1993 0
-1760 -1780 1994 0
-1760 -1781 1995 0
-1760 -1782 1996 0
-1760 -1783 1997 0
-1760 -1784 1998 0
-1760 -1785 1999 0
-1760 -1786 2000 0
-1760 -1787 2001 0
-1760 -1788 2002 0
-1760 -1789 2003 0
-1760 -1790 2004 0
-1760 -1791 2005 0
-1760 -1792 2006 0
-1760 -1793 2007 0
-1760 -1794 2008 0
-1761 -1763 1978 0
-1761 -1764 1979 0
-1761 -1765 1980 0
-1761 -1766 1981 0
-1761 -1767 1982 0
-1761 -1768 1983 0
-1761 -1769 1984 0
-1761 -1770 1985 0
-1761 -1771 1986 0
-1761 -1772 1987 0
-1761 -1773 1988 0
-1761 -1774 1989 0
-1761 -1775 1990 0
-1761 -1776 1991 0
-1761 -1777 1992 0
-1761 -1778 1993 0
-1761 -1779 1994 0
-1761 -1780 1995 0
-1761 -1781 1996 0
-1761 -1782 1997 0
-1761 -1783 1998 0
-1761 -1784 1999 0
-1761 -1785 2000 0
-1761 -1786 2001 0
-1761 -1787 2002 0
-1761 -1788 2003 0
-1761 -1789 2004 0
-1761 -1790 2005 0
-1761 -1791 2006 0
-1761 -1792 2007 0
-1761 -1793 2008 0
-1761 -1794 2009 0
-1762 -1763 1979 0
-1762 -1764 1980 0
-1762 -1765 1981 0
-1762 -1766 1982 0
-1762 -1767 1983 0
-1762 -1768 1984 0
-1762 -1769 1985 0
-1762 -1770 1986 0
-1762 -1771 1987 0
-1762 -1772 1988 0
-1762 -1773 1989 0
-1762 -1774 1990 0
-1762 -1775 1991 0
-1762 -1776 1992 0
-1762 -1777 1993 0
-1762 -1778 1994 0
-1762 -1779 1995 0
-1762 -1780 1996 0
-1762 -1781 1997 0
-1762 -1782 1998 0
-1762 -1783 1999 0
-1762 -1784 2000 0
-1762 -1785 2001 0
-1762 -1786 2002 0
-1762 -1787 2003 0
-1762 -1788 2004 0
-1762 -1789 2005 0
-1762 -1790 2006 0
-1762 -1791 2007 0
-1762 -1792 2008 0
-1762 -1793 2009 0
-1762 -1794 2010 0
-1827 2011 0
-1828 2012 0
-1829 2013 0
-1830 2014 0
-1831 2015 0
-1832 2016 0
-1833 2017 0
-1834 2018 0
-1835 2019 0
-1836 2020 0
-1837 2021 0
-1838 2022 0
-1839 2023 0
-1840 2024 0
-1841 2025 0
-1842 2026 0
-1843 2027 0
-1844 2028 0
-1845 2029 0
-1846 2030 0
-1847 2031 0
-1848 2032 0
-1849 2033 0
-1850 2034 0
-1851 2035 0
-1852 2036 0
-1853 2037 0
-1854 2038 0
-1855 2039 0
-1856 2040 0
-1857 2041 0
-1858 2042 0
-1859 2043 0
-1860 2044 0
-1861 2045 0
-1862 2046 0
-1863 2047 0
-1864 2048 0
-1865 2049 0
-1866 2050 0
-1867 2051 0
-1868 2052 0
-1869 2053 0
-1870 2054 0
-1871 2055 0
-1872 2056 0
-1873 2057 0
-1874 2058 0
-1875 2059 0
-1876 2060 0
-1877 2061 0
-1878 2062 0
-1879 2063 0
-1880 2064 0
-1881 2065 0
-1882 2066 0
-1795 2011 0
-1796 2012 0
-1797 2013 0
-1798 2014 0
-1799 2015 0
-1800 2016 0
-1801 2017 0
-1802 2018 0
-1803 2019 0
-1804 2020 0
-1805 2021 0
-1806 2022 0
-1807 2023 0
-1808 2024 0
-1809 2025 0
-1810 2026 0
-1811 2027 0
-1812 2028 0
-1813 2029 0
-1814 2030 0
-1815 2031 0
-1816 2032 0
-1817 2033 0
-1818 2034 0
-1819 2035 0
-1820 2036 0
-1821 2037 0
-1822 2038 0
-1823 2039 0
-1824 2040 0
-1825 2041 0
-1826 2042 0
-1795 -1827 2012 0
-1795 -1828 2013 0
-1795 -1829 2014 0
-1795 -1830 2015 0
-1795 -1831 2016 0
-1795 -1832 2017 0
-1795 -1833 2018 0
-1795 -1834 2019 0
-1795 -1835 2020 0
-1795 -1836 2021 0
-1795 -1837 2022 0
-1795 -1838 2023 0
-1795 -1839 2024 0
-1795 -1840 2025 0
-1795 -1841 2026 0
-1795 -1842 2027 0
-1795 -1843 2028 0
-1795 -1844 2029 0
-1795 -1845 2030 0
-1795 -1846 2031 0
-1795 -1847 2032 0
-1795 -1848 2033 0
-1795 -1849 2034 0
-1795 -1850 2035 0
-1795 -1851 2036 0
-1795 -1852 2037 0
-1795 -1853 2038 0
-1795 -1854 2039 0
-1795 -1855 2040 0
-1795 -1856 2041 0
-1795 -1857 2042 0
-1795 -1858 2043 0
-1795 -1859 2044 0
-1795 -1860 2045 0
-1795 -1861 2046 0
-1795 -1862 2047 0
-1795 -1863 2048 0
-1795 -1864 2049 0
-1795 -1865 2050 0
-1795 -1866 2051 0
-1795 -1867 2052 0
-1795 -1868 2053 0
-1795 -1869 2054 0
-1795 -1870 2055 0
-1795 -1871 2056 0
-1795 -1872 2057 0
-1795 -1873 2058 0
-1795 -1874 2059 0
-1795 -1875 2060 0
-1795 -1876 2061 0
-1795 -1877 2062 0
-1795 -1878 2063 0
-1795 -1879 2064 0
-1795 -1880 2065 0
-1795 -1881 2066 0
-1795 -1882 2067 0
-1796 -1827 2013 0
-1796 -1828 2014 0
-1796 -1829 2015 0
-1796 -1830 2016 0
-1796 -1831 2017 0
-1796 -1832 2018 0
-1796 -1833 2019 0
-1796 -1834 2020 0
-1796 -1835 2021 0
-1796 -1836 2022 0
-1796 -1837 2023 0
-1796 -1838 2024 0
-1796 -1839 2025 0
-1796 -1840 2026 0
-1796 -1841 2027 0
-1796 -1842 2028 0
-1796 -1843 2029 0
-1796 -1844 2030 0
-1796 -1845 2031 0
-1796 -1846 2032 0
-1796 -1847 2033 0
-1796 -1848 2034 0
-1796 -1849 2035 0
-1796 -1850 2036 0
-1796 -1851 2037 0
-1796 -1852 2038 0
-1796 -1853 2039 0
-1796 -1854 2040 0
-1796 -1855 2041 0
-1796 -1856 2042 0
-1796 -1857 2043 0
-1796 -1858 2044 0
-1796 -1859 2045 0
-1796 -1860 2046 0
-1796 -1861 2047 0
-1796 -1862 2048 0
-1796 -1863 2049 0
-1796 -1864 2050 0
-1796 -1865 2051 0
-1796 -1866 2052 0
-1796 -1867 2053 0
-1796 -1868 2054 0
-1796 -1869 2055 0
-1796 -1870 2056 0
-1796 -1871 2057 0
-1796 -1872 2058 0
-1796 -1873 2059 0
-1796 -1874 2060 0
-1796 -1875 2061 0
-1796 -1876 2062 0
-1796 -1877 2063 0
-1796 -1878 2064 0
-1796 -1879 2065 0
-1796 -1880 2066 0
-1796 -1881 2067 0
-1796 -1882 2068 0
-1797 -1827 2014 0
-1797 -1828 2015 0
-1797 -1829 2016 0
-1797 -1830 2017 0
-1797 -1831 2018 0
-1797 -1832 2019 0
-1797 -1833 2020 0
-1797 -1834 2021 0
-1797 -1835 2022 0
-1797 -1836 2023 0
-1797 -1837 2024 0
-1797 -1838 2025 0
-1797 -1839 2026 0
-1797 -1840 2027 0
-1797 -1841 2028 0
-1797 -1842 2029 0
-1797 -1843 2030 0
-1797 -1844 2031 0
-1797 -1845 2032 0
-1797 -1846 2033 0
-1797 -1847 2034 0
-1797 -1848 2035 0
-1797 -1849 2036 0
-1797 -1850 2037 0
-1797 -1851 2038 0
-1797 -1852 2039 0
-1797 -1853 2040 0
-1797 -1854 2041 0
-1797 -1855 2042 0
-1797 -1856 2043 0
-1797 -1857 2044 0
-1797 -1858 2045 0
-1797 -1859 2046 0
-1797 -1860 2047 0
-1797 -1861 2048 0
-1797 -1862 2049 0
-1797 -1863 2050 0
-1797 -1864 2051 0
-1797 -1865 2052 0
-1797 -1866 2053 0
-1797 -1867 2054 0
-1797 -1868 2055 0
-1797 -1869 2056 0
-1797 -1870 2057 0
-1797 -1871 2058 0
-1797 -1872 2059 0
-1797 -1873 2060 0
-1797 -1874 2061 0
-1797 -1875 2062 0
-1797 -1876 2063 0
-1797 -1877 2064 0
-1797 -1878 2065 0
-1797 -1879 2066 0
-1797 -1880 2067 0
-1797 -1881 2068 0
-1797 -1882 2069 0
-1798 -1827 2015 0
-1798 -1828 2016 0
-1798 -1829 2017 0
-1798 -1830 2018 0
-1798 -1831 2019 0
-1798 -1832 2020 0
-1798 -1833 2021 0
-1798 -1834 2022 0
-1798 -1835 2023 0
-1798 -1836 2024 0
-1798 -1837 2025 0
-1798 -1838 2026 0
-1798 -1839 2027 0
-1798 -1840 2028 0
-1798 -1841 2029 0
-1798 -1842 2030 0
-1798 -1843 2031 0
-1798 -1844 2032 0
-1798 -1845 2033 0
-1798 -1846 2034 0
-1798 -1847 2035 0
-1798 -1848 2036 0
-1798 -1849 2037 0
-1798 -1850 2038 0
-1798 -1851 2039 0
-1798 -1852 2040 0
-1798 -1853 2041 0
-1798 -1854 2042 0
-1798 -1855 2043 0
-1798 -1856 2044 0
-1798 -1857 2045 0
-1798 -1858 2046 0
-1798 -1859 2047 0
-1798 -1860 2048 0
-1798 -1861 2049 0
-1798 -1862 2050 0
-1798 -1863 2051 0
-1798 -1864 2052 0
-1798 -1865 2053 0
-1798 -1866 2054 0
-1798 -1867 2055 0
-1798 -1868 2056 0
-1798 -1869 2057 0
-1798 -1870 2058 0
-1798 -1871 2059 0
-1798 -1872 2060 0
-1798 -1873 2061 0
-1798 -1874 2062 0
-1798 -1875 2063 0
-1798 -1876 2064 0
-1798 -1877 2065 0
-1798 -1878 2066 0
-1798 -1879 2067 0
-1798 -1880 2068 0
-1798 -1881 2069 0
-1798 -1882 2070 0
-1799 -1827 2016 0
-1799 -1828 2017 0
-1799 -1829 2018 0
-1799 -1830 2019 0
-1799 -1831 2020 0
-1799 -1832 2021 0
-1799 -1833 2022 0
-1799 -1834 2023 0
-1799 -1835 2024 0
-1799 -1836 2025 0
-1799 -1837 2026 0
-1799 -1838 2027 0
-1799 -1839 2028 0
-1799 -1840 2029 0
-1799 -1841 2030 0
-1799 -1842 2031 0
-1799 -1843 2032 0
-1799 -1844 2033 0
-1799 -1845 2034 0
-1799 -1846 2035 0
-1799 -1847 2036 0
-1799 -1848 2037 0
-1799 -1849 2038 0
-1799 -1850 2039 0
-1799 -1851 2040 0
-1799 -1852 2041 0
-1799 -1853 2042 0
-1799 -1854 2043 0
-1799 -1855 2044 0
-1799 -1856 2045 0
-1799 -1857 2046 0
-1799 -1858 2047 0
-1799 -1859 2048 0
-1799 -1860 2049 0
-1799 -1861 2050 0
-1799 -1862 2051 0
-1799 -1863 2052 0
-1799 -1864 2053 0
-1799 -1865 2054 0
-1799 -1866 2055 0
-1799 -1867 2056 0
-1799 -1868 2057 0
-1799 -1869 2058 0
-1799 -1870 2059 0
-1799 -1871 2060 0
-1799 -1872 2061 0
-1799 -1873 2062 0
-1799 -1874 2063 0
-1799 -1875 2064 0
-1799 -1876 2065 0
-1799 -1877 2066 0
-1799 -1878 2067 0
-1799 -1879 2068 0
-1799 -1880 2069 0
-1799 -1881 2070 0
-1799 -1882 2071 0
-1800 -1827 2017 0
-1800 -1828 2018 0
-1800 -1829 2019 0
-1800 -1830 2020 0
-1800 -1831 2021 0
-1800 -1832 2022 0
-1800 -1833 2023 0
-1800 -1834 2024 0
-1800 -1835 2025 0
-1800 -1836 2026 0
-1800 -1837 2027 0
-1800 -1838 2028 0
-1800 -1839 2029 0
-1800 -1840 2030 0
-1800 -1841 2031 0
-1800 -1842 2032 0
-1800 -1843 2033 0
-1800 -1844 2034 0
-1800 -1845 2035 0
-1800 -1846 2036 0
-1800 -1847 2037 0
-1800 -1848 2038 0
-1800 -1849 2039 0
-1800 -1850 2040 0
-1800 -1851 2041 0
-1800 -1852 2042 0
-1800 -1853 2043 0
-1800 -1854 2044 0
-1800 -1855 2045 0
-1800 -1856 2046 0
-1800 -1857 2047 0
-1800 -1858 2048 0
-1800 -1859 2049 0
-1800 -1860 2050 0
-1800 -1861 2051 0
-1800 -1862 2052 0
-1800 -1863 2053 0
-1800 -1864 2054 0
-1800 -1865 2055 0
-1800 -1866 2056 0
-1800 -1867 2057 0
-1800 -1868 2058 0
-1800 -1869 2059 0
-1800 -1870 2060 0
-1800 -1871 2061 0
-1800 -1872 2062 0
-1800 -1873 2063 0
-1800 -1874 2064 0
-1800 -1875 2065 0
-1800 -1876 2066 0
-1800 -1877 2067 0
-1800 -1878 2068 0
-1800 -1879 2069 0
-1800 -1880 2070 0
-1800 -1881 2071 0
-1800 -1882 2072 0
-1801 -1827 2018 0
-1801 -1828 2019 0
-1801 -1829 2020 0
-1801 -1830 2021 0
-1801 -1831 2022 0
-1801 -1832 2023 0
-1801 -1833 2024 0
-1801 -1834 2025 0
-1801 -1835 2026 0
-1801 -1836 2027 0
-1801 -1837 2028 0
-1801 -1838 2029 0
-1801 -1839 2030 0
-1801 -1840 2031 0
-1801 -1841 2032 0
-1801 -1842 2033 0
-1801 -1843 2034 0
-1801 -1844 2035 0
-1801 -1845 2036 0
-1801 -1846 2037 0
-1801 -1847 2038 0
-1801 -1848 2039 0
-1801 -1849 2040 0
-1801 -1850 2041 0
-1801 -1851 2042 0
-1801 -1852 2043 0
-1801 -1853 2044 0
-1801 -1854 2045 0
-1801 -1855 2046 0
-1801 -1856 2047 0
-1801 -1857 2048 0
-1801 -1858 2049 0
-1801 -1859 2050 0
-1801 -1860 2051 0
-1801 -1861 2052 0
-1801 -1862 2053 0
-1801 -1863 2054 0
-1801 -1864 2055 0
-1801 -1865 2056 0
-1801 -1866 2057 0
-1801 -1867 2058 0
-1801 -1868 2059 0
-1801 -1869 2060 0
-1801 -1870 2061 0
-1801 -1871 2062 0
-1801 -1872 2063 0
-1801 -1873 2064 0
-1801 -1874 2065 0
-1801 -1875 2066 0
-1801 -1876 2067 0
-1801 -1877 2068 0
-1801 -1878 2069 0
-1801 -1879 2070 0
-1801 -1880 2071 0
-1801 -1881 2072 0
-1801 -1882 2073 0
-1802 -1827 2019 0
-1802 -1828 2020 0
-1802 -1829 2021 0
-1802 -1830 2022 0
-1802 -1831 2023 0
-1802 -1832 2024 0
-1802 -1833 2025 0
-1802 -1834 2026 0
-1802 -1835 2027 0
-1802 -1836 2028 0
-1802 -1837 2029 0
-1802 -1838 2030 0
-1802 -1839 2031 0
-1802 -1840 2032 0
-1802 -1841 2033 0
-1802 -1842 2034 0
-1802 -1843 2035 0
-1802 -1844 2036 0
-1802 -1845 2037 0
-1802 -1846 2038 0
-1802 -1847 2039 0
-1802 -1848 2040 0
-1802 -1849 2041 0
-1802 -1850 2042 0
-1802 -1851 2043 0
-1802 -1852 2044 0
-1802 -1853 2045 0
-1802 -1854 2046 0
-1802 -1855 2047 0
-1802 -1856 2048 0
-1802 -1857 2049 0
-1802 -1858 2050 0
-1802 -1859 2051 0
-1802 -1860 2052 0
-1802 -1861 2053 0
-1802 -1862 2054 0
-1802 -1863 2055 0
-1802 -1864 2056 0
-1802 -1865 2057 0
-1802 -1866 2058 0
-1802 -1867 2059 0
-1802 -1868 2060 0
-1802 -1869 2061 0
-1802 -1870 2062 0
-1802 -1871 2063 0
-1802 -1872 2064 0
-1802 -1873 2065 0
-1802 -1874 2066 0
-1802 -1875 2067 0
-1802 -1876 2068 0
-1802 -1877 2069 0
-1802 -1878 2070 0
-1802 -1879 2071 0
-1802 -1880 2072 0
-1802 -1881 2073 0
-1802 -1882 2074 0
-1803 -1827 2020 0
-1803 -1828 2021 0
-1803 -1829 2022 0
-1803 -1830 2023 0
-1803 -1831 2024 0
-1803 -1832 2025 0
-1803 -1833 2026 0
-1803 -1834 2027 0
-1803 -1835 2028 0
-1803 -1836 2029 0
-1803 -1837 2030 0
-1803 -1838 2031 0
-1803 -1839 2032 0
-1803 -1840 2033 0
-1803 -1841 2034 0
-1803 -1842 2035 0
-1803 -1843 2036 0
-1803 -1844 2037 0
-1803 -1845 2038 0
-1803 -1846 2039 0
-1803 -1847 2040 0
-1803 -1848 2041 0
-1803 -1849 2042 0
-1803 -1850 2043 0
-1803 -1851 2044 0
-1803 -1852 2045 0
-1803 -1853 2046 0
-1803 -1854 2047 0
-1803 -1855 2048 0
-1803 -1856 2049 0
-1803 -1857 2050 0
-1803 -1858 2051 0
-1803 -1859 2052 0
-1803 -1860 2053 0
-1803 -1861 2054 0
-1803 -1862 2055 0
-1803 -1863 2056 0
-1803 -1864 2057 0
-1803 -1865 2058 0
-1803 -1866 2059 0
-1803 -1867 2060 0
-1803 -1868 2061 0
-1803 -1869 2062 0
-1803 -1870 2063 0
-1803 -1871 2064 0
-1803 -1872 2065 0
-1803 -1873 2066 0
-1803 -1874 2067 0
-1803 -1875 2068 0
-1803 -1876 2069 0
-1803 -1877 2070 0
-1803 -1878 2071 0
-1803 -1879 2072 0
-1803 -1880 2073 0
-1803 -1881 2074 0
-1803 -1882 2075 0
-1804 -1827 2021 0
-1804 -1828 2022 0
-1804 -1829 2023 0
-1804 -1830 2024 0
-1804 -1831 2025 0
-1804 -1832 2026 0
-1804 -1833 2027 0
-1804 -1834 2028 0
-1804 -1835 2029 0
-1804 -1836 2030 0
-1804 -1837 2031 0
-1804 -1838 2032 0
-1804 -1839 2033 0
-1804 -1840 2034 0
-1804 -1841 2035 0
-1804 -1842 2036 0
-1804 -1843 2037 0
-1804 -1844 2038 0
-1804 -1845 2039 0
-1804 -1846 2040 0
-1804 -1847 2041 0
-1804 -1848 2042 0
-1804 -1849 2043 0
-1804 -1850 2044 0
-1804 -1851 2045 0
-1804 -1852 2046 0
-1804 -1853 2047 0
-1804 -1854 2048 0
-1804 -1855 2049 0
-1804 -1856 2050 0
-1804 -1857 2051 0
-1804 -1858 2052 0
-1804 -1859 2053 0
-1804 -1860 2054 0
-1804 -1861 2055 0
-1804 -1862 2056 0
-1804 -1863 2057 0
-1804 -1864 2058 0
-1804 -1865 2059 0
-1804 -1866 2060 0
-1804 -1867 2061 0
-1804 -1868 2062 0
-1804 -1869 2063 0
-1804 -1870 2064 0
-1804 -1871 2065 0
-1804 -1872 2066 0
-1804 -1873 2067 0
-1804 -1874 2068 0
-1804 -1875 2069 0
-1804 -1876 2070 0
-1804 -1877 2071 0
-1804 -1878 2072 0
-1804 -1879 2073 0
-1804 -1880 2074 0
-1804 -1881 2075 0
-1804 -1882 2076 0
-1805 -1827 2022 0
-1805 -1828 2023 0
-1805 -1829 2024 0
-1805 -1830 2025 0
-1805 -1831 2026 0
-1805 -1832 2027 0
-1805 -1833 2028 0
-1805 -1834 2029 0
-1805 -1835 2030 0
-1805 -1836 2031 0
-1805 -1837 2032 0
-1805 -1838 2033 0
-1805 -1839 2034 0
-1805 -1840 2035 0
-1805 -1841 2036 0
-1805 -1842 2037 0
-1805 -1843 2038 0
-1805 -1844 2039 0
-1805 -1845 2040 0
-1805 -1846 2041 0
-1805 -1847 2042 0
-1805 -1848 2043 0
-1805 -1849 2044 0
-1805 -1850 2045 0
-1805 -1851 2046 0
-1805 -1852 2047 0
-1805 -1853 2048 0
-1805 -1854 2049 0
-1805 -1855 2050 0
-1805 -1856 2051 0
-1805 -1857 2052 0
-1805 -1858 2053 0
-1805 -1859 2054 0
-1805 -1860 2055 0
-1805 -1861 2056 0
-1805 -1862 2057 0
-1805 -1863 2058 0
-1805 -1864 2059 0
-1805 -1865 2060 0
-1805 -1866 2061 0
-1805 -1867 2062 0
-1805 -1868 2063 0
-1805 -1869 2064 0
-1805 -1870 2065 0
-1805 -1871 2066 0
-1805 -1872 2067 0
-1805 -1873 2068 0
-1805 -1874 2069 0
-1805 -1875 2070 0
-1805 -1876 2071 0
-1805 -1877 2072 0
-1805 -1878 2073 0
-1805 -1879 2074 0
-1805 -1880 2075 0
-1805 -1881 2076 0
-1805 -1882 2077 0
-1806 -1827 2023 0
-1806 -1828 2024 0
-1806 -1829 2025 0
-1806 -1830 2026 0
-1806 -1831 2027 0
-1806 -1832 2028 0
-1806 -1833 2029 0
-1806 -1834 2030 0
-1806 -1835 2031 0
-1806 -1836 2032 0
-1806 -1837 2033 0
-1806 -1838 2034 0
-1806 -1839 2035 0
-1806 -1840 2036 0
-1806 -1841 2037 0
-1806 -1842 2038 0
-1806 -1843 2039 0
-1806 -1844 2040 0
-1806 -1845 2041 0
-1806 -1846 2042 0
-1806 -1847 2043 0
-1806 -1848 2044 0
-1806 -1849 2045 0
-1806 -1850 2046 0
-1806 -1851 2047 0
-1806 -1852 2048 0
-1806 -1853 2049 0
-1806 -1854 2050 0
-1806 -1855 2051 0
-1806 -1856 2052 0
-1806 -1857 2053 0
-1806 -1858 2054 0
-1806 -1859 2055 0
-1806 -1860 2056 0
-1806 -1861 2057 0
-1806 -1862 2058 0
-1806 -1863 2059 0
-1806 -1864 2060 0
-1806 -1865 2061 0
-1806 -1866 2062 0
-1806 -1867 2063 0
-1806 -1868 2064 0
-1806 -1869 2065 0
-1806 -1870 2066 0
-1806 -1871 2067 0
-1806 -1872 2068 0
-1806 -1873 2069 0
-1806 -1874 2070 0
-1806 -1875 2071 0
-1806 -1876 2072 0
-1806 -1877 2073 0
-1806 -1878 2074 0
-1806 -1879 2075 0
-1806 -1880 2076 0
-1806 -1881 2077 0
-1806 -1882 2078 0
-1807 -1827 2024 0
-1807 -1828 2025 0
-1807 -1829 2026 0
-1807 -1830 2027 0
-1807 -1831 2028 0
-1807 -1832 2029 0
-1807 -1833 2030 0
-1807 -1834 2031 0
-1807 -1835 2032 0
-1807 -1836 2033 0
-1807 -1837 2034 0
-1807 -1838 2035 0
-1807 -1839 2036 0
-1807 -1840 2037 0
-1807 -1841 2038 0
-1807 -1842 2039 0
-1807 -1843 2040 0
-1807 -1844 2041 0
-1807 -1845 2042 0
-1807 -1846 2043 0
-1807 -1847 2044 0
-1807 -1848 2045 0
-1807 -1849 2046 0
-1807 -1850 2047 0
-1807 -1851 2048 0
-1807 -1852 2049 0
-1807 -1853 2050 0
-1807 -1854 2051 0
-1807 -1855 2052 0
-1807 -1856 2053 0
-1807 -1857 2054 0
-1807 -1858 2055 0
-1807 -1859 2056 0
-1807 -1860 2057 0
-1807 -1861 2058 0
-1807 -1862 2059 0
-1807 -1863 2060 0
-1807 -1864 2061 0
-1807 -1865 2062 0
-1807 -1866 2063 0
-1807 -1867 2064 0
-1807 -1868 2065 0
-1807 -1869 2066 0
-1807 -1870 2067 0
-1807 -1871 2068 0
-1807 -1872 2069 0
-1807 -1873 2070 0
-1807 -1874 2071 0
-1807 -1875 2072 0
-1807 -1876 2073 0
-1807 -1877 2074 0
-1807 -1878 2075 0
-1807 -1879 2076 0
-1807 -1880 2077 0
-1807 -1881 2078 0
-1807 -1882 2079 0
-1808 -1827 2025 0
-1808 -1828 2026 0
-1808 -1829 2027 0
-1808 -1830 2028 0
-1808 -1831 2029 0
-1808 -1832 2030 0
-1808 -1833 2031 0
-1808 -1834 2032 0
-1808 -1835 2033 0
-1808 -1836 2034 0
-1808 -1837 2035 0
-1808 -1838 2036 0
-1808 -1839 2037 0
-1808 -1840 2038 0
-1808 -1841 2039 0
-1808 -1842 2040 0
-1808 -1843 2041 0
-1808 -1844 2042 0
-1808 -1845 2043 0
-1808 -1846 2044 0
-1808 -1847 2045 0
-1808 -1848 2046 0
-1808 -1849 2047 0
-1808 -1850 2048 0
-1808 -1851 2049 0
-1808 -1852 2050 0
-1808 -1853 2051 0
-1808 -1854 2052 0
-1808 -1855 2053 0
-1808 -1856 2054 0
-1808 -1857 2055 0
-1808 -1858 2056 0
-1808 -1859 2057 0
-1808 -1860 2058 0
-1808 -1861 2059 0
-1808 -1862 2060 0
-1808 -1863 2061 0
-1808 -1864 2062 0
-1808 -1865 2063 0
-1808 -1866 2064 0
-1808 -1867 2065 0
-1808 -1868 2066 0
-1808 -1869 2067 0
-1808 -1870 2068 0
-1808 -1871 2069 0
-1808 -1872 2070 0
-1808 -1873 2071 0
-1808 -1874 2072 0
-1808 -1875 2073 0
-1808 -1876 2074 0
-1808 -1877 2075 0
-1808 -1878 2076 0
-1808 -1879 2077 0
-1808 -1880 2078 0
-1808 -1881 2079 0
-1808 -1882 2080 0
-1809 -1827 2026 0
-1809 -1828 2027 0
-1809 -1829 2028 0
-1809 -1830 2029 0
-1809 -1831 2030 0
-1809 -1832 2031 0
-1809 -1833 2032 0
-1809 -1834 2033 0
-1809 -1835 2034 0
-1809 -1836 2035 0
-1809 -1837 2036 0
-1809 -1838 2037 0
-1809 -1839 2038 0
-1809 -1840 2039 0
-1809 -1841 2040 0
-1809 -1842 2041 0
-1809 -1843 2042 0
-1809 -1844 2043 0
-1809 -1845 2044 0
-1809 -1846 2045 0
-1809 -1847 2046 0
-1809 -1848 2047 0
-1809 -1849 2048 0
-1809 -1850 2049 0
-1809 -1851 2050 0
-1809 -1852 2051 0
-1809 -1853 2052 0
-1809 -1854 2053 0
-1809 -1855 2054 0
-1809 -1856 2055 0
-1809 -1857 2056 0
-1809 -1858 2057 0
-1809 -1859 2058 0
-1809 -1860 2059 0
-1809 -1861 2060 0
-1809 -1862 2061 0
-1809 -1863 2062 0
-1809 -1864 2063 0
-1809 -1865 2064 0
-1809 -1866 2065 0
-1809 -1867 2066 0
-1809 -1868 2067 0
-1809 -1869 2068 0
-1809 -1870 2069 0
-1809 -1871 2070 0
-1809 -1872 2071 0
-1809 -1873 2072 0
-1809 -1874 2073 0
-1809 -1875 2074 0
-1809 -1876 2075 0
-1809 -1877 2076 0
-1809 -1878 2077 0
-1809 -1879 2078 0
-1809 -1880 2079 0
-1809 -1881 2080 0
-1809 -1882 2081 0
-1810 -1827 2027 0
-1810 -1828 2028 0
-1810 -1829 2029 0
-1810 -1830 2030 0
-1810 -1831 2031 0
-1810 -1832 2032 0
-1810 -1833 2033 0
-1810 -1834 2034 0
-1810 -1835 2035 0
-1810 -1836 2036 0
-1810 -1837 2037 0
-1810 -1838 2038 0
-1810 -1839 2039 0
-1810 -1840 2040 0
-1810 -1841 2041 0
-1810 -1842 2042 0
-1810 -1843 2043 0
-1810 -1844 2044 0
-1810 -1845 2045 0
-1810 -1846 2046 0
-1810 -1847 2047 0
-1810 -1848 2048 0
-1810 -1849 2049 0
-1810 -1850 2050 0
-1810 -1851 2051 0
-1810 -1852 2052 0
-1810 -1853 2053 0
-1810 -1854 2054 0
-1810 -1855 2055 0
-1810 -1856 2056 0
-1810 -1857 2057 0
-1810 -1858 2058 0
-1810 -1859 2059 0
-1810 -1860 2060 0
-1810 -1861 2061 0
-1810 -1862 2062 0
-1810 -1863 2063 0
-1810 -1864 2064 0
-1810 -1865 2065 0
-1810 -1866 2066 0
-1810 -1867 2067 0
-1810 -1868 2068 0
-1810 -1869 2069 0
-1810 -1870 2070 0
-1810 -1871 2071 0
-1810 -1872 2072 0
-1810 -1873 2073 0
-1810 -1874 2074 0
-1810 -1875 2075 0
-1810 -1876 2076 0
-1810 -1877 2077 0
-1810 -1878 2078 0
-1810 -1879 2079 0
-1810 -1880 2080 0
-1810 -1881 2081 0
-1810 -1882 2082 0
-1811 -1827 2028 0
-1811 -1828 2029 0
-1811 -1829 2030 0
-1811 -1830 2031 0
-1811 -1831 2032 0
-1811 -1832 2033 0
-1811 -1833 2034 0
-1811 -1834 2035 0
-1811 -1835 2036 0
-1811 -1836 2037 0
-1811 -1837 2038 0
-1811 -1838 2039 0
-1811 -1839 2040 0
-1811 -1840 2041 0
-1811 -1841 2042 0
-1811 -1842 2043 0
-1811 -1843 2044 0
-1811 -1844 2045 0
-1811 -1845 2046 0
-1811 -1846 2047 0
-1811 -1847 2048 0
-1811 -1848 2049 0
-1811 -1849 2050 0
-1811 -1850 2051 0
-1811 -1851 2052 0
-1811 -1852 2053 0
-1811 -1853 2054 0
-1811 -1854 2055 0
-1811 -1855 2056 0
-1811 -1856 2057 0
-1811 -1857 2058 0
-1811 -1858 2059 0
-1811 -1859 2060 0
-1811 -1860 2061 0
-1811 -1861 2062 0
-1811 -1862 2063 0
-1811 -1863 2064 0
-1811 -1864 2065 0
-1811 -1865 2066 0
-1811 -1866 2067 0
-1811 -1867 2068 0
-1811 -1868 2069 0
-1811 -1869 2070 0
-1811 -1870 2071 0
-1811 -1871 2072 0
-1811 -1872 2073 0
-1811 -1873 2074 0
-1811 -1874 2075 0
-1811 -1875 2076 0
-1811 -1876 2077 0
-1811 -1877 2078 0
-1811 -1878 2079 0
-1811 -1879 2080 0
-1811 -1880 2081 0
-1811 -1881 2082 0
-1811 -1882 2083 0
-1812 -1827 2029 0
-1812 -1828 2030 0
-1812 -1829 2031 0
-1812 -1830 2032 0
-1812 -1831 2033 0
-1812 -1832 2034 0
-1812 -1833 2035 0
-1812 -1834 2036 0
-1812 -1835 2037 0
-1812 -1836 2038 0
-1812 -1837 2039 0
-1812 -1838 2040 0
-1812 -1839 2041 0
-1812 -1840 2042 0
-1812 -1841 2043 0
-1812 -1842 2044 0
-1812 -1843 2045 0
-1812 -1844 2046 0
-1812 -1845 2047 0
-1812 -1846 2048 0
-1812 -1847 2049 0
-1812 -1848 2050 0
-1812 -1849 2051 0
-1812 -1850 2052 0
-1812 -1851 2053 0
-1812 -1852 2054 0
-1812 -1853 2055 0
-1812 -1854 2056 0
-1812 -1855 2057 0
-1812 -1856 2058 0
-1812 -1857 2059 0
-1812 -1858 2060 0
-1812 -1859 2061 0
-1812 -1860 2062 0
-1812 -1861 2063 0
-1812 -1862 2064 0
-1812 -1863 2065 0
-1812 -1864 2066 0
-1812 -1865 2067 0
-1812 -1866 2068 0
-1812 -1867 2069 0
-1812 -1868 2070 0
-1812 -1869 2071 0
-1812 -1870 2072 0
-1812 -1871 2073 0
-1812 -1872 2074 0
-1812 -1873 2075 0
-1812 -1874 2076 0
-1812 -1875 2077 0
-1812 -1876 2078 0
-1812 -1877 2079 0
-1812 -1878 2080 0
-1812 -1879 2081 0
-1812 -1880 2082 0
-1812 -1881 2083 0
-1812 -1882 2084 0
-1813 -1827 2030 0
-1813 -1828 2031 0
-1813 -1829 2032 0
-1813 -1830 2033 0
-1813 -1831 2034 0
-1813 -1832 2035 0
-1813 -1833 2036 0
-1813 -1834 2037 0
-1813 -1835 2038 0
-1813 -1836 2039 0
-1813 -1837 2040 0
-1813 -1838 2041 0
-1813 -1839 2042 0
-1813 -1840 2043 0
-1813 -1841 2044 0
-1813 -1842 2045 0
-1813 -1843 2046 0
-1813 -1844 2047 0
-1813 -1845 2048 0
-1813 -1846 2049 0
-1813 -1847 2050 0
-1813 -1848 2051 0
-1813 -1849 2052 0
-1813 -1850 2053 0
-1813 -1851 2054 0
-1813 -1852 2055 0
-1813 -1853 2056 0
-1813 -1854 2057 0
-1813 -1855 2058 0
-1813 -1856 2059 0
-1813 -1857 2060 0
-1813 -1858 2061 0
-1813 -1859 2062 0
-1813 -1860 2063 0
-1813 -1861 2064 0
-1813 -1862 2065 0
-1813 -1863 2066 0
-1813 -1864 2067 0
-1813 -1865 2068 0
-1813 -1866 2069 0
-1813 -1867 2070 0
-1813 -1868 2071 0
-1813 -1869 2072 0
-1813 -1870 2073 0
-1813 -1871 2074 0
-1813 -1872 2075 0
-1813 -1873 2076 0
-1813 -1874 2077 0
-1813 -1875 2078 0
-1813 -1876 2079 0
-1813 -1877 2080 0
-1813 -1878 2081 0
-1813 -1879 2082 0
-1813 -1880 2083 0
-1813 -1881 2084 0
-1813 -1882 2085 0
-1814 -1827 2031 0
-1814 -1828 2032 0
-1814 -1829 2033 0
-1814 -1830 2034 0
-1814 -1831 2035 0
-1814 -1832 2036 0
-1814 -1833 2037 0
-1814 -1834 2038 0
-1814 -1835 2039 0
-1814 -1836 2040 0
-1814 -1837 2041 0
-1814 -1838 2042 0
-1814 -1839 2043 0
-1814 -1840 2044 0
-1814 -1841 2045 0
-1814 -1842 2046 0
-1814 -1843 2047 0
-1814 -1844 2048 0
-1814 -1845 2049 0
-1814 -1846 2050 0
-1814 -1847 2051 0
-1814 -1848 2052 0
-1814 -1849 2053 0
-1814 -1850 2054 0
-1814 -1851 2055 0
-1814 -1852 2056 0
-1814 -1853 2057 0
-1814 -1854 2058 0
-1814 -1855 2059 0
-1814 -1856 2060 0
-1814 -1857 2061 0
-1814 -1858 2062 0
-1814 -1859 2063 0
-1814 -1860 2064 0
-1814 -1861 2065 0
-1814 -1862 2066 0
-1814 -1863 2067 0
-1814 -1864 2068 0
-1814 -1865 2069 0
-1814 -1866 2070 0
-1814 -1867 2071 0
-1814 -1868 2072 0
-1814 -1869 2073 0
-1814 -1870 2074 0
-1814 -1871 2075 0
-1814 -1872 2076 0
-1814 -1873 2077 0
-1814 -1874 2078 0
-1814 -1875 2079 0
-1814 -1876 2080 0
-1814 -1877 2081 0
-1814 -1878 2082 0
-1814 -1879 2083 0
-1814 -1880 2084 0
-1814 -1881 2085 0
-1814 -1882 2086 0
-1815 -1827 2032 0
-1815 -1828 2033 0
-1815 -1829 2034 0
-1815 -1830 2035 0
-1815 -1831 2036 0
-1815 -1832 2037 0
-1815 -1833 2038 0
-1815 -1834 2039 0
-1815 -1835 2040 0
-1815 -1836 2041 0
-1815 -1837 2042 0
-1815 -1838 2043 0
-1815 -1839 2044 0
-1815 -1840 2045 0
-1815 -1841 2046 0
-1815 -1842 2047 0
-1815 -1843 2048 0
-1815 -1844 2049 0
-1815 -1845 2050 0
-1815 -1846 2051 0
-1815 -1847 2052 0
-1815 -1848 2053 0
-1815 -1849 2054 0
-1815 -1850 2055 0
-1815 -1851 2056 0
-1815 -1852 2057 0
-1815 -1853 2058 0
-1815 -1854 2059 0
-1815 -1855 2060 0
-1815 -1856 2061 0
-1815 -1857 2062 0
-1815 -1858 2063 0
-1815 -1859 2064 0
-1815 -1860 2065 0
-1815 -1861 2066 0
-1815 -1862 2067 0
-1815 -1863 2068 0
-1815 -1864 2069 0
-1815 -1865 2070 0
-1815 -1866 2071 0
-1815 -1867 2072 0
-1815 -1868 2073 0
-1815 -1869 2074 0
-1815 -1870 2075 0
-1815 -1871 2076 0
-1815 -1872 2077 0
-1815 -1873 2078 0
-1815 -1874 2079 0
-1815 -1875 2080 0
-1815 -1876 2081 0
-1815 -1877 2082 0
-1815 -1878 2083 0
-1815 -1879 2084 0
-1815 -1880 2085 0
-1815 -1881 2086 0
-1815 -1882 2087 0
-1816 -1827 2033 0
-1816 -1828 2034 0
-1816 -1829 2035 0
-1816 -1830 2036 0
-1816 -1831 2037 0
-1816 -1832 2038 0
-1816 -1833 2039 0
-1816 -1834 2040 0
-1816 -1835 2041 0
-1816 -1836 2042 0
-1816 -1837 2043 0
-1816 -1838 2044 0
-1816 -1839 2045 0
-1816 -1840 2046 0
-1816 -1841 2047 0
-1816 -1842 2048 0
-1816 -1843 2049 0
-1816 -1844 2050 0
-1816 -1845 2051 0
-1816 -1846 2052 0
-1816 -1847 2053 0
-1816 -1848 2054 0
-1816 -1849 2055 0
-1816 -1850 2056 0
-1816 -1851 2057 0
-1816 -1852 2058 0
-1816 -1853 2059 0
-1816 -1854 2060 0
-1816 -1855 2061 0
-1816 -1856 2062 0
-1816 -1857 2063 0
-1816 -1858 2064 0
-1816 -1859 2065 0
-1816 -1860 2066 0
-1816 -1861 2067 0
-1816 -1862 2068 0
-1816 -1863 2069 0
-1816 -1864 2070 0
-1816 -1865 2071 0
-1816 -1866 2072 0
-1816 -1867 2073 0
-1816 -1868 2074 0
-1816 -1869 2075 0
-1816 -1870 2076 0
-1816 -1871 2077 0
-1816 -1872 2078 0
-1816 -1873 2079 0
-1816 -1874 2080 0
-1816 -1875 2081 0
-1816 -1876 2082 0
-1816 -1877 2083 0
-1816 -1878 2084 0
-1816 -1879 2085 0
-1816 -1880 2086 0
-1816 -1881 2087 0
-1816 -1882 2088 0
-1817 -1827 2034 0
-1817 -1828 2035 0
-1817 -1829 2036 0
-1817 -1830 2037 0
-1817 -1831 2038 0
-1817 -1832 2039 0
-1817 -1833 2040 0
-1817 -1834 2041 0
-1817 -1835 2042 0
-1817 -1836 2043 0
-1817 -1837 2044 0
-1817 -1838 2045 0
-1817 -1839 2046 0
-1817 -1840 2047 0
-1817 -1841 2048 0
-1817 -1842 2049 0
-1817 -1843 2050 0
-1817 -1844 2051 0
-1817 -1845 2052 0
-1817 -1846 2053 0
-1817 -1847 2054 0
-1817 -1848 2055 0
-1817 -1849 2056 0
-1817 -1850 2057 0
-1817 -1851 2058 0
-1817 -1852 2059 0
-1817 -1853 2060 0
-1817 -1854 2061 0
-1817 -1855 2062 0
-1817 -1856 2063 0
-1817 -1857 2064 0
-1817 -1858 2065 0
-1817 -1859 2066 0
-1817 -1860 2067 0
-1817 -1861 2068 0
-1817 -1862 2069 0
-1817 -1863 2070 0
-1817 -1864 2071 0
-1817 -1865 2072 0
-1817 -1866 2073 0
-1817 -1867 2074 0
-1817 -1868 2075 0
-1817 -1869 2076 0
-1817 -1870 2077 0
-1817 -1871 2078 0
-1817 -1872 2079 0
-1817 -1873 2080 0
-1817 -1874 2081 0
-1817 -1875 2082 0
-1817 -1876 2083 0
-1817 -1877 2084 0
-1817 -1878 2085 0
-1817 -1879 2086 0
-1817 -1880 2087 0
-1817 -1881 2088 0
-1817 -1882 2089 0
-1818 -1827 2035 0
-1818 -1828 2036 0
-1818 -1829 2037 0
-1818 -1830 2038 0
-1818 -1831 2039 0
-1818 -1832 2040 0
-1818 -1833 2041 0
-1818 -1834 2042 0
-1818 -1835 2043 0
-1818 -1836 2044 0
-1818 -1837 2045 0
-1818 -1838 2046 0
-1818 -1839 2047 0
-1818 -1840 2048 0
-1818 -1841 2049 0
-1818 -1842 2050 0
-1818 -1843 2051 0
-1818 -1844 2052 0
-1818 -1845 2053 0
-1818 -1846 2054 0
-1818 -1847 2055 0
-1818 -1848 2056 0
-1818 -1849 2057 0
-1818 -1850 2058 0
-1818 -1851 2059 0
-1818 -1852 2060 0
-1818 -1853 2061 0
-1818 -1854 2062 0
-1818 -1855 2063 0
-1818 -1856 2064 0
-1818 -1857 2065 0
-1818 -1858 2066 0
-1818 -1859 2067 0
-1818 -1860 2068 0
-1818 -1861 2069 0
-1818 -1862 2070 0
-1818 -1863 2071 0
-1818 -1864 2072 0
-1818 -1865 2073 0
-1818 -1866 2074 0
-1818 -1867 2075 0
-1818 -1868 2076 0
-1818 -1869 2077 0
-1818 -1870 2078 0
-1818 -1871 2079 0
-1818 -1872 2080 0
-1818 -1873 2081 0
-1818 -1874 2082 0
-1818 -1875 2083 0
-1818 -1876 2084 0
-1818 -1877 2085 0
-1818 -1878 2086 0
-1818 -1879 2087 0
-1818 -1880 2088 0
-1818 -1881 2089 0
-1818 -1882 2090 0
-1819 -1827 2036 0
-1819 -1828 2037 0
-1819 -1829 2038 0
-1819 -1830 2039 0
-1819 -1831 2040 0
-1819 -1832 2041 0
-1819 -1833 2042 0
-1819 -1834 2043 0
-1819 -1835 2044 0
-1819 -1836 2045 0
-1819 -1837 2046 0
-1819 -1838 2047 0
-1819 -1839 2048 0
-1819 -1840 2049 0
-1819 -1841 2050 0
-1819 -1842 2051 0
-1819 -1843 2052 0
-1819 -1844 2053 0
-1819 -1845 2054 0
-1819 -1846 2055 0
-1819 -1847 2056 0
-1819 -1848 2057 0
-1819 -1849 2058 0
-1819 -1850 2059 0
-1819 -1851 2060 0
-1819 -1852 2061 0
-1819 -1853 2062 0
-1819 -1854 2063 0
-1819 -1855 2064 0
-1819 -1856 2065 0
-1819 -1857 2066 0
-1819 -1858 2067 0
-1819 -1859 2068 0
-1819 -1860 2069 0
-1819 -1861 2070 0
-1819 -1862 2071 0
-1819 -1863 2072 0
-1819 -1864 2073 0
-1819 -1865 2074 0
-1819 -1866 2075 0
-1819 -1867 2076 0
-1819 -1868 2077 0
-1819 -1869 2078 0
-1819 -1870 2079 0
-1819 -1871 2080 0
-1819 -1872 2081 0
-1819 -1873 2082 0
-1819 -1874 2083 0
-1819 -1875 2084 0
-1819 -1876 2085 0
-1819 -1877 2086 0
-1819 -1878 2087 0
-1819 -1879 2088 0
-1819 -1880 2089 0
-1819 -1881 2090 0
-1819 -1882 2091 0
-1820 -1827 2037 0
-1820 -1828 2038 0
-1820 -1829 2039 0
-1820 -1830 2040 0
-1820 -1831 2041 0
-1820 -1832 2042 0
-1820 -1833 2043 0
-1820 -1834 2044 0
-1820 -1835 2045 0
-1820 -1836 2046 0
-1820 -1837 2047 0
-1820 -1838 2048 0
-1820 -1839 2049 0
-1820 -1840 2050 0
-1820 -1841 2051 0
-1820 -1842 2052 0
-1820 -1843 2053 0
-1820 -1844 2054 0
-1820 -1845 2055 0
-1820 -1846 2056 0
-1820 -1847 2057 0
-1820 -1848 2058 0
-1820 -1849 2059 0
-1820 -1850 2060 0
-1820 -1851 2061 0
-1820 -1852 2062 0
-1820 -1853 2063 0
-1820 -1854 2064 0
-1820 -1855 2065 0
-1820 -1856 2066 0
-1820 -1857 2067 0
-1820 -1858 2068 0
-1820 -1859 2069 0
-1820 -1860 2070 0
-1820 -1861 2071 0
-1820 -1862 2072 0
-1820 -1863 2073 0
-1820 -1864 2074 0
-1820 -1865 2075 0
-1820 -1866 2076 0
-1820 -1867 2077 0
-1820 -1868 2078 0
-1820 -1869 2079 0
-1820 -1870 2080 0
-1820 -1871 2081 0
-1820 -1872 2082 0
-1820 -1873 2083 0
-1820 -1874 2084 0
-1820 -1875 2085 0
-1820 -1876 2086 0
-1820 -1877 2087 0
-1820 -1878 2088 0
-1820 -1879 2089 0
-1820 -1880 2090 0
-1820 -1881 2091 0
-1820 -1882 2092 0
-1821 -1827 2038 0
-1821 -1828 2039 0
-1821 -1829 2040 0
-1821 -1830 2041 0
-1821 -1831 2042 0
-1821 -1832 2043 0
-1821 -1833 2044 0
-1821 -1834 2045 0
-1821 -1835 2046 0
-1821 -1836 2047 0
-1821 -1837 2048 0
-1821 -1838 2049 0
-1821 -1839 2050 0
-1821 -1840 2051 0
-1821 -1841 2052 0
-1821 -1842 2053 0
-1821 -1843 2054 0
-1821 -1844 2055 0
-1821 -1845 2056 0
-1821 -1846 2057 0
-1821 -1847 2058 0
-1821 -1848 2059 0
-1821 -1849 2060 0
-1821 -1850 2061 0
-1821 -1851 2062 0
-1821 -1852 2063 0
-1821 -1853 2064 0
-1821 -1854 2065 0
-1821 -1855 2066 0
-1821 -1856 2067 0
-1821 -1857 2068 0
-1821 -1858 2069 0
-1821 -1859 2070 0
-1821 -1860 2071 0
-1821 -1861 2072 0
-1821 -1862 2073 0
-1821 -1863 2074 0
-1821 -1864 2075 0
-1821 -1865 2076 0
-1821 -1866 2077 0
-1821 -1867 2078 0
-1821 -1868 2079 0
-1821 -1869 2080 0
-1821 -1870 2081 0
-1821 -1871 2082 0
-1821 -1872 2083 0
-1821 -1873 2084 0
-1821 -1874 2085 0
-1821 -1875 2086 0
-1821 -1876 2087 0
-1821 -1877 2088 0
-1821 -1878 2089 0
-1821 -1879 2090 0
-1821 -1880 2091 0
-1821 -1881 2092 0
-1821 -1882 2093 0
-1822 -1827 2039 0
-1822 -1828 2040 0
-1822 -1829 2041 0
-1822 -1830 2042 0
-1822 -1831 2043 0
-1822 -1832 2044 0
-1822 -1833 2045 0
-1822 -1834 2046 0
-1822 -1835 2047 0
-1822 -1836 2048 0
-1822 -1837 2049 0
-1822 -1838 2050 0
-1822 -1839 2051 0
-1822 -1840 2052 0
-1822 -1841 2053 0
-1822 -1842 2054 0
-1822 -1843 2055 0
-1822 -1844 2056 0
-1822 -1845 2057 0
-1822 -1846 2058 0
-1822 -1847 2059 0
-1822 -1848 2060 0
-1822 -1849 2061 0
-1822 -1850 2062 0
-1822 -1851 2063 0
-1822 -1852 2064 0
-1822 -1853 2065 0
-1822 -1854 2066 0
-1822 -1855 2067 0
-1822 -1856 2068 0
-1822 -1857 2069 0
-1822 -1858 2070 0
-1822 -1859 2071 0
-1822 -1860 2072 0
-1822 -1861 2073 0
-1822 -1862 2074 0
-1822 -1863 2075 0
-1822 -1864 2076 0
-1822 -1865 2077 0
-1822 -1866 2078 0
-1822 -1867 2079 0
-1822 -1868 2080 0
-1822 -1869 2081 0
-1822 -1870 2082 0
-1822 -1871 2083 0
-1822 -1872 2084 0
-1822 -1873 2085 0
-1822 -1874 2086 0
-1822 -1875 2087 0
-1822 -1876 2088 0
-1822 -1877 2089 0
-1822 -1878 2090 0
-1822 -1879 2091 0
-1822 -1880 2092 0
-1822 -1881 2093 0
-1822 -1882 2094 0
-1823 -1827 2040 0
-1823 -1828 2041 0
-1823 -1829 2042 0
-1823 -1830 2043 0
-1823 -1831 2044 0
-1823 -1832 2045 0
-1823 -1833 2046 0
-1823 -1834 2047 0
-1823 -1835 2048 0
-1823 -1836 2049 0
-1823 -1837 2050 0
-1823 -1838 2051 0
-1823 -1839 2052 0
-1823 -1840 2053 0
-1823 -1841 2054 0
-1823 -1842 2055 0
-1823 -1843 2056 0
-1823 -1844 2057 0
-1823 -1845 2058 0
-1823 -1846 2059 0
-1823 -1847 2060 0
-1823 -1848 2061 0
-1823 -1849 2062 0
-1823 -1850 2063 0
-1823 -1851 2064 0
-1823 -1852 2065 0
-1823 -1853 2066 0
-1823 -1854 2067 0
-1823 -1855 2068 0
-1823 -1856 2069 0
-1823 -1857 2070 0
-1823 -1858 2071 0
-1823 -1859 2072 0
-1823 -1860 2073 0
-1823 -1861 2074 0
-1823 -1862 2075 0
-1823 -1863 2076 0
-1823 -1864 2077 0
-1823 -1865 2078 0
-1823 -1866 2079 0
-1823 -1867 2080 0
-1823 -1868 2081 0
-1823 -1869 2082 0
-1823 -1870 2083 0
-1823 -1871 2084 0
-1823 -1872 2085 0
-1823 -1873 2086 0
-1823 -1874 2087 0
-1823 -1875 2088 0
-1823 -1876 2089 0
-1823 -1877 2090 0
-1823 -1878 2091 0
-1823 -1879 2092 0
-1823 -1880 2093 0
-1823 -1881 2094 0
-1823 -1882 2095 0
-1824 -1827 2041 0
-1824 -1828 2042 0
-1824 -1829 2043 0
-1824 -1830 2044 0
-1824 -1831 2045 0
-1824 -1832 2046 0
-1824 -1833 2047 0
-1824 -1834 2048 0
-1824 -1835 2049 0
-1824 -1836 2050 0
-1824 -1837 2051 0
-1824 -1838 2052 0
-1824 -1839 2053 0
-1824 -1840 2054 0
-1824 -1841 2055 0
-1824 -1842 2056 0
-1824 -1843 2057 0
-1824 -1844 2058 0
-1824 -1845 2059 0
-1824 -1846 2060 0
-1824 -1847 2061 0
-1824 -1848 2062 0
-1824 -1849 2063 0
-1824 -1850 2064 0
-1824 -1851 2065 0
-1824 -1852 2066 0
-1824 -1853 2067 0
-1824 -1854 2068 0
-1824 -1855 2069 0
-1824 -1856 2070 0
-1824 -1857 2071 0
-1824 -1858 2072 0
-1824 -1859 2073 0
-1824 -1860 2074 0
-1824 -1861 2075 0
-1824 -1862 2076 0
-1824 -1863 2077 0
-1824 -1864 2078 0
-1824 -1865 2079 0
-1824 -1866 2080 0
-1824 -1867 2081 0
-1824 -1868 2082 0
-1824 -1869 2083 0
-1824 -1870 2084 0
-1824 -1871 2085 0
-1824 -1872 2086 0
-1824 -1873 2087 0
-1824 -1874 2088 0
-1824 -1875 2089 0
-1824 -1876 2090 0
-1824 -1877 2091 0
-1824 -1878 2092 0
-1824 -1879 2093 0
-1824 -1880 2094 0
-1824 -1881 2095 0
-1824 -1882 2096 0
-1825 -1827 2042 0
-1825 -1828 2043 0
-1825 -1829 2044 0
-1825 -1830 2045 0
-1825 -1831 2046 0
-1825 -1832 2047 0
-1825 -1833 2048 0
-1825 -1834 2049 0
-1825 -1835 2050 0
-1825 -1836 2051 0
-1825 -1837 2052 0
-1825 -1838 2053 0
-1825 -1839 2054 0
-1825 -1840 2055 0
-1825 -1841 2056 0
-1825 -1842 2057 0
-1825 -1843 2058 0
-1825 -1844 2059 0
-1825 -1845 2060 0
-1825 -1846 2061 0
-1825 -1847 2062 0
-1825 -1848 2063 0
-1825 -1849 2064 0
-1825 -1850 2065 0
-1825 -1851 2066 0
-1825 -1852 2067 0
-1825 -1853 2068 0
-1825 -1854 2069 0
-1825 -1855 2070 0
-1825 -1856 2071 0
-1825 -1857 2072 0
-1825 -1858 2073 0
-1825 -1859 2074 0
-1825 -1860 2075 0
-1825 -1861 2076 0
-1825 -1862 2077 0
-1825 -1863 2078 0
-1825 -1864 2079 0
-1825 -1865 2080 0
-1825 -1866 2081 0
-1825 -1867 2082 0
-1825 -1868 2083 0
-1825 -1869 2084 0
-1825 -1870 2085 0
-1825 -1871 2086 0
-1825 -1872 2087 0
-1825 -1873 2088 0
-1825 -1874 2089 0
-1825 -1875 2090 0
-1825 -1876 2091 0
-1825 -1877 2092 0
-1825 -1878 2093 0
-1825 -1879 2094 0
-1825 -1880 2095 0
-1825 -1881 2096 0
-1825 -1882 2097 0
-1826 -1827 2043 0
-1826 -1828 2044 0
-1826 -1829 2045 0
-1826 -1830 2046 0
-1826 -1831 2047 0
-1826 -1832 2048 0
-1826 -1833 2049 0
-1826 -1834 2050 0
-1826 -1835 2051 0
-1826 -1836 2052 0
-1826 -1837 2053 0
-1826 -1838 2054 0
-1826 -1839 2055 0
-1826 -1840 2056 0
-1826 -1841 2057 0
-1826 -1842 2058 0
-1826 -1843 2059 0
-1826 -1844 2060 0
-1826 -1845 2061 0
-1826 -1846 2062 0
-1826 -1847 2063 0
-1826 -1848 2064 0
-1826 -1849 2065 0
-1826 -1850 2066 0
-1826 -1851 2067 0
-1826 -1852 2068 0
-1826 -1853 2069 0
-1826 -1854 2070 0
-1826 -1855 2071 0
-1826 -1856 2072 0
-1826 -1857 2073 0
-1826 -1858 2074 0
-1826 -1859 2075 0
-1826 -1860 2076 0
-1826 -1861 2077 0
-1826 -1862 2078 0
-1826 -1863 2079 0
-1826 -1864 2080 0
-1826 -1865 2081 0
-1826 -1866 2082 0
-1826 -1867 2083 0
-1826 -1868 2084 0
-1826 -1869 2085 0
-1826 -1870 2086 0
-1826 -1871 2087 0
-1826 -1872 2088 0
-1826 -1873 2089 0
-1826 -1874 2090 0
-1826 -1875 2091 0
-1826 -1876 2092 0
-1826 -1877 2093 0
-1826 -1878 2094 0
-1826 -1879 2095 0
-1826 -1880 2096 0
-1826 -1881 2097 0
-1826 -1882 2098 0
-1947 2099 0
-1948 2100 0
-1949 2101 0
-1950 2102 0
-1951 2103 0
-1952 2104 0
-1953 2105 0
-1954 2106 0
-1955 2107 0
-1956 2108 0
-1957 2109 0
-1958 2110 0
-1959 2111 0
-1960 2112 0
-1961 2113 0
-1962 2114 0
-1963 2115 0
-1964 2116 0
-1965 2117 0
-1966 2118 0
-1967 2119 0
-1968 2120 0
-1969 2121 0
-1970 2122 0
-1971 2123 0
-1972 2124 0
-1973 2125 0
-1974 2126 0
-1975 2127 0
-1976 2128 0
-1977 2129 0
-1978 2130 0
-1979 2131 0
-1980 2132 0
-1981 2133 0
-1982 2134 0
-1983 2135 0
-1984 2136 0
-1985 2137 0
-1986 2138 0
-1987 2139 0
-1988 2140 0
-1989 2141 0
-1990 2142 0
-1991 2143 0
-1992 2144 0
-1993 2145 0
-1994 2146 0
-1995 2147 0
-1996 2148 0
-1997 2149 0
-1998 2150 0
-1999 2151 0
-2000 2152 0
-2001 2153 0
-2002 2154 0
-2003 2155 0
-2004 2156 0
-2005 2157 0
-2006 2158 0
-2007 2159 0
-2008 2160 0
-2009 2161 0
-2010 2162 0
-1883 2099 0
-1884 2100 0
-1885 2101 0
-1886 2102 0
-1887 2103 0
-1888 2104 0
-1889 2105 0
-1890 2106 0
-1891 2107 0
-1892 2108 0
-1893 2109 0
-1894 2110 0
-1895 2111 0
-1896 2112 0
-1897 2113 0
-1898 2114 0
-1899 2115 0
-1900 2116 0
-1901 2117 0
-1902 2118 0
-1903 2119 0
-1904 2120 0
-1905 2121 0
-1906 2122 0
-1907 2123 0
-1908 2124 0
-1909 2125 0
-1910 2126 0
-1911 2127 0
-1912 2128 0
-1913 2129 0
-1914 2130 0
-1915 2131 0
-1916 2132 0
-1917 2133 0
-1918 2134 0
-1919 2135 0
-1920 2136 0
-1921 2137 0
-1922 2138 0
-1923 2139 0
-1924 2140 0
-1925 2141 0
-1926 2142 0
-1927 2143 0
-1928 2144 0
-1929 2145 0
-1930 2146 0
-1931 2147 0
-1932 2148 0
-1933 2149 0
-1934 2150 0
-1935 2151 0
-1936 2152 0
-1937 2153 0
-1938 2154 0
-1939 2155 0
-1940 2156 0
-1941 2157 0
-1942 2158 0
-1943 2159 0
-1944 2160 0
-1945 2161 0
-1946 2162 0
-1883 -1947 2100 0
-1883 -1948 2101 0
-1883 -1949 2102 0
-1883 -1950 2103 0
-1883 -1951 2104 0
-1883 -1952 2105 0
-1883 -1953 2106 0
-1883 -1954 2107 0
-1883 -1955 2108 0
-1883 -1956 2109 0
-1883 -1957 2110 0
-1883 -1958 2111 0
-1883 -1959 2112 0
-1883 -1960 2113 0
-1883 -1961 2114 0
-1883 -1962 2115 0
-1883 -1963 2116 0
-1883 -1964 2117 0
-1883 -1965 2118 0
-1883 -1966 2119 0
-1883 -1967 2120 0
-1883 -1968 2121 0
-1883 -1969 2122 0
-1883 -1970 2123 0
-1883 -1971 2124 0
-1883 -1972 2125 0
-1883 -1973 2126 0
-1883 -1974 2127 0
-1883 -1975 2128 0
-1883 -1976 2129 0
-1883 -1977 2130 0
-1883 -1978 2131 0
-1883 -1979 2132 0
-1883 -1980 2133 0
-1883 -1981 2134 0
-1883 -1982 2135 0
-1883 -1983 2136 0
-1883 -1984 2137 0
-1883 -1985 2138 0
-1883 -1986 2139 0
-1883 -1987 2140 0
-1883 -1988 2141 0
-1883 -1989 2142 0
-1883 -1990 2143 0
-1883 -1991 2144 0
-1883 -1992 2145 0
-1883 -1993 2146 0
-1883 -1994 2147 0
-1883 -1995 2148 0
-1883 -1996 2149 0
-1883 -1997 2150 0
-1883 -1998 2151 0
-1883 -1999 2152 0
-1883 -2000 2153 0
-1883 -2001 2154 0
-1883 -2002 2155 0
-1883 -2003 2156 0
-1883 -2004 2157 0
-1883 -2005 2158 0
-1883 -2006 2159 0
-1883 -2007 2160 0
-1883 -2008 2161 0
-1883 -2009 2162 0
-1883 -2010 2163 0
-1884 -1947 2101 0
-1884 -1948 2102 0
-1884 -1949 2103 0
-1884 -1950 2104 0
-1884 -1951 2105 0
-1884 -1952 2106 0
-1884 -1953 2107 0
-1884 -1954 2108 0
-1884 -1955 2109 0
-1884 -1956 2110 0
-1884 -1957 2111 0
-1884 -1958 2112 0
-1884 -1959 2113 0
-1884 -1960 2114 0
-1884 -1961 2115 0
-1884 -1962 2116 0
-1884 -1963 2117 0
-1884 -1964 2118 0
-1884 -1965 2119 0
-1884 -1966 2120 0
-1884 -1967 2121 0
-1884 -1968 2122 0
-1884 -1969 2123 0
-1884 -1970 2124 0
-1884 -1971 2125 0
-1884 -1972 2126 0
-1884 -1973 2127 0
-1884 -1974 2128 0
-1884 -1975 2129 0
-1884 -1976 2130 0
-1884 -1977 2131 0
-1884 -1978 2132 0
-1884 -1979 2133 0
-1884 -1980 2134 0
-1884 -1981 2135 0
-1884 -1982 2136 0
-1884 -1983 2137 0
-1884 -1984 2138 0
-1884 -1985 2139 0
-1884 -1986 2140 0
-1884 -1987 2141 0
-1884 -1988 2142 0
-1884 -1989 2143 0
-1884 -1990 2144 0
-1884 -1991 2145 0
-1884 -1992 2146 0
-1884 -1993 2147 0
-1884 -1994 2148 0
-1884 -1995 2149 0
-1884 -1996 2150 0
-1884 -1997 2151 0
-1884 -1998 2152 0
-1884 -1999 2153 0
-1884 -2000 2154 0
-1884 -2001 2155 0
-1884 -2002 2156 0
-1884 -2003 2157 0
-1884 -2004 2158 0
-1884 -2005 2159 0
-1884 -2006 2160 0
-1884 -2007 2161 0
-1884 -2008 2162 0
-1884 -2009 2163 0
-1884 -2010 2164 0
-1885 -1947 2102 0
-1885 -1948 2103 0
-1885 -1949 2104 0
-1885 -1950 2105 0
-1885 -1951 2106 0
-1885 -1952 2107 0
-1885 -1953 2108 0
-1885 -1954 2109 0
-1885 -1955 2110 0
-1885 -1956 2111 0
-1885 -1957 2112 0
-1885 -1958 2113 0
-1885 -1959 2114 0
-1885 -1960 2115 0
-1885 -1961 2116 0
-1885 -1962 2117 0
-1885 -1963 2118 0
-1885 -1964 2119 0
-1885 -1965 2120 0
-1885 -1966 2121 0
-1885 -1967 2122 0
-1885 -1968 2123 0
-1885 -1969 2124 0
-1885 -1970 2125 0
-1885 -1971 2126 0
-1885 -1972 2127 0
-1885 -1973 2128 0
-1885 -1974 2129 0
-1885 -1975 2130 0
-1885 -1976 2131 0
-1885 -1977 2132 0
-1885 -1978 2133 0
-1885 -1979 2134 0
-1885 -1980 2135 0
-1885 -1981 2136 0
-1885 -1982 2137 0
-1885 -1983 2138 0
-1885 -1984 2139 0
-1885 -1985 2140 0
-1885 -1986 2141 0
-1885 -1987 2142 0
-1885 -1988 2143 0
-1885 -1989 2144 0
-1885 -1990 2145 0
-1885 -1991 2146 0
-1885 -1992 2147 0
-1885 -1993 2148 0
-1885 -1994 2149 0
-1885 -1995 2150 0
-1885 -1996 2151 0
-1885 -1997 2152 0
-1885 -1998 2153 0
-1885 -1999 2154 0
-1885 -2000 2155 0
-1885 -2001 2156 0
-1885 -2002 2157 0
-1885 -2003 2158 0
-1885 -2004 2159 0
-1885 -2005 2160 0
-1885 -2006 2161 0
-1885 -2007 2162 0
-1885 -2008 2163 0
-1885 -2009 2164 0
-1885 -2010 2165 0
-1886 -1947 2103 0
-1886 -1948 2104 0
-1886 -1949 2105 0
-1886 -1950 2106 0
-1886 -1951 2107 0
-1886 -1952 2108 0
-1886 -1953 2109 0
-1886 -1954 2110 0
-1886 -1955 2111 0
-1886 -1956 2112 0
-1886 -1957 2113 0
-1886 -1958 2114 0
-1886 -1959 2115 0
-1886 -1960 2116 0
-1886 -1961 2117 0
-1886 -1962 2118 0
-1886 -1963 2119 0
-1886 -1964 2120 0
-1886 -1965 2121 0
-1886 -1966 2122 0
-1886 -1967 2123 0
-1886 -1968 2124 0
-1886 -1969 2125 0
-1886 -1970 2126 0
-1886 -1971 2127 0
-1886 -1972 2128 0
-1886 -1973 2129 0
-1886 -1974 2130 0
-1886 -1975 2131 0
-1886 -1976 2132 0
-1886 -1977 2133 0
-1886 -1978 2134 0
-1886 -1979 2135 0
-1886 -1980 2136 0
-1886 -1981 2137 0
-1886 -1982 2138 0
-1886 -1983 2139 0
-1886 -1984 2140 0
-1886 -1985 2141 0
-1886 -1986 2142 0
-1886 -1987 2143 0
-1886 -1988 2144 0
-1886 -1989 2145 0
-1886 -1990 2146 0
-1886 -1991 2147 0
-1886 -1992 2148 0
-1886 -1993 2149 0
-1886 -1994 2150 0
-1886 -1995 2151 0
-1886 -1996 2152 0
-1886 -1997 2153 0
-1886 -1998 2154 0
-1886 -1999 2155 0
-1886 -2000 2156 0
-1886 -2001 2157 0
-1886 -2002 2158 0
-1886 -2003 2159 0
-1886 -2004 2160 0
-1886 -2005 2161 0
-1886 -2006 2162 0
-1886 -2007 2163 0
-1886 -2008 2164 0
-1886 -2009 2165 0
-1886 -2010 2166 0
-1887 -1947 2104 0
-1887 -1948 2105 0
-1887 -1949 2106 0
-1887 -1950 2107 0
-1887 -1951 2108 0
-1887 -1952 2109 0
-1887 -1953 2110 0
-1887 -1954 2111 0
-1887 -1955 2112 0
-1887 -1956 2113 0
-1887 -1957 2114 0
-1887 -1958 2115 0
-1887 -1959 2116 0
-1887 -1960 2117 0
-1887 -1961 2118 0
-1887 -1962 2119 0
-1887 -1963 2120 0
-1887 -1964 2121 0
-1887 -1965 2122 0
-1887 -1966 2123 0
-1887 -1967 2124 0
-1887 -1968 2125 0
-1887 -1969 2126 0
-1887 -1970 2127 0
-1887 -1971 2128 0
-1887 -1972 2129 0
-1887 -1973 2130 0
-1887 -1974 2131 0
-1887 -1975 2132 0
-1887 -1976 2133 0
-1887 -1977 2134 0
-1887 -1978 2135 0
-1887 -1979 2136 0
-1887 -1980 2137 0
-1887 -1981 2138 0
-1887 -1982 2139 0
-1887 -1983 2140 0
-1887 -1984 2141 0
-1887 -1985 2142 0
-1887 -1986 2143 0
-1887 -1987 2144 0
-1887 -1988 2145 0
-1887 -1989 2146 0
-1887 -1990 2147 0
-1887 -1991 2148 0
-1887 -1992 2149 0
-1887 -1993 2150 0
-1887 -1994 2151 0
-1887 -1995 2152 0
-1887 -1996 2153 0
-1887 -1997 2154 0
-1887 -1998 2155 0
-1887 -1999 2156 0
-1887 -2000 2157 0
-1887 -2001 2158 0
-1887 -2002 2159 0
-1887 -2003 2160 0
-1887 -2004 2161 0
-1887 -2005 2162 0
-1887 -2006 2163 0
-1887 -2007 2164 0
-1887 -2008 2165 0
-1887 -2009 2166 0
-1887 -2010 2167 0
-1888 -1947 2105 0
-1888 -1948 2106 0
-1888 -1949 2107 0
-1888 -1950 2108 0
-1888 -1951 2109 0
-1888 -1952 2110 0
-1888 -1953 2111 0
-1888 -1954 2112 0
-1888 -1955 2113 0
-1888 -1956 2114 0
-1888 -1957 2115 0
-1888 -1958 2116 0
-1888 -1959 2117 0
-1888 -1960 2118 0
-1888 -1961 2119 0
-1888 -1962 2120 0
-1888 -1963 2121 0
-1888 -1964 2122 0
-1888 -1965 2123 0
-1888 -1966 2124 0
-1888 -1967 2125 0
-1888 -1968 2126 0
-1888 -1969 2127 0
-1888 -1970 2128 0
-1888 -1971 2129 0
-1888 -1972 2130 0
-1888 -1973 2131 0
-1888 -1974 2132 0
-1888 -1975 2133 0
-1888 -1976 2134 0
-1888 -1977 2135 0
-1888 -1978 2136 0
-1888 -1979 2137 0
-1888 -1980 2138 0
-1888 -1981 2139 0
-1888 -1982 2140 0
-1888 -1983 2141 0
-1888 -1984 2142 0
-1888 -1985 2143 0
-1888 -1986 2144 0
-1888 -1987 2145 0
-1888 -1988 2146 0
-1888 -1989 2147 0
-1888 -1990 2148 0
-1888 -1991 2149 0
-1888 -1992 2150 0
-1888 -1993 2151 0
-1888 -1994 2152 0
-1888 -1995 2153 0
-1888 -1996 2154 0
-1888 -1997 2155 0
-1888 -1998 2156 0
-1888 -1999 2157 0
-1888 -2000 2158 0
-1888 -2001 2159 0
-1888 -2002 2160 0
-1888 -2003 2161 0
-1888 -2004 2162 0
-1888 -2005 2163 0
-1888 -2006 2164 0
-1888 -2007 2165 0
-1888 -2008 2166 0
-1888 -2009 2167 0
-1888 -2010 2168 0
-1889 -1947 2106 0
-1889 -1948 2107 0
-1889 -1949 2108 0
-1889 -1950 2109 0
-1889 -1951 2110 0
-1889 -1952 2111 0
-1889 -1953 2112 0
-1889 -1954 2113 0
-1889 -1955 2114 0
-1889 -1956 2115 0
-1889 -1957 2116 0
-1889 -1958 2117 0
-1889 -1959 2118 0
-1889 -1960 2119 0
-1889 -1961 2120 0
-1889 -1962 2121 0
-1889 -1963 2122 0
-1889 -1964 2123 0
-1889 -1965 2124 0
-1889 -1966 2125 0
-1889 -1967 2126 0
-1889 -1968 2127 0
-1889 -1969 2128 0
-1889 -1970 2129 0
-1889 -1971 2130 0
-1889 -1972 2131 0
-1889 -1973 2132 0
-1889 -1974 2133 0
-1889 -1975 2134 0
-1889 -1976 2135 0
-1889 -1977 2136 0
-1889 -1978 2137 0
-1889 -1979 2138 0
-1889 -1980 2139 0
-1889 -1981 2140 0
-1889 -1982 2141 0
-1889 -1983 2142 0
-1889 -1984 2143 0
-1889 -1985 2144 0
-1889 -1986 2145 0
-1889 -1987 2146 0
-1889 -1988 2147 0
-1889 -1989 2148 0
-1889 -1990 2149 0
-1889 -1991 2150 0
-1889 -1992 2151 0
-1889 -1993 2152 0
-1889 -1994 2153 0
-1889 -1995 2154 0
-1889 -1996 2155 0
-1889 -1997 2156 0
-1889 -1998 2157 0
-1889 -1999 2158 0
-1889 -2000 2159 0
-1889 -2001 2160 0
-1889 -2002 2161 0
-1889 -2003 2162 0
-1889 -2004 2163 0
-1889 -2005 2164 0
-1889 -2006 2165 0
-1889 -2007 2166 0
-1889 -2008 2167 0
-1889 -2009 2168 0
-1889 -2010 2169 0
-1890 -1947 2107 0
-1890 -1948 2108 0
-1890 -1949 2109 0
-1890 -1950 2110 0
-1890 -1951 2111 0
-1890 -1952 2112 0
-1890 -1953 2113 0
-1890 -1954 2114 0
-1890 -1955 2115 0
-1890 -1956 2116 0
-1890 -1957 2117 0
-1890 -1958 2118 0
-1890 -1959 2119 0
-1890 -1960 2120 0
-1890 -1961 2121 0
-1890 -1962 2122 0
-1890 -1963 2123 0
-1890 -1964 2124 0
-1890 -1965 2125 0
-1890 -1966 2126 0
-1890 -1967 2127 0
-1890 -1968 2128 0
-1890 -1969 2129 0
-1890 -1970 2130 0
-1890 -1971 2131 0
-1890 -1972 2132 0
-1890 -1973 2133 0
-1890 -1974 2134 0
-1890 -1975 2135 0
-1890 -1976 2136 0
-1890 -1977 2137 0
-1890 -1978 2138 0
-1890 -1979 2139 0
-1890 -1980 2140 0
-1890 -1981 2141 0
-1890 -1982 2142 0
-1890 -1983 2143 0
-1890 -1984 2144 0
-1890 -1985 2145 0
-1890 -1986 2146 0
-1890 -1987 2147 0
-1890 -1988 2148 0
-1890 -1989 2149 0
-1890 -1990 2150 0
-1890 -1991 2151 0
-1890 -1992 2152 0
-1890 -1993 2153 0
-1890 -1994 2154 0
-1890 -1995 2155 0
-1890 -1996 2156 0
-1890 -1997 2157 0
-1890 -1998 2158 0
-1890 -1999 2159 0
-1890 -2000 2160 0
-1890 -2001 2161 0
-1890 -2002 2162 0
-1890 -2003 2163 0
-1890 -2004 2164 0
-1890 -2005 2165 0
-1890 -2006 2166 0
-1890 -2007 2167 0
-1890 -2008 2168 0
-1890 -2009 2169 0
-1890 -2010 2170 0
-1891 -1947 2108 0
-1891 -1948 2109 0
-1891 -1949 2110 0
-1891 -1950 2111 0
-1891 -1951 2112 0
-1891 -1952 2113 0
-1891 -1953 2114 0
-1891 -1954 2115 0
-1891 -1955 2116 0
-1891 -1956 2117 0
-1891 -1957 2118 0
-1891 -1958 2119 0
-1891 -1959 2120 0
-1891 -1960 2121 0
-1891 -1961 2122 0
-1891 -1962 2123 0
-1891 -1963 2124 0
-1891 -1964 2125 0
-1891 -1965 2126 0
-1891 -1966 2127 0
-1891 -1967 2128 0
-1891 -1968 2129 0
-1891 -1969 2130 0
-1891 -1970 2131 0
-1891 -1971 2132 0
-1891 -1972 2133 0
-1891 -1973 2134 0
-1891 -1974 2135 0
-1891 -1975 2136 0
-1891 -1976 2137 0
-1891 -1977 2138 0
-1891 -1978 2139 0
-1891 -1979 2140 0
-1891 -1980 2141 0
-1891 -1981 2142 0
-1891 -1982 2143 0
-1891 -1983 2144 0
-1891 -1984 2145 0
-1891 -1985 2146 0
-1891 -1986 2147 0
-1891 -1987 2148 0
-1891 -1988 2149 0
-1891 -1989 2150 0
-1891 -1990 2151 0
-1891 -1991 2152 0
-1891 -1992 2153 0
-1891 -1993 2154 0
-1891 -1994 2155 0
-1891 -1995 2156 0
-1891 -1996 2157 0
-1891 -1997 2158 0
-1891 -1998 2159 0
-1891 -1999 2160 0
-1891 -2000 2161 0
-1891 -2001 2162 0
-1891 -2002 2163 0
-1891 -2003 2164 0
-1891 -2004 2165 0
-1891 -2005 2166 0
-1891 -2006 2167 0
-1891 -2007 2168 0
-1891 -2008 2169 0
-1891 -2009 2170 0
-1891 -2010 2171 0
-1892 -1947 2109 0
-1892 -1948 2110 0
-1892 -1949 2111 0
-1892 -1950 2112 0
-1892 -1951 2113 0
-1892 -1952 2114 0
-1892 -1953 2115 0
-1892 -1954 2116 0
-1892 -1955 2117 0
-1892 -1956 2118 0
-1892 -1957 2119 0
-1892 -1958 2120 0
-1892 -1959 2121 0
-1892 -1960 2122 0
-1892 -1961 2123 0
-1892 -1962 2124 0
-1892 -1963 2125 0
-1892 -1964 2126 0
-1892 -1965 2127 0
-1892 -1966 2128 0
-1892 -1967 2129 0
-1892 -1968 2130 0
-1892 -1969 2131 0
-1892 -1970 2132 0
-1892 -1971 2133 0
-1892 -1972 2134 0
-1892 -1973 2135 0
-1892 -1974 2136 0
-1892 -1975 2137 0
-1892 -1976 2138 0
-1892 -1977 2139 0
-1892 -1978 2140 0
-1892 -1979 2141 0
-1892 -1980 2142 0
-1892 -1981 2143 0
-1892 -1982 2144 0
-1892 -1983 2145 0
-1892 -1984 2146 0
-1892 -1985 2147 0
-1892 -1986 2148 0
-1892 -1987 2149 0
-1892 -1988 2150 0
-1892 -1989 2151 0
-1892 -1990 2152 0
-1892 -1991 2153 0
-1892 -1992 2154 0
-1892 -1993 2155 0
-1892 -1994 2156 0
-1892 -1995 2157 0
-1892 -1996 2158 0
-1892 -1997 2159 0
-1892 -1998 2160 0
-1892 -1999 2161 0
-1892 -2000 2162 0
-1892 -2001 2163 0
-1892 -2002 2164 0
-1892 -2003 2165 0
-1892 -2004 2166 0
-1892 -2005 2167 0
-1892 -2006 2168 0
-1892 -2007 2169 0
-1892 -2008 2170 0
-1892 -2009 2171 0
-1892 -2010 2172 0
-1893 -1947 2110 0
-1893 -1948 2111 0
-1893 -1949 2112 0
-1893 -1950 2113 0
-1893 -1951 2114 0
-1893 -1952 2115 0
-1893 -1953 2116 0
-1893 -1954 2117 0
-1893 -1955 2118 0
-1893 -1956 2119 0
-1893 -1957 2120 0
-1893 -1958 2121 0
-1893 -1959 2122 0
-1893 -1960 2123 0
-1893 -1961 2124 0
-1893 -1962 2125 0
-1893 -1963 2126 0
-1893 -1964 2127 0
-1893 -1965 2128 0
-1893 -1966 2129 0
-1893 -1967 2130 0
-1893 -1968 2131 0
-1893 -1969 2132 0
-1893 -1970 2133 0
-1893 -1971 2134 0
-1893 -1972 2135 0
-1893 -1973 2136 0
-1893 -1974 2137 0
-1893 -1975 2138 0
-1893 -1976 2139 0
-1893 -1977 2140 0
-1893 -1978 2141 0
-1893 -1979 2142 0
-1893 -1980 2143 0
-1893 -1981 2144 0
-1893 -1982 2145 0
-1893 -1983 2146 0
-1893 -1984 2147 0
-1893 -1985 2148 0
-1893 -1986 2149 0
-1893 -1987 2150 0
-1893 -1988 2151 0
-1893 -1989 2152 0
-1893 -1990 2153 0
-1893 -1991 2154 0
-1893 -1992 2155 0
-1893 -1993 2156 0
-1893 -1994 2157 0
-1893 -1995 2158 0
-1893 -1996 2159 0
-1893 -1997 2160 0
-1893 -1998 2161 0
-1893 -1999 2162 0
-1893 -2000 2163 0
-1893 -2001 2164 0
-1893 -2002 2165 0
-1893 -2003 2166 0
-1893 -2004 2167 0
-1893 -2005 2168 0
-1893 -2006 2169 0
-1893 -2007 2170 0
-1893 -2008 2171 0
-1893 -2009 2172 0
-1893 -2010 2173 0
-1894 -1947 2111 0
-1894 -1948 2112 0
-1894 -1949 2113 0
-1894 -1950 2114 0
-1894 -1951 2115 0
-1894 -1952 2116 0
-1894 -1953 2117 0
-1894 -1954 2118 0
-1894 -1955 2119 0
-1894 -1956 2120 0
-1894 -1957 2121 0
-1894 -1958 2122 0
-1894 -1959 2123 0
-1894 -1960 2124 0
-1894 -1961 2125 0
-1894 -1962 2126 0
-1894 -1963 2127 0
-1894 -1964 2128 0
-1894 -1965 2129 0
-1894 -1966 2130 0
-1894 -1967 2131 0
-1894 -1968 2132 0
-1894 -1969 2133 0
-1894 -1970 2134 0
-1894 -1971 2135 0
-1894 -1972 2136 0
-1894 -1973 2137 0
-1894 -1974 2138 0
-1894 -1975 2139 0
-1894 -1976 2140 0
-1894 -1977 2141 0
-1894 -1978 2142 0
-1894 -1979 2143 0
-1894 -1980 2144 0
-1894 -1981 2145 0
-1894 -1982 2146 0
-1894 -1983 2147 0
-1894 -1984 2148 0
-1894 -1985 2149 0
-1894 -1986 2150 0
-1894 -1987 2151 0
-1894 -1988 2152 0
-1894 -1989 2153 0
-1894 -1990 2154 0
-1894 -1991 2155 0
-1894 -1992 2156 0
-1894 -1993 2157 0
-1894 -1994 2158 0
-1894 -1995 2159 0
-1894 -1996 2160 0
-1894 -1997 2161 0
-1894 -1998 2162 0
-1894 -1999 2163 0
-1894 -2000 2164 0
-1894 -2001 2165 0
-1894 -2002 2166 0
-1894 -2003 2167 0
-1894 -2004 2168 0
-1894 -2005 2169 0
-1894 -2006 2170 0
-1894 -2007 2171 0
-1894 -2008 2172 0
-1894 -2009 2173 0
-1894 -2010 2174 0
-1895 -1947 2112 0
-1895 -1948 2113 0
-1895 -1949 2114 0
-1895 -1950 2115 0
-1895 -1951 2116 0
-1895 -1952 2117 0
-1895 -1953 2118 0
-1895 -1954 2119 0
-1895 -1955 2120 0
-1895 -1956 2121 0
-1895 -1957 2122 0
-1895 -1958 2123 0
-1895 -1959 2124 0
-1895 -1960 2125 0
-1895 -1961 2126 0
-1895 -1962 2127 0
-1895 -1963 2128 0
-1895 -1964 2129 0
-1895 -1965 2130 0
-1895 -1966 2131 0
-1895 -1967 2132 0
-1895 -1968 2133 0
-1895 -1969 2134 0
-1895 -1970 2135 0
-1895 -1971 2136 0
-1895 -1972 2137 0
-1895 -1973 2138 0
-1895 -1974 2139 0
-1895 -1975 2140 0
-1895 -1976 2141 0
-1895 -1977 2142 0
-1895 -1978 2143 0
-1895 -1979 2144 0
-1895 -1980 2145 0
-1895 -1981 2146 0
-1895 -1982 2147 0
-1895 -1983 2148 0
-1895 -1984 2149 0
-1895 -1985 2150 0
-1895 -1986 2151 0
-1895 -1987 2152 0
-1895 -1988 2153 0
-1895 -1989 2154 0
-1895 -1990 2155 0
-1895 -1991 2156 0
-1895 -1992 2157 0
-1895 -1993 2158 0
-1895 -1994 2159 0
-1895 -1995 2160 0
-1895 -1996 2161 0
-1895 -1997 2162 0
-1895 -1998 2163 0
-1895 -1999 2164 0
-1895 -2000 2165 0
-1895 -2001 2166 0
-1895 -2002 2167 0
-1895 -2003 2168 0
-1895 -2004 2169 0
-1895 -2005 2170 0
-1895 -2006 2171 0
-1895 -2007 2172 0
-1895 -2008 2173 0
-1895 -2009 2174 0
-1895 -2010 2175 0
-1896 -1947 2113 0
-1896 -1948 2114 0
-1896 -1949 2115 0
-1896 -1950 2116 0
-1896 -1951 2117 0
-1896 -1952 2118 0
-1896 -1953 2119 0
-1896 -1954 2120 0
-1896 -1955 2121 0
-1896 -1956 2122 0
-1896 -1957 2123 0
-1896 -1958 2124 0
-1896 -1959 2125 0
-1896 -1960 2126 0
-1896 -1961 2127 0
-1896 -1962 2128 0
-1896 -1963 2129 0
-1896 -1964 2130 0
-1896 -1965 2131 0
-1896 -1966 2132 0
-1896 -1967 2133 0
-1896 -1968 2134 0
-1896 -1969 2135 0
-1896 -1970 2136 0
-1896 -1971 2137 0
-1896 -1972 2138 0
-1896 -1973 2139 0
-1896 -1974 2140 0
-1896 -1975 2141 0
-1896 -1976 2142 0
-1896 -1977 2143 0
-1896 -1978 2144 0
-1896 -1979 2145 0
-1896 -1980 2146 0
-1896 -1981 2147 0
-1896 -1982 2148 0
-1896 -1983 2149 0
-1896 -1984 2150 0
-1896 -1985 2151 0
-1896 -1986 2152 0
-1896 -1987 2153 0
-1896 -1988 2154 0
-1896 -1989 2155 0
-1896 -1990 2156 0
-1896 -1991 2157 0
-1896 -1992 2158 0
-1896 -1993 2159 0
-1896 -1994 2160 0
-1896 -1995 2161 0
-1896 -1996 2162 0
-1896 -1997 2163 0
-1896 -1998 2164 0
-1896 -1999 2165 0
-1896 -2000 2166 0
-1896 -2001 2167 0
-1896 -2002 2168 0
-1896 -2003 2169 0
-1896 -2004 2170 0
-1896 -2005 2171 0
-1896 -2006 2172 0
-1896 -2007 2173 0
-1896 -2008 2174 0
-1896 -2009 2175 0
-1896 -2010 2176 0
-1897 -1947 2114 0
-1897 -1948 2115 0
-1897 -1949 2116 0
-1897 -1950 2117 0
-1897 -1951 2118 0
-1897 -1952 2119 0
-1897 -1953 2120 0
-1897 -1954 2121 0
-1897 -1955 2122 0
-1897 -1956 2123 0
-1897 -1957 2124 0
-1897 -1958 2125 0
-1897 -1959 2126 0
-1897 -1960 2127 0
-1897 -1961 2128 0
-1897 -1962 2129 0
-1897 -1963 2130 0
-1897 -1964 2131 0
-1897 -1965 2132 0
-1897 -1966 2133 0
-1897 -1967 2134 0
-1897 -1968 2135 0
-1897 -1969 2136 0
-1897 -1970 2137 0
-1897 -1971 2138 0
-1897 -1972 2139 0
-1897 -1973 2140 0
-1897 -1974 2141 0
-1897 -1975 2142 0
-1897 -1976 2143 0
-1897 -1977 2144 0
-1897 -1978 2145 0
-1897 -1979 2146 0
-1897 -1980 2147 0
-1897 -1981 2148 0
-1897 -1982 2149 0
-1897 -1983 2150 0
-1897 -1984 2151 0
-1897 -1985 2152 0
-1897 -1986 2153 0
-1897 -1987 2154 0
-1897 -1988 2155 0
-1897 -1989 2156 0
-1897 -1990 2157 0
-1897 -1991 2158 0
-1897 -1992 2159 0
-1897 -1993 2160 0
-1897 -1994 2161 0
-1897 -1995 2162 0
-1897 -1996 2163 0
-1897 -1997 2164 0
-1897 -1998 2165 0
-1897 -1999 2166 0
-1897 -2000 2167 0
-1897 -2001 2168 0
-1897 -2002 2169 0
-1897 -2003 2170 0
-1897 -2004 2171 0
-1897 -2005 2172 0
-1897 -2006 2173 0
-1897 -2007 2174 0
-1897 -2008 2175 0
-1897 -2009 2176 0
-1897 -2010 2177 0
-1898 -1947 2115 0
-1898 -1948 2116 0
-1898 -1949 2117 0
-1898 -1950 2118 0
-1898 -1951 2119 0
-1898 -1952 2120 0
-1898 -1953 2121 0
-1898 -1954 2122 0
-1898 -1955 2123 0
-1898 -1956 2124 0
-1898 -1957 2125 0
-1898 -1958 2126 0
-1898 -1959 2127 0
-1898 -1960 2128 0
-1898 -1961 2129 0
-1898 -1962 2130 0
-1898 -1963 2131 0
-1898 -1964 2132 0
-1898 -1965 2133 0
-1898 -1966 2134 0
-1898 -1967 2135 0
-1898 -1968 2136 0
-1898 -1969 2137 0
-1898 -1970 2138 0
-1898 -1971 2139 0
-1898 -1972 2140 0
-1898 -1973 2141 0
-1898 -1974 2142 0
-1898 -1975 2143 0
-1898 -1976 2144 0
-1898 -1977 2145 0
-1898 -1978 2146 0
-1898 -1979 2147 0
-1898 -1980 2148 0
-1898 -1981 2149 0
-1898 -1982 2150 0
-1898 -1983 2151 0
-1898 -1984 2152 0
-1898 -1985 2153 0
-1898 -1986 2154 0
-1898 -1987 2155 0
-1898 -1988 2156 0
-1898 -1989 2157 0
-1898 -1990 2158 0
-1898 -1991 2159 0
-1898 -1992 2160 0
-1898 -1993 2161 0
-1898 -1994 2162 0
-1898 -1995 2163 0
-1898 -1996 2164 0
-1898 -1997 2165 0
-1898 -1998 2166 0
-1898 -1999 2167 0
-1898 -2000 2168 0
-1898 -2001 2169 0
-1898 -2002 2170 0
-1898 -2003 2171 0
-1898 -2004 2172 0
-1898 -2005 2173 0
-1898 -2006 2174 0
-1898 -2007 2175 0
-1898 -2008 2176 0
-1898 -2009 2177 0
-1898 -2010 2178 0
-1899 -1947 2116 0
-1899 -1948 2117 0
-1899 -1949 2118 0
-1899 -1950 2119 0
-1899 -1951 2120 0
-1899 -1952 2121 0
-1899 -1953 2122 0
-1899 -1954 2123 0
-1899 -1955 2124 0
-1899 -1956 2125 0
-1899 -1957 2126 0
-1899 -1958 2127 0
-1899 -1959 2128 0
-1899 -1960 2129 0
-1899 -1961 2130 0
-1899 -1962 2131 0
-1899 -1963 2132 0
-1899 -1964 2133 0
-1899 -1965 2134 0
-1899 -1966 2135 0
-1899 -1967 2136 0
-1899 -1968 2137 0
-1899 -1969 2138 0
-1899 -1970 2139 0
-1899 -1971 2140 0
-1899 -1972 2141 0
-1899 -1973 2142 0
-1899 -1974 2143 0
-1899 -1975 2144 0
-1899 -1976 2145 0
-1899 -1977 2146 0
-1899 -1978 2147 0
-1899 -1979 2148 0
-1899 -1980 2149 0
-1899 -1981 2150 0
-1899 -1982 2151 0
-1899 -1983 2152 0
-1899 -1984 2153 0
-1899 -1985 2154 0
-1899 -1986 2155 0
-1899 -1987 2156 0
-1899 -1988 2157 0
-1899 -1989 2158 0
-1899 -1990 2159 0
-1899 -1991 2160 0
-1899 -1992 2161 0
-1899 -1993 2162 0
-1899 -1994 2163 0
-1899 -1995 2164 0
-1899 -1996 2165 0
-1899 -1997 2166 0
-1899 -1998 2167 0
-1899 -1999 2168 0
-1899 -2000 2169 0
-1899 -2001 2170 0
-1899 -2002 2171 0
-1899 -2003 2172 0
-1899 -2004 2173 0
-1899 -2005 2174 0
-1899 -2006 2175 0
-1899 -2007 2176 0
-1899 -2008 2177 0
-1899 -2009 2178 0
-1899 -2010 2179 0
-1900 -1947 2117 0
-1900 -1948 2118 0
-1900 -1949 2119 0
-1900 -1950 2120 0
-1900 -1951 2121 0
-1900 -1952 2122 0
-1900 -1953 2123 0
-1900 -1954 2124 0
-1900 -1955 2125 0
-1900 -1956 2126 0
-1900 -1957 2127 0
-1900 -1958 2128 0
-1900 -1959 2129 0
-1900 -1960 2130 0
-1900 -1961 2131 0
-1900 -1962 2132 0
-1900 -1963 2133 0
-1900 -1964 2134 0
-1900 -1965 2135 0
-1900 -1966 2136 0
-1900 -1967 2137 0
-1900 -1968 2138 0
-1900 -1969 2139 0
-1900 -1970 2140 0
-1900 -1971 2141 0
-1900 -1972 2142 0
-1900 -1973 2143 0
-1900 -1974 2144 0
-1900 -1975 2145 0
-1900 -1976 2146 0
-1900 -1977 2147 0
-1900 -1978 2148 0
-1900 -1979 2149 0
-1900 -1980 2150 0
-1900 -1981 2151 0
-1900 -1982 2152 0
-1900 -1983 2153 0
-1900 -1984 2154 0
-1900 -1985 2155 0
-1900 -1986 2156 0
-1900 -1987 2157 0
-1900 -1988 2158 0
-1900 -1989 2159 0
-1900 -1990 2160 0
-1900 -1991 2161 0
-1900 -1992 2162 0
-1900 -1993 2163 0
-1900 -1994 2164 0
-1900 -1995 2165 0
-1900 -1996 2166 0
-1900 -1997 2167 0
-1900 -1998 2168 0
-1900 -1999 2169 0
-1900 -2000 2170 0
-1900 -2001 2171 0
-1900 -2002 2172 0
-1900 -2003 2173 0
-1900 -2004 2174 0
-1900 -2005 2175 0
-1900 -2006 2176 0
-1900 -2007 2177 0
-1900 -2008 2178 0
-1900 -2009 2179 0
-1900 -2010 2180 0
-1901 -1947 2118 0
-1901 -1948 2119 0
-1901 -1949 2120 0
-1901 -1950 2121 0
-1901 -1951 2122 0
-1901 -1952 2123 0
-1901 -1953 2124 0
-1901 -1954 2125 0
-1901 -1955 2126 0
-1901 -1956 2127 0
-1901 -1957 2128 0
-1901 -1958 2129 0
-1901 -1959 2130 0
-1901 -1960 2131 0
-1901 -1961 2132 0
-1901 -1962 2133 0
-1901 -1963 2134 0
-1901 -1964 2135 0
-1901 -1965 2136 0
-1901 -1966 2137 0
-1901 -1967 2138 0
-1901 -1968 2139 0
-1901 -1969 2140 0
-1901 -1970 2141 0
-1901 -1971 2142 0
-1901 -1972 2143 0
-1901 -1973 2144 0
-1901 -1974 2145 0
-1901 -1975 2146 0
-1901 -1976 2147 0
-1901 -1977 2148 0
-1901 -1978 2149 0
-1901 -1979 2150 0
-1901 -1980 2151 0
-1901 -1981 2152 0
-1901 -1982 2153 0
-1901 -1983 2154 0
-1901 -1984 2155 0
-1901 -1985 2156 0
-1901 -1986 2157 0
-1901 -1987 2158 0
-1901 -1988 2159 0
-1901 -1989 2160 0
-1901 -1990 2161 0
-1901 -1991 2162 0
-1901 -1992 2163 0
-1901 -1993 2164 0
-1901 -1994 2165 0
-1901 -1995 2166 0
-1901 -1996 2167 0
-1901 -1997 2168 0
-1901 -1998 2169 0
-1901 -1999 2170 0
-1901 -2000 2171 0
-1901 -2001 2172 0
-1901 -2002 2173 0
-1901 -2003 2174 0
-1901 -2004 2175 0
-1901 -2005 2176 0
-1901 -2006 2177 0
-1901 -2007 2178 0
-1901 -2008 2179 0
-1901 -2009 2180 0
-1901 -2010 2181 0
-1902 -1947 2119 0
-1902 -1948 2120 0
-1902 -1949 2121 0
-1902 -1950 2122 0
-1902 -1951 2123 0
-1902 -1952 2124 0
-1902 -1953 2125 0
-1902 -1954 2126 0
-1902 -1955 2127 0
-1902 -1956 2128 0
-1902 -1957 2129 0
-1902 -1958 2130 0
-1902 -1959 2131 0
-1902 -1960 2132 0
-1902 -1961 2133 0
-1902 -1962 2134 0
-1902 -1963 2135 0
-1902 -1964 2136 0
-1902 -1965 2137 0
-1902 -1966 2138 0
-1902 -1967 2139 0
-1902 -1968 2140 0
-1902 -1969 2141 0
-1902 -1970 2142 0
-1902 -1971 2143 0
-1902 -1972 2144 0
-1902 -1973 2145 0
-1902 -1974 2146 0
-1902 -1975 2147 0
-1902 -1976 2148 0
-1902 -1977 2149 0
-1902 -1978 2150 0
-1902 -1979 2151 0
-1902 -1980 2152 0
-1902 -1981 2153 0
-1902 -1982 2154 0
-1902 -1983 2155 0
-1902 -1984 2156 0
-1902 -1985 2157 0
-1902 -1986 2158 0
-1902 -1987 2159 0
-1902 -1988 2160 0
-1902 -1989 2161 0
-1902 -1990 2162 0
-1902 -1991 2163 0
-1902 -1992 2164 0
-1902 -1993 2165 0
-1902 -1994 2166 0
-1902 -1995 2167 0
-1902 -1996 2168 0
-1902 -1997 2169 0
-1902 -1998 2170 0
-1902 -1999 2171 0
-1902 -2000 2172 0
-1902 -2001 2173 0
-1902 -2002 2174 0
-1902 -2003 2175 0
-1902 -2004 2176 0
-1902 -2005 2177 0
-1902 -2006 2178 0
-1902 -2007 2179 0
-1902 -2008 2180 0
-1902 -2009 2181 0
-1902 -2010 2182 0
-1903 -1947 2120 0
-1903 -1948 2121 0
-1903 -1949 2122 0
-1903 -1950 2123 0
-1903 -1951 2124 0
-1903 -1952 2125 0
-1903 -1953 2126 0
-1903 -1954 2127 0
-1903 -1955 2128 0
-1903 -1956 2129 0
-1903 -1957 2130 0
-1903 -1958 2131 0
-1903 -1959 2132 0
-1903 -1960 2133 0
-1903 -1961 2134 0
-1903 -1962 2135 0
-1903 -1963 2136 0
-1903 -1964 2137 0
-1903 -1965 2138 0
-1903 -1966 2139 0
-1903 -1967 2140 0
-1903 -1968 2141 0
-1903 -1969 2142 0
-1903 -1970 2143 0
-1903 -1971 2144 0
-1903 -1972 2145 0
-1903 -1973 2146 0
-1903 -1974 2147 0
-1903 -1975 2148 0
-1903 -1976 2149 0
-1903 -1977 2150 0
-1903 -1978 2151 0
-1903 -1979 2152 0
-1903 -1980 2153 0
-1903 -1981 2154 0
-1903 -1982 2155 0
-1903 -1983 2156 0
-1903 -1984 2157 0
-1903 -1985 2158 0
-1903 -1986 2159 0
-1903 -1987 2160 0
-1903 -1988 2161 0
-1903 -1989 2162 0
-1903 -1990 2163 0
-1903 -1991 2164 0
-1903 -1992 2165 0
-1903 -1993 2166 0
-1903 -1994 2167 0
-1903 -1995 2168 0
-1903 -1996 2169 0
-1903 -1997 2170 0
-1903 -1998 2171 0
-1903 -1999 2172 0
-1903 -2000 2173 0
-1903 -2001 2174 0
-1903 -2002 2175 0
-1903 -2003 2176 0
-1903 -2004 2177 0
-1903 -2005 2178 0
-1903 -2006 2179 0
-1903 -2007 2180 0
-1903 -2008 2181 0
-1903 -2009 2182 0
-1903 -2010 2183 0
-1904 -1947 2121 0
-1904 -1948 2122 0
-1904 -1949 2123 0
-1904 -1950 2124 0
-1904 -1951 2125 0
-1904 -1952 2126 0
-1904 -1953 2127 0
-1904 -1954 2128 0
-1904 -1955 2129 0
-1904 -1956 2130 0
-1904 -1957 2131 0
-1904 -1958 2132 0
-1904 -1959 2133 0
-1904 -1960 2134 0
-1904 -1961 2135 0
-1904 -1962 2136 0
-1904 -1963 2137 0
-1904 -1964 2138 0
-1904 -1965 2139 0
-1904 -1966 2140 0
-1904 -1967 2141 0
-1904 -1968 2142 0
-1904 -1969 2143 0
-1904 -1970 2144 0
-1904 -1971 2145 0
-1904 -1972 2146 0
-1904 -1973 2147 0
-1904 -1974 2148 0
-1904 -1975 2149 0
-1904 -1976 2150 0
-1904 -1977 2151 0
-1904 -1978 2152 0
-1904 -1979 2153 0
-1904 -1980 2154 0
-1904 -1981 2155 0
-1904 -1982 2156 0
-1904 -1983 2157 0
-1904 -1984 2158 0
-1904 -1985 2159 0
-1904 -1986 2160 0
-1904 -1987 2161 0
-1904 -1988 2162 0
-1904 -1989 2163 0
-1904 -1990 2164 0
-1904 -1991 2165 0
-1904 -1992 2166 0
-1904 -1993 2167 0
-1904 -1994 2168 0
-1904 -1995 2169 0
-1904 -1996 2170 0
-1904 -1997 2171 0
-1904 -1998 2172 0
-1904 -1999 2173 0
-1904 -2000 2174 0
-1904 -2001 2175 0
-1904 -2002 2176 0
-1904 -2003 2177 0
-1904 -2004 2178 0
-1904 -2005 2179 0
-1904 -2006 2180 0
-1904 -2007 2181 0
-1904 -2008 2182 0
-1904 -2009 2183 0
-1904 -2010 2184 0
-1905 -1947 2122 0
-1905 -1948 2123 0
-1905 -1949 2124 0
-1905 -1950 2125 0
-1905 -1951 2126 0
-1905 -1952 2127 0
-1905 -1953 2128 0
-1905 -1954 2129 0
-1905 -1955 2130 0
-1905 -1956 2131 0
-1905 -1957 2132 0
-1905 -1958 2133 0
-1905 -1959 2134 0
-1905 -1960 2135 0
-1905 -1961 2136 0
-1905 -1962 2137 0
-1905 -1963 2138 0
-1905 -1964 2139 0
-1905 -1965 2140 0
-1905 -1966 2141 0
-1905 -1967 2142 0
-1905 -1968 2143 0
-1905 -1969 2144 0
-1905 -1970 2145 0
-1905 -1971 2146 0
-1905 -1972 2147 0
-1905 -1973 2148 0
-1905 -1974 2149 0
-1905 -1975 2150 0
-1905 -1976 2151 0
-1905 -1977 2152 0
-1905 -1978 2153 0
-1905 -1979 2154 0
-1905 -1980 2155 0
-1905 -1981 2156 0
-1905 -1982 2157 0
-1905 -1983 2158 0
-1905 -1984 2159 0
-1905 -1985 2160 0
-1905 -1986 2161 0
-1905 -1987 2162 0
-1905 -1988 2163 0
-1905 -1989 2164 0
-1905 -1990 2165 0
-1905 -1991 2166 0
-1905 -1992 2167 0
-1905 -1993 2168 0
-1905 -1994 2169 0
-1905 -1995 2170 0
-1905 -1996 2171 0
-1905 -1997 2172 0
-1905 -1998 2173 0
-1905 -1999 2174 0
-1905 -2000 2175 0
-1905 -2001 2176 0
-1905 -2002 2177 0
-1905 -2003 2178 0
-1905 -2004 2179 0
-1905 -2005 2180 0
-1905 -2006 2181 0
-1905 -2007 2182 0
-1905 -2008 2183 0
-1905 -2009 2184 0
-1905 -2010 2185 0
-1906 -1947 2123 0
-1906 -1948 2124 0
-1906 -1949 2125 0
-1906 -1950 2126 0
-1906 -1951 2127 0
-1906 -1952 2128 0
-1906 -1953 2129 0
-1906 -1954 2130 0
-1906 -1955 2131 0
-1906 -1956 2132 0
-1906 -1957 2133 0
-1906 -1958 2134 0
-1906 -1959 2135 0
-1906 -1960 2136 0
-1906 -1961 2137 0
-1906 -1962 2138 0
-1906 -1963 2139 0
-1906 -1964 2140 0
-1906 -1965 2141 0
-1906 -1966 2142 0
-1906 -1967 2143 0
-1906 -1968 2144 0
-1906 -1969 2145 0
-1906 -1970 2146 0
-1906 -1971 2147 0
-1906 -1972 2148 0
-1906 -1973 2149 0
-1906 -1974 2150 0
-1906 -1975 2151 0
-1906 -1976 2152 0
-1906 -1977 2153 0
-1906 -1978 2154 0
-1906 -1979 2155 0
-1906 -1980 2156 0
-1906 -1981 2157 0
-1906 -1982 2158 0
-1906 -1983 2159 0
-1906 -1984 2160 0
-1906 -1985 2161 0
-1906 -1986 2162 0
-1906 -1987 2163 0
-1906 -1988 2164 0
-1906 -1989 2165 0
-1906 -1990 2166 0
-1906 -1991 2167 0
-1906 -1992 2168 0
-1906 -1993 2169 0
-1906 -1994 2170 0
-1906 -1995 2171 0
-1906 -1996 2172 0
-1906 -1997 2173 0
-1906 -1998 2174 0
-1906 -1999 2175 0
-1906 -2000 2176 0
-1906 -2001 2177 0
-1906 -2002 2178 0
-1906 -2003 2179 0
-1906 -2004 2180 0
-1906 -2005 2181 0
-1906 -2006 2182 0
-1906 -2007 2183 0
-1906 -2008 2184 0
-1906 -2009 2185 0
-1906 -2010 2186 0
-1907 -1947 2124 0
-1907 -1948 2125 0
-1907 -1949 2126 0
-1907 -1950 2127 0
-1907 -1951 2128 0
-1907 -1952 2129 0
-1907 -1953 2130 0
-1907 -1954 2131 0
-1907 -1955 2132 0
-1907 -1956 2133 0
-1907 -1957 2134 0
-1907 -1958 2135 0
-1907 -1959 2136 0
-1907 -1960 2137 0
-1907 -1961 2138 0
-1907 -1962 2139 0
-1907 -1963 2140 0
-1907 -1964 2141 0
-1907 -1965 2142 0
-1907 -1966 2143 0
-1907 -1967 2144 0
-1907 -1968 2145 0
-1907 -1969 2146 0
-1907 -1970 2147 0
-1907 -1971 2148 0
-1907 -1972 2149 0
-1907 -1973 2150 0
-1907 -1974 2151 0
-1907 -1975 2152 0
-1907 -1976 2153 0
-1907 -1977 2154 0
-1907 -1978 2155 0
-1907 -1979 2156 0
-1907 -1980 2157 0
-1907 -1981 2158 0
-1907 -1982 2159 0
-1907 -1983 2160 0
-1907 -1984 2161 0
-1907 -1985 2162 0
-1907 -1986 2163 0
-1907 -1987 2164 0
-1907 -1988 2165 0
-1907 -1989 2166 0
-1907 -1990 2167 0
-1907 -1991 2168 0
-1907 -1992 2169 0
-1907 -1993 2170 0
-1907 -1994 2171 0
-1907 -1995 2172 0
-1907 -1996 2173 0
-1907 -1997 2174 0
-1907 -1998 2175 0
-1907 -1999 2176 0
-1907 -2000 2177 0
-1907 -2001 2178 0
-1907 -2002 2179 0
-1907 -2003 2180 0
-1907 -2004 2181 0
-1907 -2005 2182 0
-1907 -2006 2183 0
-1907 -2007 2184 0
-1907 -2008 2185 0
-1907 -2009 2186 0
-1907 -2010 2187 0
-1908 -1947 2125 0
-1908 -1948 2126 0
-1908 -1949 2127 0
-1908 -1950 2128 0
-1908 -1951 2129 0
-1908 -1952 2130 0
-1908 -1953 2131 0
-1908 -1954 2132 0
-1908 -1955 2133 0
-1908 -1956 2134 0
-1908 -1957 2135 0
-1908 -1958 2136 0
-1908 -1959 2137 0
-1908 -1960 2138 0
-1908 -1961 2139 0
-1908 -1962 2140 0
-1908 -1963 2141 0
-1908 -1964 2142 0
-1908 -1965 2143 0
-1908 -1966 2144 0
-1908 -1967 2145 0
-1908 -1968 2146 0
-1908 -1969 2147 0
-1908 -1970 2148 0
-1908 -1971 2149 0
-1908 -1972 2150 0
-1908 -1973 2151 0
-1908 -1974 2152 0
-1908 -1975 2153 0
-1908 -1976 2154 0
-1908 -1977 2155 0
-1908 -1978 2156 0
-1908 -1979 2157 0
-1908 -1980 2158 0
-1908 -1981 2159 0
-1908 -1982 2160 0
-1908 -1983 2161 0
-1908 -1984 2162 0
-1908 -1985 2163 0
-1908 -1986 2164 0
-1908 -1987 2165 0
-1908 -1988 2166 0
-1908 -1989 2167 0
-1908 -1990 2168 0
-1908 -1991 2169 0
-1908 -1992 2170 0
-1908 -1993 2171 0
-1908 -1994 2172 0
-1908 -1995 2173 0
-1908 -1996 2174 0
-1908 -1997 2175 0
-1908 -1998 2176 0
-1908 -1999 2177 0
-1908 -2000 2178 0
-1908 -2001 2179 0
-1908 -2002 2180 0
-1908 -2003 2181 0
-1908 -2004 2182 0
-1908 -2005 2183 0
-1908 -2006 2184 0
-1908 -2007 2185 0
-1908 -2008 2186 0
-1908 -2009 2187 0
-1908 -2010 2188 0
-1909 -1947 2126 0
-1909 -1948 2127 0
-1909 -1949 2128 0
-1909 -1950 2129 0
-1909 -1951 2130 0
-1909 -1952 2131 0
-1909 -1953 2132 0
-1909 -1954 2133 0
-1909 -1955 2134 0
-1909 -1956 2135 0
-1909 -1957 2136 0
-1909 -1958 2137 0
-1909 -1959 2138 0
-1909 -1960 2139 0
-1909 -1961 2140 0
-1909 -1962 2141 0
-1909 -1963 2142 0
-1909 -1964 2143 0
-1909 -1965 2144 0
-1909 -1966 2145 0
-1909 -1967 2146 0
-1909 -1968 2147 0
-1909 -1969 2148 0
-1909 -1970 2149 0
-1909 -1971 2150 0
-1909 -1972 2151 0
-1909 -1973 2152 0
-1909 -1974 2153 0
-1909 -1975 2154 0
-1909 -1976 2155 0
-1909 -1977 2156 0
-1909 -1978 2157 0
-1909 -1979 2158 0
-1909 -1980 2159 0
-1909 -1981 2160 0
-1909 -1982 2161 0
-1909 -1983 2162 0
-1909 -1984 2163 0
-1909 -1985 2164 0
-1909 -1986 2165 0
-1909 -1987 2166 0
-1909 -1988 2167 0
-1909 -1989 2168 0
-1909 -1990 2169 0
-1909 -1991 2170 0
-1909 -1992 2171 0
-1909 -1993 2172 0
-1909 -1994 2173 0
-1909 -1995 2174 0
-1909 -1996 2175 0
-1909 -1997 2176 0
-1909 -1998 2177 0
-1909 -1999 2178 0
-1909 -2000 2179 0
-1909 -2001 2180 0
-1909 -2002 2181 0
-1909 -2003 2182 0
-1909 -2004 2183 0
-1909 -2005 2184 0
-1909 -2006 2185 0
-1909 -2007 2186 0
-1909 -2008 2187 0
-1909 -2009 2188 0
-1909 -2010 2189 0
-1910 -1947 2127 0
-1910 -1948 2128 0
-1910 -1949 2129 0
-1910 -1950 2130 0
-1910 -1951 2131 0
-1910 -1952 2132 0
-1910 -1953 2133 0
-1910 -1954 2134 0
-1910 -1955 2135 0
-1910 -1956 2136 0
-1910 -1957 2137 0
-1910 -1958 2138 0
-1910 -1959 2139 0
-1910 -1960 2140 0
-1910 -1961 2141 0
-1910 -1962 2142 0
-1910 -1963 2143 0
-1910 -1964 2144 0
-1910 -1965 2145 0
-1910 -1966 2146 0
-1910 -1967 2147 0
-1910 -1968 2148 0
-1910 -1969 2149 0
-1910 -1970 2150 0
-1910 -1971 2151 0
-1910 -1972 2152 0
-1910 -1973 2153 0
-1910 -1974 2154 0
-1910 -1975 2155 0
-1910 -1976 2156 0
-1910 -1977 2157 0
-1910 -1978 2158 0
-1910 -1979 2159 0
-1910 -1980 2160 0
-1910 -1981 2161 0
-1910 -1982 2162 0
-1910 -1983 2163 0
-1910 -1984 2164 0
-1910 -1985 2165 0
-1910 -1986 2166 0
-1910 -1987 2167 0
-1910 -1988 2168 0
-1910 -1989 2169 0
-1910 -1990 2170 0
-1910 -1991 2171 0
-1910 -1992 2172 0
-1910 -1993 2173 0
-1910 -1994 2174 0
-1910 -1995 2175 0
-1910 -1996 2176 0
-1910 -1997 2177 0
-1910 -1998 2178 0
-1910 -1999 2179 0
-1910 -2000 2180 0
-1910 -2001 2181 0
-1910 -2002 2182 0
-1910 -2003 2183 0
-1910 -2004 2184 0
-1910 -2005 2185 0
-1910 -2006 2186 0
-1910 -2007 2187 0
-1910 -2008 2188 0
-1910 -2009 2189 0
-1910 -2010 2190 0
-1911 -1947 2128 0
-1911 -1948 2129 0
-1911 -1949 2130 0
-1911 -1950 2131 0
-1911 -1951 2132 0
-1911 -1952 2133 0
-1911 -1953 2134 0
-1911 -1954 2135 0
-1911 -1955 2136 0
-1911 -1956 2137 0
-1911 -1957 2138 0
-1911 -1958 2139 0
-1911 -1959 2140 0
-1911 -1960 2141 0
-1911 -1961 2142 0
-1911 -1962 2143 0
-1911 -1963 2144 0
-1911 -1964 2145 0
-1911 -1965 2146 0
-1911 -1966 2147 0
-1911 -1967 2148 0
-1911 -1968 2149 0
-1911 -1969 2150 0
-1911 -1970 2151 0
-1911 -1971 2152 0
-1911 -1972 2153 0
-1911 -1973 2154 0
-1911 -1974 2155 0
-1911 -1975 2156 0
-1911 -1976 2157 0
-1911 -1977 2158 0
-1911 -1978 2159 0
-1911 -1979 2160 0
-1911 -1980 2161 0
-1911 -1981 2162 0
-1911 -1982 2163 0
-1911 -1983 2164 0
-1911 -1984 2165 0
-1911 -1985 2166 0
-1911 -1986 2167 0
-1911 -1987 2168 0
-1911 -1988 2169 0
-1911 -1989 2170 0
-1911 -1990 2171 0
-1911 -1991 2172 0
-1911 -1992 2173 0
-1911 -1993 2174 0
-1911 -1994 2175 0
-1911 -1995 2176 0
-1911 -1996 2177 0
-1911 -1997 2178 0
-1911 -1998 2179 0
-1911 -1999 2180 0
-1911 -2000 2181 0
-1911 -2001 2182 0
-1911 -2002 2183 0
-1911 -2003 2184 0
-1911 -2004 2185 0
-1911 -2005 2186 0
-1911 -2006 2187 0
-1911 -2007 2188 0
-1911 -2008 2189 0
-1911 -2009 2190 0
-1911 -2010 2191 0
-1912 -1947 2129 0
-1912 -1948 2130 0
-1912 -1949 2131 0
-1912 -1950 2132 0
-1912 -1951 2133 0
-1912 -1952 2134 0
-1912 -1953 2135 0
-1912 -1954 2136 0
-1912 -1955 2137 0
-1912 -1956 2138 0
-1912 -1957 2139 0
-1912 -1958 2140 0
-1912 -1959 2141 0
-1912 -1960 2142 0
-1912 -1961 2143 0
-1912 -1962 2144 0
-1912 -1963 2145 0
-1912 -1964 2146 0
-1912 -1965 2147 0
-1912 -1966 2148 0
-1912 -1967 2149 0
-1912 -1968 2150 0
-1912 -1969 2151 0
-1912 -1970 2152 0
-1912 -1971 2153 0
-1912 -1972 2154 0
-1912 -1973 2155 0
-1912 -1974 2156 0
-1912 -1975 2157 0
-1912 -1976 2158 0
-1912 -1977 2159 0
-1912 -1978 2160 0
-1912 -1979 2161 0
-1912 -1980 2162 0
-1912 -1981 2163 0
-1912 -1982 2164 0
-1912 -1983 2165 0
-1912 -1984 2166 0
-1912 -1985 2167 0
-1912 -1986 2168 0
-1912 -1987 2169 0
-1912 -1988 2170 0
-1912 -1989 2171 0
-1912 -1990 2172 0
-1912 -1991 2173 0
-1912 -1992 2174 0
-1912 -1993 2175 0
-1912 -1994 2176 0
-1912 -1995 2177 0
-1912 -1996 2178 0
-1912 -1997 2179 0
-1912 -1998 2180 0
-1912 -1999 2181 0
-1912 -2000 2182 0
-1912 -2001 2183 0
-1912 -2002 2184 0
-1912 -2003 2185 0
-1912 -2004 2186 0
-1912 -2005 2187 0
-1912 -2006 2188 0
-1912 -2007 2189 0
-1912 -2008 2190 0
-1912 -2009 2191 0
-1912 -2010 2192 0
-1913 -1947 2130 0
-1913 -1948 2131 0
-1913 -1949 2132 0
-1913 -1950 2133 0
-1913 -1951 2134 0
-1913 -1952 2135 0
-1913 -1953 2136 0
-1913 -1954 2137 0
-1913 -1955 2138 0
-1913 -1956 2139 0
-1913 -1957 2140 0
-1913 -1958 2141 0
-1913 -1959 2142 0
-1913 -1960 2143 0
-1913 -1961 2144 0
-1913 -1962 2145 0
-1913 -1963 2146 0
-1913 -1964 2147 0
-1913 -1965 2148 0
-1913 -1966 2149 0
-1913 -1967 2150 0
-1913 -1968 2151 0
-1913 -1969 2152 0
-1913 -1970 2153 0
-1913 -1971 2154 0
-1913 -1972 2155 0
-1913 -1973 2156 0
-1913 -1974 2157 0
-1913 -1975 2158 0
-1913 -1976 2159 0
-1913 -1977 2160 0
-1913 -1978 2161 0
-1913 -1979 2162 0
-1913 -1980 2163 0
-1913 -1981 2164 0
-1913 -1982 2165 0
-1913 -1983 2166 0
-1913 -1984 2167 0
-1913 -1985 2168 0
-1913 -1986 2169 0
-1913 -1987 2170 0
-1913 -1988 2171 0
-1913 -1989 2172 0
-1913 -1990 2173 0
-1913 -1991 2174 0
-1913 -1992 2175 0
-1913 -1993 2176 0
-1913 -1994 2177 0
-1913 -1995 2178 0
-1913 -1996 2179 0
-1913 -1997 2180 0
-1913 -1998 2181 0
-1913 -1999 2182 0
-1913 -2000 2183 0
-1913 -2001 2184 0
-1913 -2002 2185 0
-1913 -2003 2186 0
-1913 -2004 2187 0
-1913 -2005 2188 0
-1913 -2006 2189 0
-1913 -2007 2190 0
-1913 -2008 2191 0
-1913 -2009 2192 0
-1913 -2010 2193 0
-1914 -1947 2131 0
-1914 -1948 2132 0
-1914 -1949 2133 0
-1914 -1950 2134 0
-1914 -1951 2135 0
-1914 -1952 2136 0
-1914 -1953 2137 0
-1914 -1954 2138 0
-1914 -1955 2139 0
-1914 -1956 2140 0
-1914 -1957 2141 0
-1914 -1958 2142 0
-1914 -1959 2143 0
-1914 -1960 2144 0
-1914 -1961 2145 0
-1914 -1962 2146 0
-1914 -1963 2147 0
-1914 -1964 2148 0
-1914 -1965 2149 0
-1914 -1966 2150 0
-1914 -1967 2151 0
-1914 -1968 2152 0
-1914 -1969 2153 0
-1914 -1970 2154 0
-1914 -1971 2155 0
-1914 -1972 2156 0
-1914 -1973 2157 0
-1914 -1974 2158 0
-1914 -1975 2159 0
-1914 -1976 2160 0
-1914 -1977 2161 0
-1914 -1978 2162 0
-1914 -1979 2163 0
-1914 -1980 2164 0
-1914 -1981 2165 0
-1914 -1982 2166 0
-1914 -1983 2167 0
-1914 -1984 2168 0
-1914 -1985 2169 0
-1914 -1986 2170 0
-1914 -1987 2171 0
-1914 -1988 2172 0
-1914 -1989 2173 0
-1914 -1990 2174 0
-1914 -1991 2175 0
-1914 -1992 2176 0
-1914 -1993 2177 0
-1914 -1994 2178 0
-1914 -1995 2179 0
-1914 -1996 2180 0
-1914 -1997 2181 0
-1914 -1998 2182 0
-1914 -1999 2183 0
-1914 -2000 2184 0
-1914 -2001 2185 0
-1914 -2002 2186 0
-1914 -2003 2187 0
-1914 -2004 2188 0
-1914 -2005 2189 0
-1914 -2006 2190 0
-1914 -2007 2191 0
-1914 -2008 2192 0
-1914 -2009 2193 0
-1914 -2010 2194 0
-1915 -1947 2132 0
-1915 -1948 2133 0
-1915 -1949 2134 0
-1915 -1950 2135 0
-1915 -1951 2136 0
-1915 -1952 2137 0
-1915 -1953 2138 0
-1915 -1954 2139 0
-1915 -1955 2140 0
-1915 -1956 2141 0
-1915 -1957 2142 0
-1915 -1958 2143 0
-1915 -1959 2144 0
-1915 -1960 2145 0
-1915 -1961 2146 0
-1915 -1962 2147 0
-1915 -1963 2148 0
-1915 -1964 2149 0
-1915 -1965 2150 0
-1915 -1966 2151 0
-1915 -1967 2152 0
-1915 -1968 2153 0
-1915 -1969 2154 0
-1915 -1970 2155 0
-1915 -1971 2156 0
-1915 -1972 2157 0
-1915 -1973 2158 0
-1915 -1974 2159 0
-1915 -1975 2160 0
-1915 -1976 2161 0
-1915 -1977 2162 0
-1915 -1978 2163 0
-1915 -1979 2164 0
-1915 -1980 2165 0
-1915 -1981 2166 0
-1915 -1982 2167 0
-1915 -1983 2168 0
-1915 -1984 2169 0
-1915 -1985 2170 0
-1915 -1986 2171 0
-1915 -1987 2172 0
-1915 -1988 2173 0
-1915 -1989 2174 0
-1915 -1990 2175 0
-1915 -1991 2176 0
-1915 -1992 2177 0
-1915 -1993 2178 0
-1915 -1994 2179 0
-1915 -1995 2180 0
-1915 -1996 2181 0
-1915 -1997 2182 0
-1915 -1998 2183 0
-1915 -1999 2184 0
-1915 -2000 2185 0
-1915 -2001 2186 0
-1915 -2002 2187 0
-1915 -2003 2188 0
-1915 -2004 2189 0
-1915 -2005 2190 0
-1915 -2006 2191 0
-1915 -2007 2192 0
-1915 -2008 2193 0
-1915 -2009 2194 0
-1915 -2010 2195 0
-1916 -1947 2133 0
-1916 -1948 2134 0
-1916 -1949 2135 0
-1916 -1950 2136 0
-1916 -1951 2137 0
-1916 -1952 2138 0
-1916 -1953 2139 0
-1916 -1954 2140 0
-1916 -1955 2141 0
-1916 -1956 2142 0
-1916 -1957 2143 0
-1916 -1958 2144 0
-1916 -1959 2145 0
-1916 -1960 2146 0
-1916 -1961 2147 0
-1916 -1962 2148 0
-1916 -1963 2149 0
-1916 -1964 2150 0
-1916 -1965 2151 0
-1916 -1966 2152 0
-1916 -1967 2153 0
-1916 -1968 2154 0
-1916 -1969 2155 0
-1916 -1970 2156 0
-1916 -1971 2157 0
-1916 -1972 2158 0
-1916 -1973 2159 0
-1916 -1974 2160 0
-1916 -1975 2161 0
-1916 -1976 2162 0
-1916 -1977 2163 0
-1916 -1978 2164 0
-1916 -1979 2165 0
-1916 -1980 2166 0
-1916 -1981 2167 0
-1916 -1982 2168 0
-1916 -1983 2169 0
-1916 -1984 2170 0
-1916 -1985 2171 0
-1916 -1986 2172 0
-1916 -1987 2173 0
-1916 -1988 2174 0
-1916 -1989 2175 0
-1916 -1990 2176 0
-1916 -1991 2177 0
-1916 -1992 2178 0
-1916 -1993 2179 0
-1916 -1994 2180 0
-1916 -1995 2181 0
-1916 -1996 2182 0
-1916 -1997 2183 0
-1916 -1998 2184 0
-1916 -1999 2185 0
-1916 -2000 2186 0
-1916 -2001 2187 0
-1916 -2002 2188 0
-1916 -2003 2189 0
-1916 -2004 2190 0
-1916 -2005 2191 0
-1916 -2006 2192 0
-1916 -2007 2193 0
-1916 -2008 2194 0
-1916 -2009 2195 0
-1916 -2010 2196 0
-1917 -1947 2134 0
-1917 -1948 2135 0
-1917 -1949 2136 0
-1917 -1950 2137 0
-1917 -1951 2138 0
-1917 -1952 2139 0
-1917 -1953 2140 0
-1917 -1954 2141 0
-1917 -1955 2142 0
-1917 -1956 2143 0
-1917 -1957 2144 0
-1917 -1958 2145 0
-1917 -1959 2146 0
-1917 -1960 2147 0
-1917 -1961 2148 0
-1917 -1962 2149 0
-1917 -1963 2150 0
-1917 -1964 2151 0
-1917 -1965 2152 0
-1917 -1966 2153 0
-1917 -1967 2154 0
-1917 -1968 2155 0
-1917 -1969 2156 0
-1917 -1970 2157 0
-1917 -1971 2158 0
-1917 -1972 2159 0
-1917 -1973 2160 0
-1917 -1974 2161 0
-1917 -1975 2162 0
-1917 -1976 2163 0
-1917 -1977 2164 0
-1917 -1978 2165 0
-1917 -1979 2166 0
-1917 -1980 2167 0
-1917 -1981 2168 0
-1917 -1982 2169 0
-1917 -1983 2170 0
-1917 -1984 2171 0
-1917 -1985 2172 0
-1917 -1986 2173 0
-1917 -1987 2174 0
-1917 -1988 2175 0
-1917 -1989 2176 0
-1917 -1990 2177 0
-1917 -1991 2178 0
-1917 -1992 2179 0
-1917 -1993 2180 0
-1917 -1994 2181 0
-1917 -1995 2182 0
-1917 -1996 2183 0
-1917 -1997 2184 0
-1917 -1998 2185 0
-1917 -1999 2186 0
-1917 -2000 2187 0
-1917 -2001 2188 0
-1917 -2002 2189 0
-1917 -2003 2190 0
-1917 -2004 2191 0
-1917 -2005 2192 0
-1917 -2006 2193 0
-1917 -2007 2194 0
-1917 -2008 2195 0
-1917 -2009 2196 0
-1917 -2010 2197 0
-1918 -1947 2135 0
-1918 -1948 2136 0
-1918 -1949 2137 0
-1918 -1950 2138 0
-1918 -1951 2139 0
-1918 -1952 2140 0
-1918 -1953 2141 0
-1918 -1954 2142 0
-1918 -1955 2143 0
-1918 -1956 2144 0
-1918 -1957 2145 0
-1918 -1958 2146 0
-1918 -1959 2147 0
-1918 -1960 2148 0
-1918 -1961 2149 0
-1918 -1962 2150 0
-1918 -1963 2151 0
-1918 -1964 2152 0
-1918 -1965 2153 0
-1918 -1966 2154 0
-1918 -1967 2155 0
-1918 -1968 2156 0
-1918 -1969 2157 0
-1918 -1970 2158 0
-1918 -1971 2159 0
-1918 -1972 2160 0
-1918 -1973 2161 0
-1918 -1974 2162 0
-1918 -1975 2163 0
-1918 -1976 2164 0
-1918 -1977 2165 0
-1918 -1978 2166 0
-1918 -1979 2167 0
-1918 -1980 2168 0
-1918 -1981 2169 0
-1918 -1982 2170 0
-1918 -1983 2171 0
-1918 -1984 2172 0
-1918 -1985 2173 0
-1918 -1986 2174 0
-1918 -1987 2175 0
-1918 -1988 2176 0
-1918 -1989 2177 0
-1918 -1990 2178 0
-1918 -1991 2179 0
-1918 -1992 2180 0
-1918 -1993 2181 0
-1918 -1994 2182 0
-1918 -1995 2183 0
-1918 -1996 2184 0
-1918 -1997 2185 0
-1918 -1998 2186 0
-1918 -1999 2187 0
-1918 -2000 2188 0
-1918 -2001 2189 0
-1918 -2002 2190 0
-1918 -2003 2191 0
-1918 -2004 2192 0
-1918 -2005 2193 0
-1918 -2006 2194 0
-1918 -2007 2195 0
-1918 -2008 2196 0
-1918 -2009 2197 0
-1918 -2010 2198 0
-1919 -1947 2136 0
-1919 -1948 2137 0
-1919 -1949 2138 0
-1919 -1950 2139 0
-1919 -1951 2140 0
-1919 -1952 2141 0
-1919 -1953 2142 0
-1919 -1954 2143 0
-1919 -1955 2144 0
-1919 -1956 2145 0
-1919 -1957 2146 0
-1919 -1958 2147 0
-1919 -1959 2148 0
-1919 -1960 2149 0
-1919 -1961 2150 0
-1919 -1962 2151 0
-1919 -1963 2152 0
-1919 -1964 2153 0
-1919 -1965 2154 0
-1919 -1966 2155 0
-1919 -1967 2156 0
-1919 -1968 2157 0
-1919 -1969 2158 0
-1919 -1970 2159 0
-1919 -1971 2160 0
-1919 -1972 2161 0
-1919 -1973 2162 0
-1919 -1974 2163 0
-1919 -1975 2164 0
-1919 -1976 2165 0
-1919 -1977 2166 0
-1919 -1978 2167 0
-1919 -1979 2168 0
-1919 -1980 2169 0
-1919 -1981 2170 0
-1919 -1982 2171 0
-1919 -1983 2172 0
-1919 -1984 2173 0
-1919 -1985 2174 0
-1919 -1986 2175 0
-1919 -1987 2176 0
-1919 -1988 2177 0
-1919 -1989 2178 0
-1919 -1990 2179 0
-1919 -1991 2180 0
-1919 -1992 2181 0
-1919 -1993 2182 0
-1919 -1994 2183 0
-1919 -1995 2184 0
-1919 -1996 2185 0
-1919 -1997 2186 0
-1919 -1998 2187 0
-1919 -1999 2188 0
-1919 -2000 2189 0
-1919 -2001 2190 0
-1919 -2002 2191 0
-1919 -2003 2192 0
-1919 -2004 2193 0
-1919 -2005 2194 0
-1919 -2006 2195 0
-1919 -2007 2196 0
-1919 -2008 2197 0
-1919 -2009 2198 0
-1919 -2010 2199 0
-1920 -1947 2137 0
-1920 -1948 2138 0
-1920 -1949 2139 0
-1920 -1950 2140 0
-1920 -1951 2141 0
-1920 -1952 2142 0
-1920 -1953 2143 0
-1920 -1954 2144 0
-1920 -1955 2145 0
-1920 -1956 2146 0
-1920 -1957 2147 0
-1920 -1958 2148 0
-1920 -1959 2149 0
-1920 -1960 2150 0
-1920 -1961 2151 0
-1920 -1962 2152 0
-1920 -1963 2153 0
-1920 -1964 2154 0
-1920 -1965 2155 0
-1920 -1966 2156 0
-1920 -1967 2157 0
-1920 -1968 2158 0
-1920 -1969 2159 0
-1920 -1970 2160 0
-1920 -1971 2161 0
-1920 -1972 2162 0
-1920 -1973 2163 0
-1920 -1974 2164 0
-1920 -1975 2165 0
-1920 -1976 2166 0
-1920 -1977 2167 0
-1920 -1978 2168 0
-1920 -1979 2169 0
-1920 -1980 2170 0
-1920 -1981 2171 0
-1920 -1982 2172 0
-1920 -1983 2173 0
-1920 -1984 2174 0
-1920 -1985 2175 0
-1920 -1986 2176 0
-1920 -1987 2177 0
-1920 -1988 2178 0
-1920 -1989 2179 0
-1920 -1990 2180 0
-1920 -1991 2181 0
-1920 -1992 2182 0
-1920 -1993 2183 0
-1920 -1994 2184 0
-1920 -1995 2185 0
-1920 -1996 2186 0
-1920 -1997 2187 0
-1920 -1998 2188 0
-1920 -1999 2189 0
-1920 -2000 2190 0
-1920 -2001 2191 0
-1920 -2002 2192 0
-1920 -2003 2193 0
-1920 -2004 2194 0
-1920 -2005 2195 0
-1920 -2006 2196 0
-1920 -2007 2197 0
-1920 -2008 2198 0
-1920 -2009 2199 0
-1920 -2010 2200 0
-1921 -1947 2138 0
-1921 -1948 2139 0
-1921 -1949 2140 0
-1921 -1950 2141 0
-1921 -1951 2142 0
-1921 -1952 2143 0
-1921 -1953 2144 0
-1921 -1954 2145 0
-1921 -1955 2146 0
-1921 -1956 2147 0
-1921 -1957 2148 0
-1921 -1958 2149 0
-1921 -1959 2150 0
-1921 -1960 2151 0
-1921 -1961 2152 0
-1921 -1962 2153 0
-1921 -1963 2154 0
-1921 -1964 2155 0
-1921 -1965 2156 0
-1921 -1966 2157 0
-1921 -1967 2158 0
-1921 -1968 2159 0
-1921 -1969 2160 0
-1921 -1970 2161 0
-1921 -1971 2162 0
-1921 -1972 2163 0
-1921 -1973 2164 0
-1921 -1974 2165 0
-1921 -1975 2166 0
-1921 -1976 2167 0
-1921 -1977 2168 0
-1921 -1978 2169 0
-1921 -1979 2170 0
-1921 -1980 2171 0
-1921 -1981 2172 0
-1921 -1982 2173 0
-1921 -1983 2174 0
-1921 -1984 2175 0
-1921 -1985 2176 0
-1921 -1986 2177 0
-1921 -1987 2178 0
-1921 -1988 2179 0
-1921 -1989 2180 0
-1921 -1990 2181 0
-1921 -1991 2182 0
-1921 -1992 2183 0
-1921 -1993 2184 0
-1921 -1994 2185 0
-1921 -1995 2186 0
-1921 -1996 2187 0
-1921 -1997 2188 0
-1921 -1998 2189 0
-1921 -1999 2190 0
-1921 -2000 2191 0
-1921 -2001 2192 0
-1921 -2002 2193 0
-1921 -2003 2194 0
-1921 -2004 2195 0
-1921 -2005 2196 0
-1921 -2006 2197 0
-1921 -2007 2198 0
-1921 -2008 2199 0
-1921 -2009 2200 0
-1921 -2010 2201 0
-1922 -1947 2139 0
-1922 -1948 2140 0
-1922 -1949 2141 0
-1922 -1950 2142 0
-1922 -1951 2143 0
-1922 -1952 2144 0
-1922 -1953 2145 0
-1922 -1954 2146 0
-1922 -1955 2147 0
-1922 -1956 2148 0
-1922 -1957 2149 0
-1922 -1958 2150 0
-1922 -1959 2151 0
-1922 -1960 2152 0
-1922 -1961 2153 0
-1922 -1962 2154 0
-1922 -1963 2155 0
-1922 -1964 2156 0
-1922 -1965 2157 0
-1922 -1966 2158 0
-1922 -1967 2159 0
-1922 -1968 2160 0
-1922 -1969 2161 0
-1922 -1970 2162 0
-1922 -1971 2163 0
-1922 -1972 2164 0
-1922 -1973 2165 0
-1922 -1974 2166 0
-1922 -1975 2167 0
-1922 -1976 2168 0
-1922 -1977 2169 0
-1922 -1978 2170 0
-1922 -1979 2171 0
-1922 -1980 2172 0
-1922 -1981 2173 0
-1922 -1982 2174 0
-1922 -1983 2175 0
-1922 -1984 2176 0
-1922 -1985 2177 0
-1922 -1986 2178 0
-1922 -1987 2179 0
-1922 -1988 2180 0
-1922 -1989 2181 0
-1922 -1990 2182 0
-1922 -1991 2183 0
-1922 -1992 2184 0
-1922 -1993 2185 0
-1922 -1994 2186 0
-1922 -1995 2187 0
-1922 -1996 2188 0
-1922 -1997 2189 0
-1922 -1998 2190 0
-1922 -1999 2191 0
-1922 -2000 2192 0
-1922 -2001 2193 0
-1922 -2002 2194 0
-1922 -2003 2195 0
-1922 -2004 2196 0
-1922 -2005 2197 0
-1922 -2006 2198 0
-1922 -2007 2199 0
-1922 -2008 2200 0
-1922 -2009 2201 0
-1922 -2010 2202 0
-1923 -1947 2140 0
-1923 -1948 2141 0
-1923 -1949 2142 0
-1923 -1950 2143 0
-1923 -1951 2144 0
-1923 -1952 2145 0
-1923 -1953 2146 0
-1923 -1954 2147 0
-1923 -1955 2148 0
-1923 -1956 2149 0
-1923 -1957 2150 0
-1923 -1958 2151 0
-1923 -1959 2152 0
-1923 -1960 2153 0
-1923 -1961 2154 0
-1923 -1962 2155 0
-1923 -1963 2156 0
-1923 -1964 2157 0
-1923 -1965 2158 0
-1923 -1966 2159 0
-1923 -1967 2160 0
-1923 -1968 2161 0
-1923 -1969 2162 0
-1923 -1970 2163 0
-1923 -1971 2164 0
-1923 -1972 2165 0
-1923 -1973 2166 0
-1923 -1974 2167 0
-1923 -1975 2168 0
-1923 -1976 2169 0
-1923 -1977 2170 0
-1923 -1978 2171 0
-1923 -1979 2172 0
-1923 -1980 2173 0
-1923 -1981 2174 0
-1923 -1982 2175 0
-1923 -1983 2176 0
-1923 -1984 2177 0
-1923 -1985 2178 0
-1923 -1986 2179 0
-1923 -1987 2180 0
-1923 -1988 2181 0
-1923 -1989 2182 0
-1923 -1990 2183 0
-1923 -1991 2184 0
-1923 -1992 2185 0
-1923 -1993 2186 0
-1923 -1994 2187 0
-1923 -1995 2188 0
-1923 -1996 2189 0
-1923 -1997 2190 0
-1923 -1998 2191 0
-1923 -1999 2192 0
-1923 -2000 2193 0
-1923 -2001 2194 0
-1923 -2002 2195 0
-1923 -2003 2196 0
-1923 -2004 2197 0
-1923 -2005 2198 0
-1923 -2006 2199 0
-1923 -2007 2200 0
-1923 -2008 2201 0
-1923 -2009 2202 0
-1923 -2010 2203 0
-1924 -1947 2141 0
-1924 -1948 2142 0
-1924 -1949 2143 0
-1924 -1950 2144 0
-1924 -1951 2145 0
-1924 -1952 2146 0
-1924 -1953 2147 0
-1924 -1954 2148 0
-1924 -1955 2149 0
-1924 -1956 2150 0
-1924 -1957 2151 0
-1924 -1958 2152 0
-1924 -1959 2153 0
-1924 -1960 2154 0
-1924 -1961 2155 0
-1924 -1962 2156 0
-1924 -1963 2157 0
-1924 -1964 2158 0
-1924 -1965 2159 0
-1924 -1966 2160 0
-1924 -1967 2161 0
-1924 -1968 2162 0
-1924 -1969 2163 0
-1924 -1970 2164 0
-1924 -1971 2165 0
-1924 -1972 2166 0
-1924 -1973 2167 0
-1924 -1974 2168 0
-1924 -1975 2169 0
-1924 -1976 2170 0
-1924 -1977 2171 0
-1924 -1978 2172 0
-1924 -1979 2173 0
-1924 -1980 2174 0
-1924 -1981 2175 0
-1924 -1982 2176 0
-1924 -1983 2177 0
-1924 -1984 2178 0
-1924 -1985 2179 0
-1924 -1986 2180 0
-1924 -1987 2181 0
-1924 -1988 2182 0
-1924 -1989 2183 0
-1924 -1990 2184 0
-1924 -1991 2185 0
-1924 -1992 2186 0
-1924 -1993 2187 0
-1924 -1994 2188 0
-1924 -1995 2189 0
-1924 -1996 2190 0
-1924 -1997 2191 0
-1924 -1998 2192 0
-1924 -1999 2193 0
-1924 -2000 2194 0
-1924 -2001 2195 0
-1924 -2002 2196 0
-1924 -2003 2197 0
-1924 -2004 2198 0
-1924 -2005 2199 0
-1924 -2006 2200 0
-1924 -2007 2201 0
-1924 -2008 2202 0
-1924 -2009 2203 0
-1924 -2010 2204 0
-1925 -1947 2142 0
-1925 -1948 2143 0
-1925 -1949 2144 0
-1925 -1950 2145 0
-1925 -1951 2146 0
-1925 -1952 2147 0
-1925 -1953 2148 0
-1925 -1954 2149 0
-1925 -1955 2150 0
-1925 -1956 2151 0
-1925 -1957 2152 0
-1925 -1958 2153 0
-1925 -1959 2154 0
-1925 -1960 2155 0
-1925 -1961 2156 0
-1925 -1962 2157 0
-1925 -1963 2158 0
-1925 -1964 2159 0
-1925 -1965 2160 0
-1925 -1966 2161 0
-1925 -1967 2162 0
-1925 -1968 2163 0
-1925 -1969 2164 0
-1925 -1970 2165 0
-1925 -1971 2166 0
-1925 -1972 2167 0
-1925 -1973 2168 0
-1925 -1974 2169 0
-1925 -1975 2170 0
-1925 -1976 2171 0
-1925 -1977 2172 0
-1925 -1978 2173 0
-1925 -1979 2174 0
-1925 -1980 2175 0
-1925 -1981 2176 0
-1925 -1982 2177 0
-1925 -1983 2178 0
-1925 -1984 2179 0
-1925 -1985 2180 0
-1925 -1986 2181 0
-1925 -1987 2182 0
-1925 -1988 2183 0
-1925 -1989 2184 0
-1925 -1990 2185 0
-1925 -1991 2186 0
-1925 -1992 2187 0
-1925 -1993 2188 0
-1925 -1994 2189 0
-1925 -1995 2190 0
-1925 -1996 2191 0
-1925 -1997 2192 0
-1925 -1998 2193 0
-1925 -1999 2194 0
-1925 -2000 2195 0
-1925 -2001 2196 0
-1925 -2002 2197 0
-1925 -2003 2198 0
-1925 -2004 2199 0
-1925 -2005 2200 0
-1925 -2006 2201 0
-1925 -2007 2202 0
-1925 -2008 2203 0
-1925 -2009 2204 0
-1925 -2010 2205 0
-1926 -1947 2143 0
-1926 -1948 2144 0
-1926 -1949 2145 0
-1926 -1950 2146 0
-1926 -1951 2147 0
-1926 -1952 2148 0
-1926 -1953 2149 0
-1926 -1954 2150 0
-1926 -1955 2151 0
-1926 -1956 2152 0
-1926 -1957 2153 0
-1926 -1958 2154 0
-1926 -1959 2155 0
-1926 -1960 2156 0
-1926 -1961 2157 0
-1926 -1962 2158 0
-1926 -1963 2159 0
-1926 -1964 2160 0
-1926 -1965 2161 0
-1926 -1966 2162 0
-1926 -1967 2163 0
-1926 -1968 2164 0
-1926 -1969 2165 0
-1926 -1970 2166 0
-1926 -1971 2167 0
-1926 -1972 2168 0
-1926 -1973 2169 0
-1926 -1974 2170 0
-1926 -1975 2171 0
-1926 -1976 2172 0
-1926 -1977 2173 0
-1926 -1978 2174 0
-1926 -1979 2175 0
-1926 -1980 2176 0
-1926 -1981 2177 0
-1926 -1982 2178 0
-1926 -1983 2179 0
-1926 -1984 2180 0
-1926 -1985 2181 0
-1926 -1986 2182 0
-1926 -1987 2183 0
-1926 -1988 2184 0
-1926 -1989 2185 0
-1926 -1990 2186 0
-1926 -1991 2187 0
-1926 -1992 2188 0
-1926 -1993 2189 0
-1926 -1994 2190 0
-1926 -1995 2191 0
-1926 -1996 2192 0
-1926 -1997 2193 0
-1926 -1998 2194 0
-1926 -1999 2195 0
-1926 -2000 2196 0
-1926 -2001 2197 0
-1926 -2002 2198 0
-1926 -2003 2199 0
-1926 -2004 2200 0
-1926 -2005 2201 0
-1926 -2006 2202 0
-1926 -2007 2203 0
-1926 -2008 2204 0
-1926 -2009 2205 0
-1926 -2010 2206 0
-1927 -1947 2144 0
-1927 -1948 2145 0
-1927 -1949 2146 0
-1927 -1950 2147 0
-1927 -1951 2148 0
-1927 -1952 2149 0
-1927 -1953 2150 0
-1927 -1954 2151 0
-1927 -1955 2152 0
-1927 -1956 2153 0
-1927 -1957 2154 0
-1927 -1958 2155 0
-1927 -1959 2156 0
-1927 -1960 2157 0
-1927 -1961 2158 0
-1927 -1962 2159 0
-1927 -1963 2160 0
-1927 -1964 2161 0
-1927 -1965 2162 0
-1927 -1966 2163 0
-1927 -1967 2164 0
-1927 -1968 2165 0
-1927 -1969 2166 0
-1927 -1970 2167 0
-1927 -1971 2168 0
-1927 -1972 2169 0
-1927 -1973 2170 0
-1927 -1974 2171 0
-1927 -1975 2172 0
-1927 -1976 2173 0
-1927 -1977 2174 0
-1927 -1978 2175 0
-1927 -1979 2176 0
-1927 -1980 2177 0
-1927 -1981 2178 0
-1927 -1982 2179 0
-1927 -1983 2180 0
-1927 -1984 2181 0
-1927 -1985 2182 0
-1927 -1986 2183 0
-1927 -1987 2184 0
-1927 -1988 2185 0
-1927 -1989 2186 0
-1927 -1990 2187 0
-1927 -1991 2188 0
-1927 -1992 2189 0
-1927 -1993 2190 0
-1927 -1994 2191 0
-1927 -1995 2192 0
-1927 -1996 2193 0
-1927 -1997 2194 0
-1927 -1998 2195 0
-1927 -1999 2196 0
-1927 -2000 2197 0
-1927 -2001 2198 0
-1927 -2002 2199 0
-1927 -2003 2200 0
-1927 -2004 2201 0
-1927 -2005 2202 0
-1927 -2006 2203 0
-1927 -2007 2204 0
-1927 -2008 2205 0
-1927 -2009 2206 0
-1927 -2010 2207 0
-1928 -1947 2145 0
-1928 -1948 2146 0
-1928 -1949 2147 0
-1928 -1950 2148 0
-1928 -1951 2149 0
-1928 -1952 2150 0
-1928 -1953 2151 0
-1928 -1954 2152 0
-1928 -1955 2153 0
-1928 -1956 2154 0
-1928 -1957 2155 0
-1928 -1958 2156 0
-1928 -1959 2157 0
-1928 -1960 2158 0
-1928 -1961 2159 0
-1928 -1962 2160 0
-1928 -1963 2161 0
-1928 -1964 2162 0
-1928 -1965 2163 0
-1928 -1966 2164 0
-1928 -1967 2165 0
-1928 -1968 2166 0
-1928 -1969 2167 0
-1928 -1970 2168 0
-1928 -1971 2169 0
-1928 -1972 2170 0
-1928 -1973 2171 0
-1928 -1974 2172 0
-1928 -1975 2173 0
-1928 -1976 2174 0
-1928 -1977 2175 0
-1928 -1978 2176 0
-1928 -1979 2177 0
-1928 -1980 2178 0
-1928 -1981 2179 0
-1928 -1982 2180 0
-1928 -1983 2181 0
-1928 -1984 2182 0
-1928 -1985 2183 0
-1928 -1986 2184 0
-1928 -1987 2185 0
-1928 -1988 2186 0
-1928 -1989 2187 0
-1928 -1990 2188 0
-1928 -1991 2189 0
-1928 -1992 2190 0
-1928 -1993 2191 0
-1928 -1994 2192 0
-1928 -1995 2193 0
-1928 -1996 2194 0
-1928 -1997 2195 0
-1928 -1998 2196 0
-1928 -1999 2197 0
-1928 -2000 2198 0
-1928 -2001 2199 0
-1928 -2002 2200 0
-1928 -2003 2201 0
-1928 -2004 2202 0
-1928 -2005 2203 0
-1928 -2006 2204 0
-1928 -2007 2205 0
-1928 -2008 2206 0
-1928 -2009 2207 0
-1928 -2010 2208 0
-1929 -1947 2146 0
-1929 -1948 2147 0
-1929 -1949 2148 0
-1929 -1950 2149 0
-1929 -1951 2150 0
-1929 -1952 2151 0
-1929 -1953 2152 0
-1929 -1954 2153 0
-1929 -1955 2154 0
-1929 -1956 2155 0
-1929 -1957 2156 0
-1929 -1958 2157 0
-1929 -1959 2158 0
-1929 -1960 2159 0
-1929 -1961 2160 0
-1929 -1962 2161 0
-1929 -1963 2162 0
-1929 -1964 2163 0
-1929 -1965 2164 0
-1929 -1966 2165 0
-1929 -1967 2166 0
-1929 -1968 2167 0
-1929 -1969 2168 0
-1929 -1970 2169 0
-1929 -1971 2170 0
-1929 -1972 2171 0
-1929 -1973 2172 0
-1929 -1974 2173 0
-1929 -1975 2174 0
-1929 -1976 2175 0
-1929 -1977 2176 0
-1929 -1978 2177 0
-1929 -1979 2178 0
-1929 -1980 2179 0
-1929 -1981 2180 0
-1929 -1982 2181 0
-1929 -1983 2182 0
-1929 -1984 2183 0
-1929 -1985 2184 0
-1929 -1986 2185 0
-1929 -1987 2186 0
-1929 -1988 2187 0
-1929 -1989 2188 0
-1929 -1990 2189 0
-1929 -1991 2190 0
-1929 -1992 2191 0
-1929 -1993 2192 0
-1929 -1994 2193 0
-1929 -1995 2194 0
-1929 -1996 2195 0
-1929 -1997 2196 0
-1929 -1998 2197 0
-1929 -1999 2198 0
-1929 -2000 2199 0
-1929 -2001 2200 0
-1929 -2002 2201 0
-1929 -2003 2202 0
-1929 -2004 2203 0
-1929 -2005 2204 0
-1929 -2006 2205 0
-1929 -2007 2206 0
-1929 -2008 2207 0
-1929 -2009 2208 0
-1929 -2010 2209 0
-1930 -1947 2147 0
-1930 -1948 2148 0
-1930 -1949 2149 0
-1930 -1950 2150 0
-1930 -1951 2151 0
-1930 -1952 2152 0
-1930 -1953 2153 0
-1930 -1954 2154 0
-1930 -1955 2155 0
-1930 -1956 2156 0
-1930 -1957 2157 0
-1930 -1958 2158 0
-1930 -1959 2159 0
-1930 -1960 2160 0
-1930 -1961 2161 0
-1930 -1962 2162 0
-1930 -1963 2163 0
-1930 -1964 2164 0
-1930 -1965 2165 0
-1930 -1966 2166 0
-1930 -1967 2167 0
-1930 -1968 2168 0
-1930 -1969 2169 0
-1930 -1970 2170 0
-1930 -1971 2171 0
-1930 -1972 2172 0
-1930 -1973 2173 0
-1930 -1974 2174 0
-1930 -1975 2175 0
-1930 -1976 2176 0
-1930 -1977 2177 0
-1930 -1978 2178 0
-1930 -1979 2179 0
-1930 -1980 2180 0
-1930 -1981 2181 0
-1930 -1982 2182 0
-1930 -1983 2183 0
-1930 -1984 2184 0
-1930 -1985 2185 0
-1930 -1986 2186 0
-1930 -1987 2187 0
-1930 -1988 2188 0
-1930 -1989 2189 0
-1930 -1990 2190 0
-1930 -1991 2191 0
-1930 -1992 2192 0
-1930 -1993 2193 0
-1930 -1994 2194 0
-1930 -1995 2195 0
-1930 -1996 2196 0
-1930 -1997 2197 0
-1930 -1998 2198 0
-1930 -1999 2199 0
-1930 -2000 2200 0
-1930 -2001 2201 0
-1930 -2002 2202 0
-1930 -2003 2203 0
-1930 -2004 2204 0
-1930 -2005 2205 0
-1930 -2006 2206 0
-1930 -2007 2207 0
-1930 -2008 2208 0
-1930 -2009 2209 0
-1930 -2010 2210 0
-1931 -1947 2148 0
-1931 -1948 2149 0
-1931 -1949 2150 0
-1931 -1950 2151 0
-1931 -1951 2152 0
-1931 -1952 2153 0
-1931 -1953 2154 0
-1931 -1954 2155 0
-1931 -1955 2156 0
-1931 -1956 2157 0
-1931 -1957 2158 0
-1931 -1958 2159 0
-1931 -1959 2160 0
-1931 -1960 2161 0
-1931 -1961 2162 0
-1931 -1962 2163 0
-1931 -1963 2164 0
-1931 -1964 2165 0
-1931 -1965 2166 0
-1931 -1966 2167 0
-1931 -1967 2168 0
-1931 -1968 2169 0
-1931 -1969 2170 0
-1931 -1970 2171 0
-1931 -1971 2172 0
-1931 -1972 2173 0
-1931 -1973 2174 0
-1931 -1974 2175 0
-1931 -1975 2176 0
-1931 -1976 2177 0
-1931 -1977 2178 0
-1931 -1978 2179 0
-1931 -1979 2180 0
-1931 -1980 2181 0
-1931 -1981 2182 0
-1931 -1982 2183 0
-1931 -1983 2184 0
-1931 -1984 2185 0
-1931 -1985 2186 0
-1931 -1986 2187 0
-1931 -1987 2188 0
-1931 -1988 2189 0
-1931 -1989 2190 0
-1931 -1990 2191 0
-1931 -1991 2192 0
-1931 -1992 2193 0
-1931 -1993 2194 0
-1931 -1994 2195 0
-1931 -1995 2196 0
-1931 -1996 2197 0
-1931 -1997 2198 0
-1931 -1998 2199 0
-1931 -1999 2200 0
-1931 -2000 2201 0
-1931 -2001 2202 0
-1931 -2002 2203 0
-1931 -2003 2204 0
-1931 -2004 2205 0
-1931 -2005 2206 0
-1931 -2006 2207 0
-1931 -2007 2208 0
-1931 -2008 2209 0
-1931 -2009 2210 0
-1931 -2010 2211 0
-1932 -1947 2149 0
-1932 -1948 2150 0
-1932 -1949 2151 0
-1932 -1950 2152 0
-1932 -1951 2153 0
-1932 -1952 2154 0
-1932 -1953 2155 0
-1932 -1954 2156 0
-1932 -1955 2157 0
-1932 -1956 2158 0
-1932 -1957 2159 0
-1932 -1958 2160 0
-1932 -1959 2161 0
-1932 -1960 2162 0
-1932 -1961 2163 0
-1932 -1962 2164 0
-1932 -1963 2165 0
-1932 -1964 2166 0
-1932 -1965 2167 0
-1932 -1966 2168 0
-1932 -1967 2169 0
-1932 -1968 2170 0
-1932 -1969 2171 0
-1932 -1970 2172 0
-1932 -1971 2173 0
-1932 -1972 2174 0
-1932 -1973 2175 0
-1932 -1974 2176 0
-1932 -1975 2177 0
-1932 -1976 2178 0
-1932 -1977 2179 0
-1932 -1978 2180 0
-1932 -1979 2181 0
-1932 -1980 2182 0
-1932 -1981 2183 0
-1932 -1982 2184 0
-1932 -1983 2185 0
-1932 -1984 2186 0
-1932 -1985 2187 0
-1932 -1986 2188 0
-1932 -1987 2189 0
-1932 -1988 2190 0
-1932 -1989 2191 0
-1932 -1990 2192 0
-1932 -1991 2193 0
-1932 -1992 2194 0
-1932 -1993 2195 0
-1932 -1994 2196 0
-1932 -1995 2197 0
-1932 -1996 2198 0
-1932 -1997 2199 0
-1932 -1998 2200 0
-1932 -1999 2201 0
-1932 -2000 2202 0
-1932 -2001 2203 0
-1932 -2002 2204 0
-1932 -2003 2205 0
-1932 -2004 2206 0
-1932 -2005 2207 0
-1932 -2006 2208 0
-1932 -2007 2209 0
-1932 -2008 2210 0
-1932 -2009 2211 0
-1932 -2010 2212 0
-1933 -1947 2150 0
-1933 -1948 2151 0
-1933 -1949 2152 0
-1933 -1950 2153 0
-1933 -1951 2154 0
-1933 -1952 2155 0
-1933 -1953 2156 0
-1933 -1954 2157 0
-1933 -1955 2158 0
-1933 -1956 2159 0
-1933 -1957 2160 0
-1933 -1958 2161 0
-1933 -1959 2162 0
-1933 -1960 2163 0
-1933 -1961 2164 0
-1933 -1962 2165 0
-1933 -1963 2166 0
-1933 -1964 2167 0
-1933 -1965 2168 0
-1933 -1966 2169 0
-1933 -1967 2170 0
-1933 -1968 2171 0
-1933 -1969 2172 0
-1933 -1970 2173 0
-1933 -1971 2174 0
-1933 -1972 2175 0
-1933 -1973 2176 0
-1933 -1974 2177 0
-1933 -1975 2178 0
-1933 -1976 2179 0
-1933 -1977 2180 0
-1933 -1978 2181 0
-1933 -1979 2182 0
-1933 -1980 2183 0
-1933 -1981 2184 0
-1933 -1982 2185 0
-1933 -1983 2186 0
-1933 -1984 2187 0
-1933 -1985 2188 0
-1933 -1986 2189 0
-1933 -1987 2190 0
-1933 -1988 2191 0
-1933 -1989 2192 0
-1933 -1990 2193 0
-1933 -1991 2194 0
-1933 -1992 2195 0
-1933 -1993 2196 0
-1933 -1994 2197 0
-1933 -1995 2198 0
-1933 -1996 2199 0
-1933 -1997 2200 0
-1933 -1998 2201 0
-1933 -1999 2202 0
-1933 -2000 2203 0
-1933 -2001 2204 0
-1933 -2002 2205 0
-1933 -2003 2206 0
-1933 -2004 2207 0
-1933 -2005 2208 0
-1933 -2006 2209 0
-1933 -2007 2210 0
-1933 -2008 2211 0
-1933 -2009 2212 0
-1933 -2010 2213 0
-1934 -1947 2151 0
-1934 -1948 2152 0
-1934 -1949 2153 0
-1934 -1950 2154 0
-1934 -1951 2155 0
-1934 -1952 2156 0
-1934 -1953 2157 0
-1934 -1954 2158 0
-1934 -1955 2159 0
-1934 -1956 2160 0
-1934 -1957 2161 0
-1934 -1958 2162 0
-1934 -1959 2163 0
-1934 -1960 2164 0
-1934 -1961 2165 0
-1934 -1962 2166 0
-1934 -1963 2167 0
-1934 -1964 2168 0
-1934 -1965 2169 0
-1934 -1966 2170 0
-1934 -1967 2171 0
-1934 -1968 2172 0
-1934 -1969 2173 0
-1934 -1970 2174 0
-1934 -1971 2175 0
-1934 -1972 2176 0
-1934 -1973 2177 0
-1934 -1974 2178 0
-1934 -1975 2179 0
-1934 -1976 2180 0
-1934 -1977 2181 0
-1934 -1978 2182 0
-1934 -1979 2183 0
-1934 -1980 2184 0
-1934 -1981 2185 0
-1934 -1982 2186 0
-1934 -1983 2187 0
-1934 -1984 2188 0
-1934 -1985 2189 0
-1934 -1986 2190 0
-1934 -1987 2191 0
-1934 -1988 2192 0
-1934 -1989 2193 0
-1934 -1990 2194 0
-1934 -1991 2195 0
-1934 -1992 2196 0
-1934 -1993 2197 0
-1934 -1994 2198 0
-1934 -1995 2199 0
-1934 -1996 2200 0
-1934 -1997 2201 0
-1934 -1998 2202 0
-1934 -1999 2203 0
-1934 -2000 2204 0
-1934 -2001 2205 0
-1934 -2002 2206 0
-1934 -2003 2207 0
-1934 -2004 2208 0
-1934 -2005 2209 0
-1934 -2006 2210 0
-1934 -2007 2211 0
-1934 -2008 2212 0
-1934 -2009 2213 0
-1934 -2010 2214 0
-1935 -1947 2152 0
-1935 -1948 2153 0
-1935 -1949 2154 0
-1935 -1950 2155 0
-1935 -1951 2156 0
-1935 -1952 2157 0
-1935 -1953 2158 0
-1935 -1954 2159 0
-1935 -1955 2160 0
-1935 -1956 2161 0
-1935 -1957 2162 0
-1935 -1958 2163 0
-1935 -1959 2164 0
-1935 -1960 2165 0
-1935 -1961 2166 0
-1935 -1962 2167 0
-1935 -1963 2168 0
-1935 -1964 2169 0
-1935 -1965 2170 0
-1935 -1966 2171 0
-1935 -1967 2172 0
-1935 -1968 2173 0
-1935 -1969 2174 0
-1935 -1970 2175 0
-1935 -1971 2176 0
-1935 -1972 2177 0
-1935 -1973 2178 0
-1935 -1974 2179 0
-1935 -1975 2180 0
-1935 -1976 2181 0
-1935 -1977 2182 0
-1935 -1978 2183 0
-1935 -1979 2184 0
-1935 -1980 2185 0
-1935 -1981 2186 0
-1935 -1982 2187 0
-1935 -1983 2188 0
-1935 -1984 2189 0
-1935 -1985 2190 0
-1935 -1986 2191 0
-1935 -1987 2192 0
-1935 -1988 2193 0
-1935 -1989 2194 0
-1935 -1990 2195 0
-1935 -1991 2196 0
-1935 -1992 2197 0
-1935 -1993 2198 0
-1935 -1994 2199 0
-1935 -1995 2200 0
-1935 -1996 2201 0
-1935 -1997 2202 0
-1935 -1998 2203 0
-1935 -1999 2204 0
-1935 -2000 2205 0
-1935 -2001 2206 0
-1935 -2002 2207 0
-1935 -2003 2208 0
-1935 -2004 2209 0
-1935 -2005 2210 0
-1935 -2006 2211 0
-1935 -2007 2212 0
-1935 -2008 2213 0
-1935 -2009 2214 0
-1935 -2010 2215 0
-1936 -1947 2153 0
-1936 -1948 2154 0
-1936 -1949 2155 0
-1936 -1950 2156 0
-1936 -1951 2157 0
-1936 -1952 2158 0
-1936 -1953 2159 0
-1936 -1954 2160 0
-1936 -1955 2161 0
-1936 -1956 2162 0
-1936 -1957 2163 0
-1936 -1958 2164 0
-1936 -1959 2165 0
-1936 -1960 2166 0
-1936 -1961 2167 0
-1936 -1962 2168 0
-1936 -1963 2169 0
-1936 -1964 2170 0
-1936 -1965 2171 0
-1936 -1966 2172 0
-1936 -1967 2173 0
-1936 -1968 2174 0
-1936 -1969 2175 0
-1936 -1970 2176 0
-1936 -1971 2177 0
-1936 -1972 2178 0
-1936 -1973 2179 0
-1936 -1974 2180 0
-1936 -1975 2181 0
-1936 -1976 2182 0
-1936 -1977 2183 0
-1936 -1978 2184 0
-1936 -1979 2185 0
-1936 -1980 2186 0
-1936 -1981 2187 0
-1936 -1982 2188 0
-1936 -1983 2189 0
-1936 -1984 2190 0
-1936 -1985 2191 0
-1936 -1986 2192 0
-1936 -1987 2193 0
-1936 -1988 2194 0
-1936 -1989 2195 0
-1936 -1990 2196 0
-1936 -1991 2197 0
-1936 -1992 2198 0
-1936 -1993 2199 0
-1936 -1994 2200 0
-1936 -1995 2201 0
-1936 -1996 2202 0
-1936 -1997 2203 0
-1936 -1998 2204 0
-1936 -1999 2205 0
-1936 -2000 2206 0
-1936 -2001 2207 0
-1936 -2002 2208 0
-1936 -2003 2209 0
-1936 -2004 2210 0
-1936 -2005 2211 0
-1936 -2006 2212 0
-1936 -2007 2213 0
-1936 -2008 2214 0
-1936 -2009 2215 0
-1936 -2010 2216 0
-1937 -1947 2154 0
-1937 -1948 2155 0
-1937 -1949 2156 0
-1937 -1950 2157 0
-1937 -1951 2158 0
-1937 -1952 2159 0
-1937 -1953 2160 0
-1937 -1954 2161 0
-1937 -1955 2162 0
-1937 -1956 2163 0
-1937 -1957 2164 0
-1937 -1958 2165 0
-1937 -1959 2166 0
-1937 -1960 2167 0
-1937 -1961 2168 0
-1937 -1962 2169 0
-1937 -1963 2170 0
-1937 -1964 2171 0
-1937 -1965 2172 0
-1937 -1966 2173 0
-1937 -1967 2174 0
-1937 -1968 2175 0
-1937 -1969 2176 0
-1937 -1970 2177 0
-1937 -1971 2178 0
-1937 -1972 2179 0
-1937 -1973 2180 0
-1937 -1974 2181 0
-1937 -1975 2182 0
-1937 -1976 2183 0
-1937 -1977 2184 0
-1937 -1978 2185 0
-1937 -1979 2186 0
-1937 -1980 2187 0
-1937 -1981 2188 0
-1937 -1982 2189 0
-1937 -1983 2190 0
-1937 -1984 2191 0
-1937 -1985 2192 0
-1937 -1986 2193 0
-1937 -1987 2194 0
-1937 -1988 2195 0
-1937 -1989 2196 0
-1937 -1990 2197 0
-1937 -1991 2198 0
-1937 -1992 2199 0
-1937 -1993 2200 0
-1937 -1994 2201 0
-1937 -1995 2202 0
-1937 -1996 2203 0
-1937 -1997 2204 0
-1937 -1998 2205 0
-1937 -1999 2206 0
-1937 -2000 2207 0
-1937 -2001 2208 0
-1937 -2002 2209 0
-1937 -2003 2210 0
-1937 -2004 2211 0
-1937 -2005 2212 0
-1937 -2006 2213 0
-1937 -2007 2214 0
-1937 -2008 2215 0
-1937 -2009 2216 0
-1937 -2010 2217 0
-1938 -1947 2155 0
-1938 -1948 2156 0
-1938 -1949 2157 0
-1938 -1950 2158 0
-1938 -1951 2159 0
-1938 -1952 2160 0
-1938 -1953 2161 0
-1938 -1954 2162 0
-1938 -1955 2163 0
-1938 -1956 2164 0
-1938 -1957 2165 0
-1938 -1958 2166 0
-1938 -1959 2167 0
-1938 -1960 2168 0
-1938 -1961 2169 0
-1938 -1962 2170 0
-1938 -1963 2171 0
-1938 -1964 2172 0
-1938 -1965 2173 0
-1938 -1966 2174 0
-1938 -1967 2175 0
-1938 -1968 2176 0
-1938 -1969 2177 0
-1938 -1970 2178 0
-1938 -1971 2179 0
-1938 -1972 2180 0
-1938 -1973 2181 0
-1938 -1974 2182 0
-1938 -1975 2183 0
-1938 -1976 2184 0
-1938 -1977 2185 0
-1938 -1978 2186 0
-1938 -1979 2187 0
-1938 -1980 2188 0
-1938 -1981 2189 0
-1938 -1982 2190 0
-1938 -1983 2191 0
-1938 -1984 2192 0
-1938 -1985 2193 0
-1938 -1986 2194 0
-1938 -1987 2195 0
-1938 -1988 2196 0
-1938 -1989 2197 0
-1938 -1990 2198 0
-1938 -1991 2199 0
-1938 -1992 2200 0
-1938 -1993 2201 0
-1938 -1994 2202 0
-1938 -1995 2203 0
-1938 -1996 2204 0
-1938 -1997 2205 0
-1938 -1998 2206 0
-1938 -1999 2207 0
-1938 -2000 2208 0
-1938 -2001 2209 0
-1938 -2002 2210 0
-1938 -2003 2211 0
-1938 -2004 2212 0
-1938 -2005 2213 0
-1938 -2006 2214 0
-1938 -2007 2215 0
-1938 -2008 2216 0
-1938 -2009 2217 0
-1938 -2010 2218 0
-1939 -1947 2156 0
-1939 -1948 2157 0
-1939 -1949 2158 0
-1939 -1950 2159 0
-1939 -1951 2160 0
-1939 -1952 2161 0
-1939 -1953 2162 0
-1939 -1954 2163 0
-1939 -1955 2164 0
-1939 -1956 2165 0
-1939 -1957 2166 0
-1939 -1958 2167 0
-1939 -1959 2168 0
-1939 -1960 2169 0
-1939 -1961 2170 0
-1939 -1962 2171 0
-1939 -1963 2172 0
-1939 -1964 2173 0
-1939 -1965 2174 0
-1939 -1966 2175 0
-1939 -1967 2176 0
-1939 -1968 2177 0
-1939 -1969 2178 0
-1939 -1970 2179 0
-1939 -1971 2180 0
-1939 -1972 2181 0
-1939 -1973 2182 0
-1939 -1974 2183 0
-1939 -1975 2184 0
-1939 -1976 2185 0
-1939 -1977 2186 0
-1939 -1978 2187 0
-1939 -1979 2188 0
-1939 -1980 2189 0
-1939 -1981 2190 0
-1939 -1982 2191 0
-1939 -1983 2192 0
-1939 -1984 2193 0
-1939 -1985 2194 0
-1939 -1986 2195 0
-1939 -1987 2196 0
-1939 -1988 2197 0
-1939 -1989 2198 0
-1939 -1990 2199 0
-1939 -1991 2200 0
-1939 -1992 2201 0
-1939 -1993 2202 0
-1939 -1994 2203 0
-1939 -1995 2204 0
-1939 -1996 2205 0
-1939 -1997 2206 0
-1939 -1998 2207 0
-1939 -1999 2208 0
-1939 -2000 2209 0
-1939 -2001 2210 0
-1939 -2002 2211 0
-1939 -2003 2212 0
-1939 -2004 2213 0
-1939 -2005 2214 0
-1939 -2006 2215 0
-1939 -2007 2216 0
-1939 -2008 2217 0
-1939 -2009 2218 0
-1939 -2010 2219 0
-1940 -1947 2157 0
-1940 -1948 2158 0
-1940 -1949 2159 0
-1940 -1950 2160 0
-1940 -1951 2161 0
-1940 -1952 2162 0
-1940 -1953 2163 0
-1940 -1954 2164 0
-1940 -1955 2165 0
-1940 -1956 2166 0
-1940 -1957 2167 0
-1940 -1958 2168 0
-1940 -1959 2169 0
-1940 -1960 2170 0
-1940 -1961 2171 0
-1940 -1962 2172 0
-1940 -1963 2173 0
-1940 -1964 2174 0
-1940 -1965 2175 0
-1940 -1966 2176 0
-1940 -1967 2177 0
-1940 -1968 2178 0
-1940 -1969 2179 0
-1940 -1970 2180 0
-1940 -1971 2181 0
-1940 -1972 2182 0
-1940 -1973 2183 0
-1940 -1974 2184 0
-1940 -1975 2185 0
-1940 -1976 2186 0
-1940 -1977 2187 0
-1940 -1978 2188 0
-1940 -1979 2189 0
-1940 -1980 2190 0
-1940 -1981 2191 0
-1940 -1982 2192 0
-1940 -1983 2193 0
-1940 -1984 2194 0
-1940 -1985 2195 0
-1940 -1986 2196 0
-1940 -1987 2197 0
-1940 -1988 2198 0
-1940 -1989 2199 0
-1940 -1990 2200 0
-1940 -1991 2201 0
-1940 -1992 2202 0
-1940 -1993 2203 0
-1940 -1994 2204 0
-1940 -1995 2205 0
-1940 -1996 2206 0
-1940 -1997 2207 0
-1940 -1998 2208 0
-1940 -1999 2209 0
-1940 -2000 2210 0
-1940 -2001 2211 0
-1940 -2002 2212 0
-1940 -2003 2213 0
-1940 -2004 2214 0
-1940 -2005 2215 0
-1940 -2006 2216 0
-1940 -2007 2217 0
-1940 -2008 2218 0
-1940 -2009 2219 0
-1940 -2010 2220 0
-1941 -1947 2158 0
-1941 -1948 2159 0
-1941 -1949 2160 0
-1941 -1950 2161 0
-1941 -1951 2162 0
-1941 -1952 2163 0
-1941 -1953 2164 0
-1941 -1954 2165 0
-1941 -1955 2166 0
-1941 -1956 2167 0
-1941 -1957 2168 0
-1941 -1958 2169 0
-1941 -1959 2170 0
-1941 -1960 2171 0
-1941 -1961 2172 0
-1941 -1962 2173 0
-1941 -1963 2174 0
-1941 -1964 2175 0
-1941 -1965 2176 0
-1941 -1966 2177 0
-1941 -1967 2178 0
-1941 -1968 2179 0
-1941 -1969 2180 0
-1941 -1970 2181 0
-1941 -1971 2182 0
-1941 -1972 2183 0
-1941 -1973 2184 0
-1941 -1974 2185 0
-1941 -1975 2186 0
-1941 -1976 2187 0
-1941 -1977 2188 0
-1941 -1978 2189 0
-1941 -1979 2190 0
-1941 -1980 2191 0
-1941 -1981 2192 0
-1941 -1982 2193 0
-1941 -1983 2194 0
-1941 -1984 2195 0
-1941 -1985 2196 0
-1941 -1986 2197 0
-1941 -1987 2198 0
-1941 -1988 2199 0
-1941 -1989 2200 0
-1941 -1990 2201 0
-1941 -1991 2202 0
-1941 -1992 2203 0
-1941 -1993 2204 0
-1941 -1994 2205 0
-1941 -1995 2206 0
-1941 -1996 2207 0
-1941 -1997 2208 0
-1941 -1998 2209 0
-1941 -1999 2210 0
-1941 -2000 2211 0
-1941 -2001 2212 0
-1941 -2002 2213 0
-1941 -2003 2214 0
-1941 -2004 2215 0
-1941 -2005 2216 0
-1941 -2006 2217 0
-1941 -2007 2218 0
-1941 -2008 2219 0
-1941 -2009 2220 0
-1941 -2010 2221 0
-1942 -1947 2159 0
-1942 -1948 2160 0
-1942 -1949 2161 0
-1942 -1950 2162 0
-1942 -1951 2163 0
-1942 -1952 2164 0
-1942 -1953 2165 0
-1942 -1954 2166 0
-1942 -1955 2167 0
-1942 -1956 2168 0
-1942 -1957 2169 0
-1942 -1958 2170 0
-1942 -1959 2171 0
-1942 -1960 2172 0
-1942 -1961 2173 0
-1942 -1962 2174 0
-1942 -1963 2175 0
-1942 -1964 2176 0
-1942 -1965 2177 0
-1942 -1966 2178 0
-1942 -1967 2179 0
-1942 -1968 2180 0
-1942 -1969 2181 0
-1942 -1970 2182 0
-1942 -1971 2183 0
-1942 -1972 2184 0
-1942 -1973 2185 0
-1942 -1974 2186 0
-1942 -1975 2187 0
-1942 -1976 2188 0
-1942 -1977 2189 0
-1942 -1978 2190 0
-1942 -1979 2191 0
-1942 -1980 2192 0
-1942 -1981 2193 0
-1942 -1982 2194 0
-1942 -1983 2195 0
-1942 -1984 2196 0
-1942 -1985 2197 0
-1942 -1986 2198 0
-1942 -1987 2199 0
-1942 -1988 2200 0
-1942 -1989 2201 0
-1942 -1990 2202 0
-1942 -1991 2203 0
-1942 -1992 2204 0
-1942 -1993 2205 0
-1942 -1994 2206 0
-1942 -1995 2207 0
-1942 -1996 2208 0
-1942 -1997 2209 0
-1942 -1998 2210 0
-1942 -1999 2211 0
-1942 -2000 2212 0
-1942 -2001 2213 0
-1942 -2002 2214 0
-1942 -2003 2215 0
-1942 -2004 2216 0
-1942 -2005 2217 0
-1942 -2006 2218 0
-1942 -2007 2219 0
-1942 -2008 2220 0
-1942 -2009 2221 0
-1942 -2010 2222 0
-1943 -1947 2160 0
-1943 -1948 2161 0
-1943 -1949 2162 0
-1943 -1950 2163 0
-1943 -1951 2164 0
-1943 -1952 2165 0
-1943 -1953 2166 0
-1943 -1954 2167 0
-1943 -1955 2168 0
-1943 -1956 2169 0
-1943 -1957 2170 0
-1943 -1958 2171 0
-1943 -1959 2172 0
-1943 -1960 2173 0
-1943 -1961 2174 0
-1943 -1962 2175 0
-1943 -1963 2176 0
-1943 -1964 2177 0
-1943 -1965 2178 0
-1943 -1966 2179 0
-1943 -1967 2180 0
-1943 -1968 2181 0
-1943 -1969 2182 0
-1943 -1970 2183 0
-1943 -1971 2184 0
-1943 -1972 2185 0
-1943 -1973 2186 0
-1943 -1974 2187 0
-1943 -1975 2188 0
-1943 -1976 2189 0
-1943 -1977 2190 0
-1943 -1978 2191 0
-1943 -1979 2192 0
-1943 -1980 2193 0
-1943 -1981 2194 0
-1943 -1982 2195 0
-1943 -1983 2196 0
-1943 -1984 2197 0
-1943 -1985 2198 0
-1943 -1986 2199 0
-1943 -1987 2200 0
-1943 -1988 2201 0
-1943 -1989 2202 0
-1943 -1990 2203 0
-1943 -1991 2204 0
-1943 -1992 2205 0
-1943 -1993 2206 0
-1943 -1994 2207 0
-1943 -1995 2208 0
-1943 -1996 2209 0
-1943 -1997 2210 0
-1943 -1998 2211 0
-1943 -1999 2212 0
-1943 -2000 2213 0
-1943 -2001 2214 0
-1943 -2002 2215 0
-1943 -2003 2216 0
-1943 -2004 2217 0
-1943 -2005 2218 0
-1943 -2006 2219 0
-1943 -2007 2220 0
-1943 -2008 2221 0
-1943 -2009 2222 0
-1943 -2010 2223 0
-1944 -1947 2161 0
-1944 -1948 2162 0
-1944 -1949 2163 0
-1944 -1950 2164 0
-1944 -1951 2165 0
-1944 -1952 2166 0
-1944 -1953 2167 0
-1944 -1954 2168 0
-1944 -1955 2169 0
-1944 -1956 2170 0
-1944 -1957 2171 0
-1944 -1958 2172 0
-1944 -1959 2173 0
-1944 -1960 2174 0
-1944 -1961 2175 0
-1944 -1962 2176 0
-1944 -1963 2177 0
-1944 -1964 2178 0
-1944 -1965 2179 0
-1944 -1966 2180 0
-1944 -1967 2181 0
-1944 -1968 2182 0
-1944 -1969 2183 0
-1944 -1970 2184 0
-1944 -1971 2185 0
-1944 -1972 2186 0
-1944 -1973 2187 0
-1944 -1974 2188 0
-1944 -1975 2189 0
-1944 -1976 2190 0
-1944 -1977 2191 0
-1944 -1978 2192 0
-1944 -1979 2193 0
-1944 -1980 2194 0
-1944 -1981 2195 0
-1944 -1982 2196 0
-1944 -1983 2197 0
-1944 -1984 2198 0
-1944 -1985 2199 0
-1944 -1986 2200 0
-1944 -1987 2201 0
-1944 -1988 2202 0
-1944 -1989 2203 0
-1944 -1990 2204 0
-1944 -1991 2205 0
-1944 -1992 2206 0
-1944 -1993 2207 0
-1944 -1994 2208 0
-1944 -1995 2209 0
-1944 -1996 2210 0
-1944 -1997 2211 0
-1944 -1998 2212 0
-1944 -1999 2213 0
-1944 -2000 2214 0
-1944 -2001 2215 0
-1944 -2002 2216 0
-1944 -2003 2217 0
-1944 -2004 2218 0
-1944 -2005 2219 0
-1944 -2006 2220 0
-1944 -2007 2221 0
-1944 -2008 2222 0
-1944 -2009 2223 0
-1944 -2010 2224 0
-1945 -1947 2162 0
-1945 -1948 2163 0
-1945 -1949 2164 0
-1945 -1950 2165 0
-1945 -1951 2166 0
-1945 -1952 2167 0
-1945 -1953 2168 0
-1945 -1954 2169 0
-1945 -1955 2170 0
-1945 -1956 2171 0
-1945 -1957 2172 0
-1945 -1958 2173 0
-1945 -1959 2174 0
-1945 -1960 2175 0
-1945 -1961 2176 0
-1945 -1962 2177 0
-1945 -1963 2178 0
-1945 -1964 2179 0
-1945 -1965 2180 0
-1945 -1966 2181 0
-1945 -1967 2182 0
-1945 -1968 2183 0
-1945 -1969 2184 0
-1945 -1970 2185 0
-1945 -1971 2186 0
-1945 -1972 2187 0
-1945 -1973 2188 0
-1945 -1974 2189 0
-1945 -1975 2190 0
-1945 -1976 2191 0
-1945 -1977 2192 0
-1945 -1978 2193 0
-1945 -1979 2194 0
-1945 -1980 2195 0
-1945 -1981 2196 0
-1945 -1982 2197 0
-1945 -1983 2198 0
-1945 -1984 2199 0
-1945 -1985 2200 0
-1945 -1986 2201 0
-1945 -1987 2202 0
-1945 -1988 2203 0
-1945 -1989 2204 0
-1945 -1990 2205 0
-1945 -1991 2206 0
-1945 -1992 2207 0
-1945 -1993 2208 0
-1945 -1994 2209 0
-1945 -1995 2210 0
-1945 -1996 2211 0
-1945 -1997 2212 0
-1945 -1998 2213 0
-1945 -1999 2214 0
-1945 -2000 2215 0
-1945 -2001 2216 0
-1945 -2002 2217 0
-1945 -2003 2218 0
-1945 -2004 2219 0
-1945 -2005 2220 0
-1945 -2006 2221 0
-1945 -2007 2222 0
-1945 -2008 2223 0
-1945 -2009 2224 0
-1945 -2010 2225 0
-1946 -1947 2163 0
-1946 -1948 2164 0
-1946 -1949 2165 0
-1946 -1950 2166 0
-1946 -1951 2167 0
-1946 -1952 2168 0
-1946 -1953 2169 0
-1946 -1954 2170 0
-1946 -1955 2171 0
-1946 -1956 2172 0
-1946 -1957 2173 0
-1946 -1958 2174 0
-1946 -1959 2175 0
-1946 -1960 2176 0
-1946 -1961 2177 0
-1946 -1962 2178 0
-1946 -1963 2179 0
-1946 -1964 2180 0
-1946 -1965 2181 0
-1946 -1966 2182 0
-1946 -1967 2183 0
-1946 -1968 2184 0
-1946 -1969 2185 0
-1946 -1970 2186 0
-1946 -1971 2187 0
-1946 -1972 2188 0
-1946 -1973 2189 0
-1946 -1974 2190 0
-1946 -1975 2191 0
-1946 -1976 2192 0
-1946 -1977 2193 0
-1946 -1978 2194 0
-1946 -1979 2195 0
-1946 -1980 2196 0
-1946 -1981 2197 0
-1946 -1982 2198 0
-1946 -1983 2199 0
-1946 -1984 2200 0
-1946 -1985 2201 0
-1946 -1986 2202 0
-1946 -1987 2203 0
-1946 -1988 2204 0
-1946 -1989 2205 0
-1946 -1990 2206 0
-1946 -1991 2207 0
-1946 -1992 2208 0
-1946 -1993 2209 0
-1946 -1994 2210 0
-1946 -1995 2211 0
-1946 -1996 2212 0
-1946 -1997 2213 0
-1946 -1998 2214 0
-1946 -1999 2215 0
-1946 -2000 2216 0
-1946 -2001 2217 0
-1946 -2002 2218 0
-1946 -2003 2219 0
-1946 -2004 2220 0
-1946 -2005 2221 0
-1946 -2006 2222 0
-1946 -2007 2223 0
-1946 -2008 2224 0
-1946 -2009 2225 0
-1946 -2010 2226 0
-2099 2227 0
-2100 2228 0
-2101 2229 0
-2102 2230 0
-2103 2231 0
-2104 2232 0
-2105 2233 0
-2106 2234 0
-2107 2235 0
-2108 2236 0
-2109 2237 0
-2110 2238 0
-2111 2239 0
-2112 2240 0
-2113 2241 0
-2114 2242 0
-2115 2243 0
-2116 2244 0
-2117 2245 0
-2118 2246 0
-2119 2247 0
-2120 2248 0
-2121 2249 0
-2122 2250 0
-2123 2251 0
-2124 2252 0
-2125 2253 0
-2126 2254 0
-2127 2255 0
-2128 2256 0
-2129 2257 0
-2130 2258 0
-2131 2259 0
-2132 2260 0
-2133 2261 0
-2134 2262 0
-2135 2263 0
-2136 2264 0
-2137 2265 0
-2138 2266 0
-2139 2267 0
-2140 2268 0
-2141 2269 0
-2142 2270 0
-2143 2271 0
-2144 2272 0
-2145 2273 0
-2146 2274 0
-2147 2275 0
-2148 2276 0
-2149 2277 0
-2150 2278 0
-2151 2279 0
-2152 2280 0
-2153 2281 0
-2154 2282 0
-2155 2283 0
-2156 2284 0
-2157 2285 0
-2158 2286 0
-2159 2287 0
-2160 2288 0
-2161 2289 0
-2162 2290 0
-2163 2291 0
-2164 2292 0
-2165 2293 0
-2166 2294 0
-2167 2295 0
-2168 2296 0
-2169 2297 0
-2170 2298 0
-2171 2299 0
-2172 2300 0
-2173 2301 0
-2174 2302 0
-2175 2303 0
-2176 2304 0
-2177 2305 0
-2178 2306 0
-2179 2307 0
-2180 2308 0
-2181 2309 0
-2182 2310 0
-2183 2311 0
-2184 2312 0
-2185 2313 0
-2186 2314 0
-2187 2315 0
-2188 2316 0
-2189 2317 0
-2190 2318 0
-2191 2319 0
-2192 2320 0
-2193 2321 0
-2194 2322 0
-2195 2323 0
-2196 2324 0
-2197 2325 0
-2198 2326 0
-2199 2327 0
-2200 2328 0
-2201 2329 0
-2202 2330 0
-2203 2331 0
-2204 2332 0
-2205 2333 0
-2206 2334 0
-2207 2335 0
-2208 2336 0
-2209 2337 0
-2210 2338 0
-2211 2339 0
-2212 2340 0
-2213 2341 0
-2214 2342 0
-2215 2343 0
-2216 2344 0
-2217 2345 0
-2218 2346 0
-2219 2347 0
-2220 2348 0
-2221 2349 0
-2222 2350 0
-2223 2351 0
-2224 2352 0
-2225 2353 0
-2226 2354 0
-2011 2227 0
-2012 2228 0
-2013 2229 0
-2014 2230 0
-2015 2231 0
-2016 2232 0
-2017 2233 0
-2018 2234 0
-2019 2235 0
-2020 2236 0
-2021 2237 0
-2022 2238 0
-2023 2239 0
-2024 2240 0
-2025 2241 0
-2026 2242 0
-2027 2243 0
-2028 2244 0
-2029 2245 0
-2030 2246 0
-2031 2247 0
-2032 2248 0
-2033 2249 0
-2034 2250 0
-2035 2251 0
-2036 2252 0
-2037 2253 0
-2038 2254 0
-2039 2255 0
-2040 2256 0
-2041 2257 0
-2042 2258 0
-2043 2259 0
-2044 2260 0
-2045 2261 0
-2046 2262 0
-2047 2263 0
-2048 2264 0
-2049 2265 0
-2050 2266 0
-2051 2267 0
-2052 2268 0
-2053 2269 0
-2054 2270 0
-2055 2271 0
-2056 2272 0
-2057 2273 0
-2058 2274 0
-2059 2275 0
-2060 2276 0
-2061 2277 0
-2062 2278 0
-2063 2279 0
-2064 2280 0
-2065 2281 0
-2066 2282 0
-2067 2283 0
-2068 2284 0
-2069 2285 0
-2070 2286 0
-2071 2287 0
-2072 2288 0
-2073 2289 0
-2074 2290 0
-2075 2291 0
-2076 2292 0
-2077 2293 0
-2078 2294 0
-2079 2295 0
-2080 2296 0
-2081 2297 0
-2082 2298 0
-2083 2299 0
-2084 2300 0
-2085 2301 0
-2086 2302 0
-2087 2303 0
-2088 2304 0
-2089 2305 0
-2090 2306 0
-2091 2307 0
-2092 2308 0
-2093 2309 0
-2094 2310 0
-2095 2311 0
-2096 2312 0
-2097 2313 0
-2098 2314 0
-2011 -2099 2228 0
-2011 -2100 2229 0
-2011 -2101 2230 0
-2011 -2102 2231 0
-2011 -2103 2232 0
-2011 -2104 2233 0
-2011 -2105 2234 0
-2011 -2106 2235 0
-2011 -2107 2236 0
-2011 -2108 2237 0
-2011 -2109 2238 0
-2011 -2110 2239 0
-2011 -2111 2240 0
-2011 -2112 2241 0
-2011 -2113 2242 0
-2011 -2114 2243 0
-2011 -2115 2244 0
-2011 -2116 2245 0
-2011 -2117 2246 0
-2011 -2118 2247 0
-2011 -2119 2248 0
-2011 -2120 2249 0
-2011 -2121 2250 0
-2011 -2122 2251 0
-2011 -2123 2252 0
-2011 -2124 2253 0
-2011 -2125 2254 0
-2011 -2126 2255 0
-2011 -2127 2256 0
-2011 -2128 2257 0
-2011 -2129 2258 0
-2011 -2130 2259 0
-2011 -2131 2260 0
-2011 -2132 2261 0
-2011 -2133 2262 0
-2011 -2134 2263 0
-2011 -2135 2264 0
-2011 -2136 2265 0
-2011 -2137 2266 0
-2011 -2138 2267 0
-2011 -2139 2268 0
-2011 -2140 2269 0
-2011 -2141 2270 0
-2011 -2142 2271 0
-2011 -2143 2272 0
-2011 -2144 2273 0
-2011 -2145 2274 0
-2011 -2146 2275 0
-2011 -2147 2276 0
-2011 -2148 2277 0
-2011 -2149 2278 0
-2011 -2150 2279 0
-2011 -2151 2280 0
-2011 -2152 2281 0
-2011 -2153 2282 0
-2011 -2154 2283 0
-2011 -2155 2284 0
-2011 -2156 2285 0
-2011 -2157 2286 0
-2011 -2158 2287 0
-2011 -2159 2288 0
-2011 -2160 2289 0
-2011 -2161 2290 0
-2011 -2162 2291 0
-2011 -2163 2292 0
-2011 -2164 2293 0
-2011 -2165 2294 0
-2011 -2166 2295 0
-2011 -2167 2296 0
-2011 -2168 2297 0
-2011 -2169 2298 0
-2011 -2170 2299 0
-2011 -2171 2300 0
-2011 -2172 2301 0
-2011 -2173 2302 0
-2011 -2174 2303 0
-2011 -2175 2304 0
-2011 -2176 2305 0
-2011 -2177 2306 0
-2011 -2178 2307 0
-2011 -2179 2308 0
-2011 -2180 2309 0
-2011 -2181 2310 0
-2011 -2182 2311 0
-2011 -2183 2312 0
-2011 -2184 2313 0
-2011 -2185 2314 0
-2011 -2186 2315 0
-2011 -2187 2316 0
-2011 -2188 2317 0
-2011 -2189 2318 0
-2011 -2190 2319 0
-2011 -2191 2320 0
-2011 -2192 2321 0
-2011 -2193 2322 0
-2011 -2194 2323 0
-2011 -2195 2324 0
-2011 -2196 2325 0
-2011 -2197 2326 0
-2011 -2198 2327 0
-2011 -2199 2328 0
-2011 -2200 2329 0
-2011 -2201 2330 0
-2011 -2202 2331 0
-2011 -2203 2332 0
-2011 -2204 2333 0
-2011 -2205 2334 0
-2011 -2206 2335 0
-2011 -2207 2336 0
-2011 -2208 2337 0
-2011 -2209 2338 0
-2011 -2210 2339 0
-2011 -2211 2340 0
-2011 -2212 2341 0
-2011 -2213 2342 0
-2011 -2214 2343 0
-2011 -2215 2344 0
-2011 -2216 2345 0
-2011 -2217 2346 0
-2011 -2218 2347 0
-2011 -2219 2348 0
-2011 -2220 2349 0
-2011 -2221 2350 0
-2011 -2222 2351 0
-2011 -2223 2352 0
-2011 -2224 2353 0
-2011 -2225 2354 0
-2011 -2226 2355 0
-2012 -2099 2229 0
-2012 -2100 2230 0
-2012 -2101 2231 0
-2012 -2102 2232 0
-2012 -2103 2233 0
-2012 -2104 2234 0
-2012 -2105 2235 0
-2012 -2106 2236 0
-2012 -2107 2237 0
-2012 -2108 2238 0
-2012 -2109 2239 0
-2012 -2110 2240 0
-2012 -2111 2241 0
-2012 -2112 2242 0
-2012 -2113 2243 0
-2012 -2114 2244 0
-2012 -2115 2245 0
-2012 -2116 2246 0
-2012 -2117 2247 0
-2012 -2118 2248 0
-2012 -2119 2249 0
-2012 -2120 2250 0
-2012 -2121 2251 0
-2012 -2122 2252 0
-2012 -2123 2253 0
-2012 -2124 2254 0
-2012 -2125 2255 0
-2012 -2126 2256 0
-2012 -2127 2257 0
-2012 -2128 2258 0
-2012 -2129 2259 0
-2012 -2130 2260 0
-2012 -2131 2261 0
-2012 -2132 2262 0
-2012 -2133 2263 0
-2012 -2134 2264 0
-2012 -2135 2265 0
-2012 -2136 2266 0
-2012 -2137 2267 0
-2012 -2138 2268 0
-2012 -2139 2269 0
-2012 -2140 2270 0
-2012 -2141 2271 0
-2012 -2142 2272 0
-2012 -2143 2273 0
-2012 -2144 2274 0
-2012 -2145 2275 0
-2012 -2146 2276 0
-2012 -2147 2277 0
-2012 -2148 2278 0
-2012 -2149 2279 0
-2012 -2150 2280 0
-2012 -2151 2281 0
-2012 -2152 2282 0
-2012 -2153 2283 0
-2012 -2154 2284 0
-2012 -2155 2285 0
-2012 -2156 2286 0
-2012 -2157 2287 0
-2012 -2158 2288 0
-2012 -2159 2289 0
-2012 -2160 2290 0
-2012 -2161 2291 0
-2012 -2162 2292 0
-2012 -2163 2293 0
-2012 -2164 2294 0
-2012 -2165 2295 0
-2012 -2166 2296 0
-2012 -2167 2297 0
-2012 -2168 2298 0
-2012 -2169 2299 0
-2012 -2170 2300 0
-2012 -2171 2301 0
-2012 -2172 2302 0
-2012 -2173 2303 0
-2012 -2174 2304 0
-2012 -2175 2305 0
-2012 -2176 2306 0
-2012 -2177 2307 0
-2012 -2178 2308 0
-2012 -2179 2309 0
-2012 -2180 2310 0
-2012 -2181 2311 0
-2012 -2182 2312 0
-2012 -2183 2313 0
-2012 -2184 2314 0
-2012 -2185 2315 0
-2012 -2186 2316 0
-2012 -2187 2317 0
-2012 -2188 2318 0
-2012 -2189 2319 0
-2012 -2190 2320 0
-2012 -2191 2321 0
-2012 -2192 2322 0
-2012 -2193 2323 0
-2012 -2194 2324 0
-2012 -2195 2325 0
-2012 -2196 2326 0
-2012 -2197 2327 0
-2012 -2198 2328 0
-2012 -2199 2329 0
-2012 -2200 2330 0
-2012 -2201 2331 0
-2012 -2202 2332 0
-2012 -2203 2333 0
-2012 -2204 2334 0
-2012 -2205 2335 0
-2012 -2206 2336 0
-2012 -2207 2337 0
-2012 -2208 2338 0
-2012 -2209 2339 0
-2012 -2210 2340 0
-2012 -2211 2341 0
-2012 -2212 2342 0
-2012 -2213 2343 0
-2012 -2214 2344 0
-2012 -2215 2345 0
-2012 -2216 2346 0
-2012 -2217 2347 0
-2012 -2218 2348 0
-2012 -2219 2349 0
-2012 -2220 2350 0
-2012 -2221 2351 0
-2012 -2222 2352 0
-2012 -2223 2353 0
-2012 -2224 2354 0
-2012 -2225 2355 0
-2012 -2226 2356 0
-2013 -2099 2230 0
-2013 -2100 2231 0
-2013 -2101 2232 0
-2013 -2102 2233 0
-2013 -2103 2234 0
-2013 -2104 2235 0
-2013 -2105 2236 0
-2013 -2106 2237 0
-2013 -2107 2238 0
-2013 -2108 2239 0
-2013 -2109 2240 0
-2013 -2110 2241 0
-2013 -2111 2242 0
-2013 -2112 2243 0
-2013 -2113 2244 0
-2013 -2114 2245 0
-2013 -2115 2246 0
-2013 -2116 2247 0
-2013 -2117 2248 0
-2013 -2118 2249 0
-2013 -2119 2250 0
-2013 -2120 2251 0
-2013 -2121 2252 0
-2013 -2122 2253 0
-2013 -2123 2254 0
-2013 -2124 2255 0
-2013 -2125 2256 0
-2013 -2126 2257 0
-2013 -2127 2258 0
-2013 -2128 2259 0
-2013 -2129 2260 0
-2013 -2130 2261 0
-2013 -2131 2262 0
-2013 -2132 2263 0
-2013 -2133 2264 0
-2013 -2134 2265 0
-2013 -2135 2266 0
-2013 -2136 2267 0
-2013 -2137 2268 0
-2013 -2138 2269 0
-2013 -2139 2270 0
-2013 -2140 2271 0
-2013 -2141 2272 0
-2013 -2142 2273 0
-2013 -2143 2274 0
-2013 -2144 2275 0
-2013 -2145 2276 0
-2013 -2146 2277 0
-2013 -2147 2278 0
-2013 -2148 2279 0
-2013 -2149 2280 0
-2013 -2150 2281 0
-2013 -2151 2282 0
-2013 -2152 2283 0
-2013 -2153 2284 0
-2013 -2154 2285 0
-2013 -2155 2286 0
-2013 -2156 2287 0
-2013 -2157 2288 0
-2013 -2158 2289 0
-2013 -2159 2290 0
-2013 -2160 2291 0
-2013 -2161 2292 0
-2013 -2162 2293 0
-2013 -2163 2294 0
-2013 -2164 2295 0
-2013 -2165 2296 0
-2013 -2166 2297 0
-2013 -2167 2298 0
-2013 -2168 2299 0
-2013 -2169 2300 0
-2013 -2170 2301 0
-2013 -2171 2302 0
-2013 -2172 2303 0
-2013 -2173 2304 0
-2013 -2174 2305 0
-2013 -2175 2306 0
-2013 -2176 2307 0
-2013 -2177 2308 0
-2013 -2178 2309 0
-2013 -2179 2310 0
-2013 -2180 2311 0
-2013 -2181 2312 0
-2013 -2182 2313 0
-2013 -2183 2314 0
-2013 -2184 2315 0
-2013 -2185 2316 0
-2013 -2186 2317 0
-2013 -2187 2318 0
-2013 -2188 2319 0
-2013 -2189 2320 0
-2013 -2190 2321 0
-2013 -2191 2322 0
-2013 -2192 2323 0
-2013 -2193 2324 0
-2013 -2194 2325 0
-2013 -2195 2326 0
-2013 -2196 2327 0
-2013 -2197 2328 0
-2013 -2198 2329 0
-2013 -2199 2330 0
-2013 -2200 2331 0
-2013 -2201 2332 0
-2013 -2202 2333 0
-2013 -2203 2334 0
-2013 -2204 2335 0
-2013 -2205 2336 0
-2013 -2206 2337 0
-2013 -2207 2338 0
-2013 -2208 2339 0
-2013 -2209 2340 0
-2013 -2210 2341 0
-2013 -2211 2342 0
-2013 -2212 2343 0
-2013 -2213 2344 0
-2013 -2214 2345 0
-2013 -2215 2346 0
-2013 -2216 2347 0
-2013 -2217 2348 0
-2013 -2218 2349 0
-2013 -2219 2350 0
-2013 -2220 2351 0
-2013 -2221 2352 0
-2013 -2222 2353 0
-2013 -2223 2354 0
-2013 -2224 2355 0
-2013 -2225 2356 0
-2013 -2226 2357 0
-2014 -2099 2231 0
-2014 -2100 2232 0
-2014 -2101 2233 0
-2014 -2102 2234 0
-2014 -2103 2235 0
-2014 -2104 2236 0
-2014 -2105 2237 0
-2014 -2106 2238 0
-2014 -2107 2239 0
-2014 -2108 2240 0
-2014 -2109 2241 0
-2014 -2110 2242 0
-2014 -2111 2243 0
-2014 -2112 2244 0
-2014 -2113 2245 0
-2014 -2114 2246 0
-2014 -2115 2247 0
-2014 -2116 2248 0
-2014 -2117 2249 0
-2014 -2118 2250 0
-2014 -2119 2251 0
-2014 -2120 2252 0
-2014 -2121 2253 0
-2014 -2122 2254 0
-2014 -2123 2255 0
-2014 -2124 2256 0
-2014 -2125 2257 0
-2014 -2126 2258 0
-2014 -2127 2259 0
-2014 -2128 2260 0
-2014 -2129 2261 0
-2014 -2130 2262 0
-2014 -2131 2263 0
-2014 -2132 2264 0
-2014 -2133 2265 0
-2014 -2134 2266 0
-2014 -2135 2267 0
-2014 -2136 2268 0
-2014 -2137 2269 0
-2014 -2138 2270 0
-2014 -2139 2271 0
-2014 -2140 2272 0
-2014 -2141 2273 0
-2014 -2142 2274 0
-2014 -2143 2275 0
-2014 -2144 2276 0
-2014 -2145 2277 0
-2014 -2146 2278 0
-2014 -2147 2279 0
-2014 -2148 2280 0
-2014 -2149 2281 0
-2014 -2150 2282 0
-2014 -2151 2283 0
-2014 -2152 2284 0
-2014 -2153 2285 0
-2014 -2154 2286 0
-2014 -2155 2287 0
-2014 -2156 2288 0
-2014 -2157 2289 0
-2014 -2158 2290 0
-2014 -2159 2291 0
-2014 -2160 2292 0
-2014 -2161 2293 0
-2014 -2162 2294 0
-2014 -2163 2295 0
-2014 -2164 2296 0
-2014 -2165 2297 0
-2014 -2166 2298 0
-2014 -2167 2299 0
-2014 -2168 2300 0
-2014 -2169 2301 0
-2014 -2170 2302 0
-2014 -2171 2303 0
-2014 -2172 2304 0
-2014 -2173 2305 0
-2014 -2174 2306 0
-2014 -2175 2307 0
-2014 -2176 2308 0
-2014 -2177 2309 0
-2014 -2178 2310 0
-2014 -2179 2311 0
-2014 -2180 2312 0
-2014 -2181 2313 0
-2014 -2182 2314 0
-2014 -2183 2315 0
-2014 -2184 2316 0
-2014 -2185 2317 0
-2014 -2186 2318 0
-2014 -2187 2319 0
-2014 -2188 2320 0
-2014 -2189 2321 0
-2014 -2190 2322 0
-2014 -2191 2323 0
-2014 -2192 2324 0
-2014 -2193 2325 0
-2014 -2194 2326 0
-2014 -2195 2327 0
-2014 -2196 2328 0
-2014 -2197 2329 0
-2014 -2198 2330 0
-2014 -2199 2331 0
-2014 -2200 2332 0
-2014 -2201 2333 0
-2014 -2202 2334 0
-2014 -2203 2335 0
-2014 -2204 2336 0
-2014 -2205 2337 0
-2014 -2206 2338 0
-2014 -2207 2339 0
-2014 -2208 2340 0
-2014 -2209 2341 0
-2014 -2210 2342 0
-2014 -2211 2343 0
-2014 -2212 2344 0
-2014 -2213 2345 0
-2014 -2214 2346 0
-2014 -2215 2347 0
-2014 -2216 2348 0
-2014 -2217 2349 0
-2014 -2218 2350 0
-2014 -2219 2351 0
-2014 -2220 2352 0
-2014 -2221 2353 0
-2014 -2222 2354 0
-2014 -2223 2355 0
-2014 -2224 2356 0
-2014 -2225 2357 0
-2014 -2226 2358 0
-2015 -2099 2232 0
-2015 -2100 2233 0
-2015 -2101 2234 0
-2015 -2102 2235 0
-2015 -2103 2236 0
-2015 -2104 2237 0
-2015 -2105 2238 0
-2015 -2106 2239 0
-2015 -2107 2240 0
-2015 -2108 2241 0
-2015 -2109 2242 0
-2015 -2110 2243 0
-2015 -2111 2244 0
-2015 -2112 2245 0
-2015 -2113 2246 0
-2015 -2114 2247 0
-2015 -2115 2248 0
-2015 -2116 2249 0
-2015 -2117 2250 0
-2015 -2118 2251 0
-2015 -2119 2252 0
-2015 -2120 2253 0
-2015 -2121 2254 0
-2015 -2122 2255 0
-2015 -2123 2256 0
-2015 -2124 2257 0
-2015 -2125 2258 0
-2015 -2126 2259 0
-2015 -2127 2260 0
-2015 -2128 2261 0
-2015 -2129 2262 0
-2015 -2130 2263 0
-2015 -2131 2264 0
-2015 -2132 2265 0
-2015 -2133 2266 0
-2015 -2134 2267 0
-2015 -2135 2268 0
-2015 -2136 2269 0
-2015 -2137 2270 0
-2015 -2138 2271 0
-2015 -2139 2272 0
-2015 -2140 2273 0
-2015 -2141 2274 0
-2015 -2142 2275 0
-2015 -2143 2276 0
-2015 -2144 2277 0
-2015 -2145 2278 0
-2015 -2146 2279 0
-2015 -2147 2280 0
-2015 -2148 2281 0
-2015 -2149 2282 0
-2015 -2150 2283 0
-2015 -2151 2284 0
-2015 -2152 2285 0
-2015 -2153 2286 0
-2015 -2154 2287 0
-2015 -2155 2288 0
-2015 -2156 2289 0
-2015 -2157 2290 0
-2015 -2158 2291 0
-2015 -2159 2292 0
-2015 -2160 2293 0
-2015 -2161 2294 0
-2015 -2162 2295 0
-2015 -2163 2296 0
-2015 -2164 2297 0
-2015 -2165 2298 0
-2015 -2166 2299 0
-2015 -2167 2300 0
-2015 -2168 2301 0
-2015 -2169 2302 0
-2015 -2170 2303 0
-2015 -2171 2304 0
-2015 -2172 2305 0
-2015 -2173 2306 0
-2015 -2174 2307 0
-2015 -2175 2308 0
-2015 -2176 2309 0
-2015 -2177 2310 0
-2015 -2178 2311 0
-2015 -2179 2312 0
-2015 -2180 2313 0
-2015 -2181 2314 0
-2015 -2182 2315 0
-2015 -2183 2316 0
-2015 -2184 2317 0
-2015 -2185 2318 0
-2015 -2186 2319 0
-2015 -2187 2320 0
-2015 -2188 2321 0
-2015 -2189 2322 0
-2015 -2190 2323 0
-2015 -2191 2324 0
-2015 -2192 2325 0
-2015 -2193 2326 0
-2015 -2194 2327 0
-2015 -2195 2328 0
-2015 -2196 2329 0
-2015 -2197 2330 0
-2015 -2198 2331 0
-2015 -2199 2332 0
-2015 -2200 2333 0
-2015 -2201 2334 0
-2015 -2202 2335 0
-2015 -2203 2336 0
-2015 -2204 2337 0
-2015 -2205 2338 0
-2015 -2206 2339 0
-2015 -2207 2340 0
-2015 -2208 2341 0
-2015 -2209 2342 0
-2015 -2210 2343 0
-2015 -2211 2344 0
-2015 -2212 2345 0
-2015 -2213 2346 0
-2015 -2214 2347 0
-2015 -2215 2348 0
-2015 -2216 2349 0
-2015 -2217 2350 0
-2015 -2218 2351 0
-2015 -2219 2352 0
-2015 -2220 2353 0
-2015 -2221 2354 0
-2015 -2222 2355 0
-2015 -2223 2356 0
-2015 -2224 2357 0
-2015 -2225 2358 0
-2015 -2226 2359 0
-2016 -2099 2233 0
-2016 -2100 2234 0
-2016 -2101 2235 0
-2016 -2102 2236 0
-2016 -2103 2237 0
-2016 -2104 2238 0
-2016 -2105 2239 0
-2016 -2106 2240 0
-2016 -2107 2241 0
-2016 -2108 2242 0
-2016 -2109 2243 0
-2016 -2110 2244 0
-2016 -2111 2245 0
-2016 -2112 2246 0
-2016 -2113 2247 0
-2016 -2114 2248 0
-2016 -2115 2249 0
-2016 -2116 2250 0
-2016 -2117 2251 0
-2016 -2118 2252 0
-2016 -2119 2253 0
-2016 -2120 2254 0
-2016 -2121 2255 0
-2016 -2122 2256 0
-2016 -2123 2257 0
-2016 -2124 2258 0
-2016 -2125 2259 0
-2016 -2126 2260 0
-2016 -2127 2261 0
-2016 -2128 2262 0
-2016 -2129 2263 0
-2016 -2130 2264 0
-2016 -2131 2265 0
-2016 -2132 2266 0
-2016 -2133 2267 0
-2016 -2134 2268 0
-2016 -2135 2269 0
-2016 -2136 2270 0
-2016 -2137 2271 0
-2016 -2138 2272 0
-2016 -2139 2273 0
-2016 -2140 2274 0
-2016 -2141 2275 0
-2016 -2142 2276 0
-2016 -2143 2277 0
-2016 -2144 2278 0
-2016 -2145 2279 0
-2016 -2146 2280 0
-2016 -2147 2281 0
-2016 -2148 2282 0
-2016 -2149 2283 0
-2016 -2150 2284 0
-2016 -2151 2285 0
-2016 -2152 2286 0
-2016 -2153 2287 0
-2016 -2154 2288 0
-2016 -2155 2289 0
-2016 -2156 2290 0
-2016 -2157 2291 0
-2016 -2158 2292 0
-2016 -2159 2293 0
-2016 -2160 2294 0
-2016 -2161 2295 0
-2016 -2162 2296 0
-2016 -2163 2297 0
-2016 -2164 2298 0
-2016 -2165 2299 0
-2016 -2166 2300 0
-2016 -2167 2301 0
-2016 -2168 2302 0
-2016 -2169 2303 0
-2016 -2170 2304 0
-2016 -2171 2305 0
-2016 -2172 2306 0
-2016 -2173 2307 0
-2016 -2174 2308 0
-2016 -2175 2309 0
-2016 -2176 2310 0
-2016 -2177 2311 0
-2016 -2178 2312 0
-2016 -2179 2313 0
-2016 -2180 2314 0
-2016 -2181 2315 0
-2016 -2182 2316 0
-2016 -2183 2317 0
-2016 -2184 2318 0
-2016 -2185 2319 0
-2016 -2186 2320 0
-2016 -2187 2321 0
-2016 -2188 2322 0
-2016 -2189 2323 0
-2016 -2190 2324 0
-2016 -2191 2325 0
-2016 -2192 2326 0
-2016 -2193 2327 0
-2016 -2194 2328 0
-2016 -2195 2329 0
-2016 -2196 2330 0
-2016 -2197 2331 0
-2016 -2198 2332 0
-2016 -2199 2333 0
-2016 -2200 2334 0
-2016 -2201 2335 0
-2016 -2202 2336 0
-2016 -2203 2337 0
-2016 -2204 2338 0
-2016 -2205 2339 0
-2016 -2206 2340 0
-2016 -2207 2341 0
-2016 -2208 2342 0
-2016 -2209 2343 0
-2016 -2210 2344 0
-2016 -2211 2345 0
-2016 -2212 2346 0
-2016 -2213 2347 0
-2016 -2214 2348 0
-2016 -2215 2349 0
-2016 -2216 2350 0
-2016 -2217 2351 0
-2016 -2218 2352 0
-2016 -2219 2353 0
-2016 -2220 2354 0
-2016 -2221 2355 0
-2016 -2222 2356 0
-2016 -2223 2357 0
-2016 -2224 2358 0
-2016 -2225 2359 0
-2016 -2226 2360 0
-2017 -2099 2234 0
-2017 -2100 2235 0
-2017 -2101 2236 0
-2017 -2102 2237 0
-2017 -2103 2238 0
-2017 -2104 2239 0
-2017 -2105 2240 0
-2017 -2106 2241 0
-2017 -2107 2242 0
-2017 -2108 2243 0
-2017 -2109 2244 0
-2017 -2110 2245 0
-2017 -2111 2246 0
-2017 -2112 2247 0
-2017 -2113 2248 0
-2017 -2114 2249 0
-2017 -2115 2250 0
-2017 -2116 2251 0
-2017 -2117 2252 0
-2017 -2118 2253 0
-2017 -2119 2254 0
-2017 -2120 2255 0
-2017 -2121 2256 0
-2017 -2122 2257 0
-2017 -2123 2258 0
-2017 -2124 2259 0
-2017 -2125 2260 0
-2017 -2126 2261 0
-2017 -2127 2262 0
-2017 -2128 2263 0
-2017 -2129 2264 0
-2017 -2130 2265 0
-2017 -2131 2266 0
-2017 -2132 2267 0
-2017 -2133 2268 0
-2017 -2134 2269 0
-2017 -2135 2270 0
-2017 -2136 2271 0
-2017 -2137 2272 0
-2017 -2138 2273 0
-2017 -2139 2274 0
-2017 -2140 2275 0
-2017 -2141 2276 0
-2017 -2142 2277 0
-2017 -2143 2278 0
-2017 -2144 2279 0
-2017 -2145 2280 0
-2017 -2146 2281 0
-2017 -2147 2282 0
-2017 -2148 2283 0
-2017 -2149 2284 0
-2017 -2150 2285 0
-2017 -2151 2286 0
-2017 -2152 2287 0
-2017 -2153 2288 0
-2017 -2154 2289 0
-2017 -2155 2290 0
-2017 -2156 2291 0
-2017 -2157 2292 0
-2017 -2158 2293 0
-2017 -2159 2294 0
-2017 -2160 2295 0
-2017 -2161 2296 0
-2017 -2162 2297 0
-2017 -2163 2298 0
-2017 -2164 2299 0
-2017 -2165 2300 0
-2017 -2166 2301 0
-2017 -2167 2302 0
-2017 -2168 2303 0
-2017 -2169 2304 0
-2017 -2170 2305 0
-2017 -2171 2306 0
-2017 -2172 2307 0
-2017 -2173 2308 0
-2017 -2174 2309 0
-2017 -2175 2310 0
-2017 -2176 2311 0
-2017 -2177 2312 0
-2017 -2178 2313 0
-2017 -2179 2314 0
-2017 -2180 2315 0
-2017 -2181 2316 0
-2017 -2182 2317 0
-2017 -2183 2318 0
-2017 -2184 2319 0
-2017 -2185 2320 0
-2017 -2186 2321 0
-2017 -2187 2322 0
-2017 -2188 2323 0
-2017 -2189 2324 0
-2017 -2190 2325 0
-2017 -2191 2326 0
-2017 -2192 2327 0
-2017 -2193 2328 0
-2017 -2194 2329 0
-2017 -2195 2330 0
-2017 -2196 2331 0
-2017 -2197 2332 0
-2017 -2198 2333 0
-2017 -2199 2334 0
-2017 -2200 2335 0
-2017 -2201 2336 0
-2017 -2202 2337 0
-2017 -2203 2338 0
-2017 -2204 2339 0
-2017 -2205 2340 0
-2017 -2206 2341 0
-2017 -2207 2342 0
-2017 -2208 2343 0
-2017 -2209 2344 0
-2017 -2210 2345 0
-2017 -2211 2346 0
-2017 -2212 2347 0
-2017 -2213 2348 0
-2017 -2214 2349 0
-2017 -2215 2350 0
-2017 -2216 2351 0
-2017 -2217 2352 0
-2017 -2218 2353 0
-2017 -2219 2354 0
-2017 -2220 2355 0
-2017 -2221 2356 0
-2017 -2222 2357 0
-2017 -2223 2358 0
-2017 -2224 2359 0
-2017 -2225 2360 0
-2017 -2226 2361 0
-2018 -2099 2235 0
-2018 -2100 2236 0
-2018 -2101 2237 0
-2018 -2102 2238 0
-2018 -2103 2239 0
-2018 -2104 2240 0
-2018 -2105 2241 0
-2018 -2106 2242 0
-2018 -2107 2243 0
-2018 -2108 2244 0
-2018 -2109 2245 0
-2018 -2110 2246 0
-2018 -2111 2247 0
-2018 -2112 2248 0
-2018 -2113 2249 0
-2018 -2114 2250 0
-2018 -2115 2251 0
-2018 -2116 2252 0
-2018 -2117 2253 0
-2018 -2118 2254 0
-2018 -2119 2255 0
-2018 -2120 2256 0
-2018 -2121 2257 0
-2018 -2122 2258 0
-2018 -2123 2259 0
-2018 -2124 2260 0
-2018 -2125 2261 0
-2018 -2126 2262 0
-2018 -2127 2263 0
-2018 -2128 2264 0
-2018 -2129 2265 0
-2018 -2130 2266 0
-2018 -2131 2267 0
-2018 -2132 2268 0
-2018 -2133 2269 0
-2018 -2134 2270 0
-2018 -2135 2271 0
-2018 -2136 2272 0
-2018 -2137 2273 0
-2018 -2138 2274 0
-2018 -2139 2275 0
-2018 -2140 2276 0
-2018 -2141 2277 0
-2018 -2142 2278 0
-2018 -2143 2279 0
-2018 -2144 2280 0
-2018 -2145 2281 0
-2018 -2146 2282 0
-2018 -2147 2283 0
-2018 -2148 2284 0
-2018 -2149 2285 0
-2018 -2150 2286 0
-2018 -2151 2287 0
-2018 -2152 2288 0
-2018 -2153 2289 0
-2018 -2154 2290 0
-2018 -2155 2291 0
-2018 -2156 2292 0
-2018 -2157 2293 0
-2018 -2158 2294 0
-2018 -2159 2295 0
-2018 -2160 2296 0
-2018 -2161 2297 0
-2018 -2162 2298 0
-2018 -2163 2299 0
-2018 -2164 2300 0
-2018 -2165 2301 0
-2018 -2166 2302 0
-2018 -2167 2303 0
-2018 -2168 2304 0
-2018 -2169 2305 0
-2018 -2170 2306 0
-2018 -2171 2307 0
-2018 -2172 2308 0
-2018 -2173 2309 0
-2018 -2174 2310 0
-2018 -2175 2311 0
-2018 -2176 2312 0
-2018 -2177 2313 0
-2018 -2178 2314 0
-2018 -2179 2315 0
-2018 -2180 2316 0
-2018 -2181 2317 0
-2018 -2182 2318 0
-2018 -2183 2319 0
-2018 -2184 2320 0
-2018 -2185 2321 0
-2018 -2186 2322 0
-2018 -2187 2323 0
-2018 -2188 2324 0
-2018 -2189 2325 0
-2018 -2190 2326 0
-2018 -2191 2327 0
-2018 -2192 2328 0
-2018 -2193 2329 0
-2018 -2194 2330 0
-2018 -2195 2331 0
-2018 -2196 2332 0
-2018 -2197 2333 0
-2018 -2198 2334 0
-2018 -2199 2335 0
-2018 -2200 2336 0
-2018 -2201 2337 0
-2018 -2202 2338 0
-2018 -2203 2339 0
-2018 -2204 2340 0
-2018 -2205 2341 0
-2018 -2206 2342 0
-2018 -2207 2343 0
-2018 -2208 2344 0
-2018 -2209 2345 0
-2018 -2210 2346 0
-2018 -2211 2347 0
-2018 -2212 2348 0
-2018 -2213 2349 0
-2018 -2214 2350 0
-2018 -2215 2351 0
-2018 -2216 2352 0
-2018 -2217 2353 0
-2018 -2218 2354 0
-2018 -2219 2355 0
-2018 -2220 2356 0
-2018 -2221 2357 0
-2018 -2222 2358 0
-2018 -2223 2359 0
-2018 -2224 2360 0
-2018 -2225 2361 0
-2018 -2226 2362 0
-2019 -2099 2236 0
-2019 -2100 2237 0
-2019 -2101 2238 0
-2019 -2102 2239 0
-2019 -2103 2240 0
-2019 -2104 2241 0
-2019 -2105 2242 0
-2019 -2106 2243 0
-2019 -2107 2244 0
-2019 -2108 2245 0
-2019 -2109 2246 0
-2019 -2110 2247 0
-2019 -2111 2248 0
-2019 -2112 2249 0
-2019 -2113 2250 0
-2019 -2114 2251 0
-2019 -2115 2252 0
-2019 -2116 2253 0
-2019 -2117 2254 0
-2019 -2118 2255 0
-2019 -2119 2256 0
-2019 -2120 2257 0
-2019 -2121 2258 0
-2019 -2122 2259 0
-2019 -2123 2260 0
-2019 -2124 2261 0
-2019 -2125 2262 0
-2019 -2126 2263 0
-2019 -2127 2264 0
-2019 -2128 2265 0
-2019 -2129 2266 0
-2019 -2130 2267 0
-2019 -2131 2268 0
-2019 -2132 2269 0
-2019 -2133 2270 0
-2019 -2134 2271 0
-2019 -2135 2272 0
-2019 -2136 2273 0
-2019 -2137 2274 0
-2019 -2138 2275 0
-2019 -2139 2276 0
-2019 -2140 2277 0
-2019 -2141 2278 0
-2019 -2142 2279 0
-2019 -2143 2280 0
-2019 -2144 2281 0
-2019 -2145 2282 0
-2019 -2146 2283 0
-2019 -2147 2284 0
-2019 -2148 2285 0
-2019 -2149 2286 0
-2019 -2150 2287 0
-2019 -2151 2288 0
-2019 -2152 2289 0
-2019 -2153 2290 0
-2019 -2154 2291 0
-2019 -2155 2292 0
-2019 -2156 2293 0
-2019 -2157 2294 0
-2019 -2158 2295 0
-2019 -2159 2296 0
-2019 -2160 2297 0
-2019 -2161 2298 0
-2019 -2162 2299 0
-2019 -2163 2300 0
-2019 -2164 2301 0
-2019 -2165 2302 0
-2019 -2166 2303 0
-2019 -2167 2304 0
-2019 -2168 2305 0
-2019 -2169 2306 0
-2019 -2170 2307 0
-2019 -2171 2308 0
-2019 -2172 2309 0
-2019 -2173 2310 0
-2019 -2174 2311 0
-2019 -2175 2312 0
-2019 -2176 2313 0
-2019 -2177 2314 0
-2019 -2178 2315 0
-2019 -2179 2316 0
-2019 -2180 2317 0
-2019 -2181 2318 0
-2019 -2182 2319 0
-2019 -2183 2320 0
-2019 -2184 2321 0
-2019 -2185 2322 0
-2019 -2186 2323 0
-2019 -2187 2324 0
-2019 -2188 2325 0
-2019 -2189 2326 0
-2019 -2190 2327 0
-2019 -2191 2328 0
-2019 -2192 2329 0
-2019 -2193 2330 0
-2019 -2194 2331 0
-2019 -2195 2332 0
-2019 -2196 2333 0
-2019 -2197 2334 0
-2019 -2198 2335 0
-2019 -2199 2336 0
-2019 -2200 2337 0
-2019 -2201 2338 0
-2019 -2202 2339 0
-2019 -2203 2340 0
-2019 -2204 2341 0
-2019 -2205 2342 0
-2019 -2206 2343 0
-2019 -2207 2344 0
-2019 -2208 2345 0
-2019 -2209 2346 0
-2019 -2210 2347 0
-2019 -2211 2348 0
-2019 -2212 2349 0
-2019 -2213 2350 0
-2019 -2214 2351 0
-2019 -2215 2352 0
-2019 -2216 2353 0
-2019 -2217 2354 0
-2019 -2218 2355 0
-2019 -2219 2356 0
-2019 -2220 2357 0
-2019 -2221 2358 0
-2019 -2222 2359 0
-2019 -2223 2360 0
-2019 -2224 2361 0
-2019 -2225 2362 0
-2019 -2226 2363 0
-2020 -2099 2237 0
-2020 -2100 2238 0
-2020 -2101 2239 0
-2020 -2102 2240 0
-2020 -2103 2241 0
-2020 -2104 2242 0
-2020 -2105 2243 0
-2020 -2106 2244 0
-2020 -2107 2245 0
-2020 -2108 2246 0
-2020 -2109 2247 0
-2020 -2110 2248 0
-2020 -2111 2249 0
-2020 -2112 2250 0
-2020 -2113 2251 0
-2020 -2114 2252 0
-2020 -2115 2253 0
-2020 -2116 2254 0
-2020 -2117 2255 0
-2020 -2118 2256 0
-2020 -2119 2257 0
-2020 -2120 2258 0
-2020 -2121 2259 0
-2020 -2122 2260 0
-2020 -2123 2261 0
-2020 -2124 2262 0
-2020 -2125 2263 0
-2020 -2126 2264 0
-2020 -2127 2265 0
-2020 -2128 2266 0
-2020 -2129 2267 0
-2020 -2130 2268 0
-2020 -2131 2269 0
-2020 -2132 2270 0
-2020 -2133 2271 0
-2020 -2134 2272 0
-2020 -2135 2273 0
-2020 -2136 2274 0
-2020 -2137 2275 0
-2020 -2138 2276 0
-2020 -2139 2277 0
-2020 -2140 2278 0
-2020 -2141 2279 0
-2020 -2142 2280 0
-2020 -2143 2281 0
-2020 -2144 2282 0
-2020 -2145 2283 0
-2020 -2146 2284 0
-2020 -2147 2285 0
-2020 -2148 2286 0
-2020 -2149 2287 0
-2020 -2150 2288 0
-2020 -2151 2289 0
-2020 -2152 2290 0
-2020 -2153 2291 0
-2020 -2154 2292 0
-2020 -2155 2293 0
-2020 -2156 2294 0
-2020 -2157 2295 0
-2020 -2158 2296 0
-2020 -2159 2297 0
-2020 -2160 2298 0
-2020 -2161 2299 0
-2020 -2162 2300 0
-2020 -2163 2301 0
-2020 -2164 2302 0
-2020 -2165 2303 0
-2020 -2166 2304 0
-2020 -2167 2305 0
-2020 -2168 2306 0
-2020 -2169 2307 0
-2020 -2170 2308 0
-2020 -2171 2309 0
-2020 -2172 2310 0
-2020 -2173 2311 0
-2020 -2174 2312 0
-2020 -2175 2313 0
-2020 -2176 2314 0
-2020 -2177 2315 0
-2020 -2178 2316 0
-2020 -2179 2317 0
-2020 -2180 2318 0
-2020 -2181 2319 0
-2020 -2182 2320 0
-2020 -2183 2321 0
-2020 -2184 2322 0
-2020 -2185 2323 0
-2020 -2186 2324 0
-2020 -2187 2325 0
-2020 -2188 2326 0
-2020 -2189 2327 0
-2020 -2190 2328 0
-2020 -2191 2329 0
-2020 -2192 2330 0
-2020 -2193 2331 0
-2020 -2194 2332 0
-2020 -2195 2333 0
-2020 -2196 2334 0
-2020 -2197 2335 0
-2020 -2198 2336 0
-2020 -2199 2337 0
-2020 -2200 2338 0
-2020 -2201 2339 0
-2020 -2202 2340 0
-2020 -2203 2341 0
-2020 -2204 2342 0
-2020 -2205 2343 0
-2020 -2206 2344 0
-2020 -2207 2345 0
-2020 -2208 2346 0
-2020 -2209 2347 0
-2020 -2210 2348 0
-2020 -2211 2349 0
-2020 -2212 2350 0
-2020 -2213 2351 0
-2020 -2214 2352 0
-2020 -2215 2353 0
-2020 -2216 2354 0
-2020 -2217 2355 0
-2020 -2218 2356 0
-2020 -2219 2357 0
-2020 -2220 2358 0
-2020 -2221 2359 0
-2020 -2222 2360 0
-2020 -2223 2361 0
-2020 -2224 2362 0
-2020 -2225 2363 0
-2020 -2226 2364 0
-2021 -2099 2238 0
-2021 -2100 2239 0
-2021 -2101 2240 0
-2021 -2102 2241 0
-2021 -2103 2242 0
-2021 -2104 2243 0
-2021 -2105 2244 0
-2021 -2106 2245 0
-2021 -2107 2246 0
-2021 -2108 2247 0
-2021 -2109 2248 0
-2021 -2110 2249 0
-2021 -2111 2250 0
-2021 -2112 2251 0
-2021 -2113 2252 0
-2021 -2114 2253 0
-2021 -2115 2254 0
-2021 -2116 2255 0
-2021 -2117 2256 0
-2021 -2118 2257 0
-2021 -2119 2258 0
-2021 -2120 2259 0
-2021 -2121 2260 0
-2021 -2122 2261 0
-2021 -2123 2262 0
-2021 -2124 2263 0
-2021 -2125 2264 0
-2021 -2126 2265 0
-2021 -2127 2266 0
-2021 -2128 2267 0
-2021 -2129 2268 0
-2021 -2130 2269 0
-2021 -2131 2270 0
-2021 -2132 2271 0
-2021 -2133 2272 0
-2021 -2134 2273 0
-2021 -2135 2274 0
-2021 -2136 2275 0
-2021 -2137 2276 0
-2021 -2138 2277 0
-2021 -2139 2278 0
-2021 -2140 2279 0
-2021 -2141 2280 0
-2021 -2142 2281 0
-2021 -2143 2282 0
-2021 -2144 2283 0
-2021 -2145 2284 0
-2021 -2146 2285 0
-2021 -2147 2286 0
-2021 -2148 2287 0
-2021 -2149 2288 0
-2021 -2150 2289 0
-2021 -2151 2290 0
-2021 -2152 2291 0
-2021 -2153 2292 0
-2021 -2154 2293 0
-2021 -2155 2294 0
-2021 -2156 2295 0
-2021 -2157 2296 0
-2021 -2158 2297 0
-2021 -2159 2298 0
-2021 -2160 2299 0
-2021 -2161 2300 0
-2021 -2162 2301 0
-2021 -2163 2302 0
-2021 -2164 2303 0
-2021 -2165 2304 0
-2021 -2166 2305 0
-2021 -2167 2306 0
-2021 -2168 2307 0
-2021 -2169 2308 0
-2021 -2170 2309 0
-2021 -2171 2310 0
-2021 -2172 2311 0
-2021 -2173 2312 0
-2021 -2174 2313 0
-2021 -2175 2314 0
-2021 -2176 2315 0
-2021 -2177 2316 0
-2021 -2178 2317 0
-2021 -2179 2318 0
-2021 -2180 2319 0
-2021 -2181 2320 0
-2021 -2182 2321 0
-2021 -2183 2322 0
-2021 -2184 2323 0
-2021 -2185 2324 0
-2021 -2186 2325 0
-2021 -2187 2326 0
-2021 -2188 2327 0
-2021 -2189 2328 0
-2021 -2190 2329 0
-2021 -2191 2330 0
-2021 -2192 2331 0
-2021 -2193 2332 0
-2021 -2194 2333 0
-2021 -2195 2334 0
-2021 -2196 2335 0
-2021 -2197 2336 0
-2021 -2198 2337 0
-2021 -2199 2338 0
-2021 -2200 2339 0
-2021 -2201 2340 0
-2021 -2202 2341 0
-2021 -2203 2342 0
-2021 -2204 2343 0
-2021 -2205 2344 0
-2021 -2206 2345 0
-2021 -2207 2346 0
-2021 -2208 2347 0
-2021 -2209 2348 0
-2021 -2210 2349 0
-2021 -2211 2350 0
-2021 -2212 2351 0
-2021 -2213 2352 0
-2021 -2214 2353 0
-2021 -2215 2354 0
-2021 -2216 2355 0
-2021 -2217 2356 0
-2021 -2218 2357 0
-2021 -2219 2358 0
-2021 -2220 2359 0
-2021 -2221 2360 0
-2021 -2222 2361 0
-2021 -2223 2362 0
-2021 -2224 2363 0
-2021 -2225 2364 0
-2021 -2226 2365 0
-2022 -2099 2239 0
-2022 -2100 2240 0
-2022 -2101 2241 0
-2022 -2102 2242 0
-2022 -2103 2243 0
-2022 -2104 2244 0
-2022 -2105 2245 0
-2022 -2106 2246 0
-2022 -2107 2247 0
-2022 -2108 2248 0
-2022 -2109 2249 0
-2022 -2110 2250 0
-2022 -2111 2251 0
-2022 -2112 2252 0
-2022 -2113 2253 0
-2022 -2114 2254 0
-2022 -2115 2255 0
-2022 -2116 2256 0
-2022 -2117 2257 0
-2022 -2118 2258 0
-2022 -2119 2259 0
-2022 -2120 2260 0
-2022 -2121 2261 0
-2022 -2122 2262 0
-2022 -2123 2263 0
-2022 -2124 2264 0
-2022 -2125 2265 0
-2022 -2126 2266 0
-2022 -2127 2267 0
-2022 -2128 2268 0
-2022 -2129 2269 0
-2022 -2130 2270 0
-2022 -2131 2271 0
-2022 -2132 2272 0
-2022 -2133 2273 0
-2022 -2134 2274 0
-2022 -2135 2275 0
-2022 -2136 2276 0
-2022 -2137 2277 0
-2022 -2138 2278 0
-2022 -2139 2279 0
-2022 -2140 2280 0
-2022 -2141 2281 0
-2022 -2142 2282 0
-2022 -2143 2283 0
-2022 -2144 2284 0
-2022 -2145 2285 0
-2022 -2146 2286 0
-2022 -2147 2287 0
-2022 -2148 2288 0
-2022 -2149 2289 0
-2022 -2150 2290 0
-2022 -2151 2291 0
-2022 -2152 2292 0
-2022 -2153 2293 0
-2022 -2154 2294 0
-2022 -2155 2295 0
-2022 -2156 2296 0
-2022 -2157 2297 0
-2022 -2158 2298 0
-2022 -2159 2299 0
-2022 -2160 2300 0
-2022 -2161 2301 0
-2022 -2162 2302 0
-2022 -2163 2303 0
-2022 -2164 2304 0
-2022 -2165 2305 0
-2022 -2166 2306 0
-2022 -2167 2307 0
-2022 -2168 2308 0
-2022 -2169 2309 0
-2022 -2170 2310 0
-2022 -2171 2311 0
-2022 -2172 2312 0
-2022 -2173 2313 0
-2022 -2174 2314 0
-2022 -2175 2315 0
-2022 -2176 2316 0
-2022 -2177 2317 0
-2022 -2178 2318 0
-2022 -2179 2319 0
-2022 -2180 2320 0
-2022 -2181 2321 0
-2022 -2182 2322 0
-2022 -2183 2323 0
-2022 -2184 2324 0
-2022 -2185 2325 0
-2022 -2186 2326 0
-2022 -2187 2327 0
-2022 -2188 2328 0
-2022 -2189 2329 0
-2022 -2190 2330 0
-2022 -2191 2331 0
-2022 -2192 2332 0
-2022 -2193 2333 0
-2022 -2194 2334 0
-2022 -2195 2335 0
-2022 -2196 2336 0
-2022 -2197 2337 0
-2022 -2198 2338 0
-2022 -2199 2339 0
-2022 -2200 2340 0
-2022 -2201 2341 0
-2022 -2202 2342 0
-2022 -2203 2343 0
-2022 -2204 2344 0
-2022 -2205 2345 0
-2022 -2206 2346 0
-2022 -2207 2347 0
-2022 -2208 2348 0
-2022 -2209 2349 0
-2022 -2210 2350 0
-2022 -2211 2351 0
-2022 -2212 2352 0
-2022 -2213 2353 0
-2022 -2214 2354 0
-2022 -2215 2355 0
-2022 -2216 2356 0
-2022 -2217 2357 0
-2022 -2218 2358 0
-2022 -2219 2359 0
-2022 -2220 2360 0
-2022 -2221 2361 0
-2022 -2222 2362 0
-2022 -2223 2363 0
-2022 -2224 2364 0
-2022 -2225 2365 0
-2023 -2099 2240 0
-2023 -2100 2241 0
-2023 -2101 2242 0
-2023 -2102 2243 0
-2023 -2103 2244 0
-2023 -2104 2245 0
-2023 -2105 2246 0
-2023 -2106 2247 0
-2023 -2107 2248 0
-2023 -2108 2249 0
-2023 -2109 2250 0
-2023 -2110 2251 0
-2023 -2111 2252 0
-2023 -2112 2253 0
-2023 -2113 2254 0
-2023 -2114 2255 0
-2023 -2115 2256 0
-2023 -2116 2257 0
-2023 -2117 2258 0
-2023 -2118 2259 0
-2023 -2119 2260 0
-2023 -2120 2261 0
-2023 -2121 2262 0
-2023 -2122 2263 0
-2023 -2123 2264 0
-2023 -2124 2265 0
-2023 -2125 2266 0
-2023 -2126 2267 0
-2023 -2127 2268 0
-2023 -2128 2269 0
-2023 -2129 2270 0
-2023 -2130 2271 0
-2023 -2131 2272 0
-2023 -2132 2273 0
-2023 -2133 2274 0
-2023 -2134 2275 0
-2023 -2135 2276 0
-2023 -2136 2277 0
-2023 -2137 2278 0
-2023 -2138 2279 0
-2023 -2139 2280 0
-2023 -2140 2281 0
-2023 -2141 2282 0
-2023 -2142 2283 0
-2023 -2143 2284 0
-2023 -2144 2285 0
-2023 -2145 2286 0
-2023 -2146 2287 0
-2023 -2147 2288 0
-2023 -2148 2289 0
-2023 -2149 2290 0
-2023 -2150 2291 0
-2023 -2151 2292 0
-2023 -2152 2293 0
-2023 -2153 2294 0
-2023 -2154 2295 0
-2023 -2155 2296 0
-2023 -2156 2297 0
-2023 -2157 2298 0
-2023 -2158 2299 0
-2023 -2159 2300 0
-2023 -2160 2301 0
-2023 -2161 2302 0
-2023 -2162 2303 0
-2023 -2163 2304 0
-2023 -2164 2305 0
-2023 -2165 2306 0
-2023 -2166 2307 0
-2023 -2167 2308 0
-2023 -2168 2309 0
-2023 -2169 2310 0
-2023 -2170 2311 0
-2023 -2171 2312 0
-2023 -2172 2313 0
-2023 -2173 2314 0
-2023 -2174 2315 0
-2023 -2175 2316 0
-2023 -2176 2317 0
-2023 -2177 2318 0
-2023 -2178 2319 0
-2023 -2179 2320 0
-2023 -2180 2321 0
-2023 -2181 2322 0
-2023 -2182 2323 0
-2023 -2183 2324 0
-2023 -2184 2325 0
-2023 -2185 2326 0
-2023 -2186 2327 0
-2023 -2187 2328 0
-2023 -2188 2329 0
-2023 -2189 2330 0
-2023 -2190 2331 0
-2023 -2191 2332 0
-2023 -2192 2333 0
-2023 -2193 2334 0
-2023 -2194 2335 0
-2023 -2195 2336 0
-2023 -2196 2337 0
-2023 -2197 2338 0
-2023 -2198 2339 0
-2023 -2199 2340 0
-2023 -2200 2341 0
-2023 -2201 2342 0
-2023 -2202 2343 0
-2023 -2203 2344 0
-2023 -2204 2345 0
-2023 -2205 2346 0
-2023 -2206 2347 0
-2023 -2207 2348 0
-2023 -2208 2349 0
-2023 -2209 2350 0
-2023 -2210 2351 0
-2023 -2211 2352 0
-2023 -2212 2353 0
-2023 -2213 2354 0
-2023 -2214 2355 0
-2023 -2215 2356 0
-2023 -2216 2357 0
-2023 -2217 2358 0
-2023 -2218 2359 0
-2023 -2219 2360 0
-2023 -2220 2361 0
-2023 -2221 2362 0
-2023 -2222 2363 0
-2023 -2223 2364 0
-2023 -2224 2365 0
-2024 -2099 2241 0
-2024 -2100 2242 0
-2024 -2101 2243 0
-2024 -2102 2244 0
-2024 -2103 2245 0
-2024 -2104 2246 0
-2024 -2105 2247 0
-2024 -2106 2248 0
-2024 -2107 2249 0
-2024 -2108 2250 0
-2024 -2109 2251 0
-2024 -2110 2252 0
-2024 -2111 2253 0
-2024 -2112 2254 0
-2024 -2113 2255 0
-2024 -2114 2256 0
-2024 -2115 2257 0
-2024 -2116 2258 0
-2024 -2117 2259 0
-2024 -2118 2260 0
-2024 -2119 2261 0
-2024 -2120 2262 0
-2024 -2121 2263 0
-2024 -2122 2264 0
-2024 -2123 2265 0
-2024 -2124 2266 0
-2024 -2125 2267 0
-2024 -2126 2268 0
-2024 -2127 2269 0
-2024 -2128 2270 0
-2024 -2129 2271 0
-2024 -2130 2272 0
-2024 -2131 2273 0
-2024 -2132 2274 0
-2024 -2133 2275 0
-2024 -2134 2276 0
-2024 -2135 2277 0
-2024 -2136 2278 0
-2024 -2137 2279 0
-2024 -2138 2280 0
-2024 -2139 2281 0
-2024 -2140 2282 0
-2024 -2141 2283 0
-2024 -2142 2284 0
-2024 -2143 2285 0
-2024 -2144 2286 0
-2024 -2145 2287 0
-2024 -2146 2288 0
-2024 -2147 2289 0
-2024 -2148 2290 0
-2024 -2149 2291 0
-2024 -2150 2292 0
-2024 -2151 2293 0
-2024 -2152 2294 0
-2024 -2153 2295 0
-2024 -2154 2296 0
-2024 -2155 2297 0
-2024 -2156 2298 0
-2024 -2157 2299 0
-2024 -2158 2300 0
-2024 -2159 2301 0
-2024 -2160 2302 0
-2024 -2161 2303 0
-2024 -2162 2304 0
-2024 -2163 2305 0
-2024 -2164 2306 0
-2024 -2165 2307 0
-2024 -2166 2308 0
-2024 -2167 2309 0
-2024 -2168 2310 0
-2024 -2169 2311 0
-2024 -2170 2312 0
-2024 -2171 2313 0
-2024 -2172 2314 0
-2024 -2173 2315 0
-2024 -2174 2316 0
-2024 -2175 2317 0
-2024 -2176 2318 0
-2024 -2177 2319 0
-2024 -2178 2320 0
-2024 -2179 2321 0
-2024 -2180 2322 0
-2024 -2181 2323 0
-2024 -2182 2324 0
-2024 -2183 2325 0
-2024 -2184 2326 0
-2024 -2185 2327 0
-2024 -2186 2328 0
-2024 -2187 2329 0
-2024 -2188 2330 0
-2024 -2189 2331 0
-2024 -2190 2332 0
-2024 -2191 2333 0
-2024 -2192 2334 0
-2024 -2193 2335 0
-2024 -2194 2336 0
-2024 -2195 2337 0
-2024 -2196 2338 0
-2024 -2197 2339 0
-2024 -2198 2340 0
-2024 -2199 2341 0
-2024 -2200 2342 0
-2024 -2201 2343 0
-2024 -2202 2344 0
-2024 -2203 2345 0
-2024 -2204 2346 0
-2024 -2205 2347 0
-2024 -2206 2348 0
-2024 -2207 2349 0
-2024 -2208 2350 0
-2024 -2209 2351 0
-2024 -2210 2352 0
-2024 -2211 2353 0
-2024 -2212 2354 0
-2024 -2213 2355 0
-2024 -2214 2356 0
-2024 -2215 2357 0
-2024 -2216 2358 0
-2024 -2217 2359 0
-2024 -2218 2360 0
-2024 -2219 2361 0
-2024 -2220 2362 0
-2024 -2221 2363 0
-2024 -2222 2364 0
-2024 -2223 2365 0
-2025 -2099 2242 0
-2025 -2100 2243 0
-2025 -2101 2244 0
-2025 -2102 2245 0
-2025 -2103 2246 0
-2025 -2104 2247 0
-2025 -2105 2248 0
-2025 -2106 2249 0
-2025 -2107 2250 0
-2025 -2108 2251 0
-2025 -2109 2252 0
-2025 -2110 2253 0
-2025 -2111 2254 0
-2025 -2112 2255 0
-2025 -2113 2256 0
-2025 -2114 2257 0
-2025 -2115 2258 0
-2025 -2116 2259 0
-2025 -2117 2260 0
-2025 -2118 2261 0
-2025 -2119 2262 0
-2025 -2120 2263 0
-2025 -2121 2264 0
-2025 -2122 2265 0
-2025 -2123 2266 0
-2025 -2124 2267 0
-2025 -2125 2268 0
-2025 -2126 2269 0
-2025 -2127 2270 0
-2025 -2128 2271 0
-2025 -2129 2272 0
-2025 -2130 2273 0
-2025 -2131 2274 0
-2025 -2132 2275 0
-2025 -2133 2276 0
-2025 -2134 2277 0
-2025 -2135 2278 0
-2025 -2136 2279 0
-2025 -2137 2280 0
-2025 -2138 2281 0
-2025 -2139 2282 0
-2025 -2140 2283 0
-2025 -2141 2284 0
-2025 -2142 2285 0
-2025 -2143 2286 0
-2025 -2144 2287 0
-2025 -2145 2288 0
-2025 -2146 2289 0
-2025 -2147 2290 0
-2025 -2148 2291 0
-2025 -2149 2292 0
-2025 -2150 2293 0
-2025 -2151 2294 0
-2025 -2152 2295 0
-2025 -2153 2296 0
-2025 -2154 2297 0
-2025 -2155 2298 0
-2025 -2156 2299 0
-2025 -2157 2300 0
-2025 -2158 2301 0
-2025 -2159 2302 0
-2025 -2160 2303 0
-2025 -2161 2304 0
-2025 -2162 2305 0
-2025 -2163 2306 0
-2025 -2164 2307 0
-2025 -2165 2308 0
-2025 -2166 2309 0
-2025 -2167 2310 0
-2025 -2168 2311 0
-2025 -2169 2312 0
-2025 -2170 2313 0
-2025 -2171 2314 0
-2025 -2172 2315 0
-2025 -2173 2316 0
-2025 -2174 2317 0
-2025 -2175 2318 0
-2025 -2176 2319 0
-2025 -2177 2320 0
-2025 -2178 2321 0
-2025 -2179 2322 0
-2025 -2180 2323 0
-2025 -2181 2324 0
-2025 -2182 2325 0
-2025 -2183 2326 0
-2025 -2184 2327 0
-2025 -2185 2328 0
-2025 -2186 2329 0
-2025 -2187 2330 0
-2025 -2188 2331 0
-2025 -2189 2332 0
-2025 -2190 2333 0
-2025 -2191 2334 0
-2025 -2192 2335 0
-2025 -2193 2336 0
-2025 -2194 2337 0
-2025 -2195 2338 0
-2025 -2196 2339 0
-2025 -2197 2340 0
-2025 -2198 2341 0
-2025 -2199 2342 0
-2025 -2200 2343 0
-2025 -2201 2344 0
-2025 -2202 2345 0
-2025 -2203 2346 0
-2025 -2204 2347 0
-2025 -2205 2348 0
-2025 -2206 2349 0
-2025 -2207 2350 0
-2025 -2208 2351 0
-2025 -2209 2352 0
-2025 -2210 2353 0
-2025 -2211 2354 0
-2025 -2212 2355 0
-2025 -2213 2356 0
-2025 -2214 2357 0
-2025 -2215 2358 0
-2025 -2216 2359 0
-2025 -2217 2360 0
-2025 -2218 2361 0
-2025 -2219 2362 0
-2025 -2220 2363 0
-2025 -2221 2364 0
-2025 -2222 2365 0
-2026 -2099 2243 0
-2026 -2100 2244 0
-2026 -2101 2245 0
-2026 -2102 2246 0
-2026 -2103 2247 0
-2026 -2104 2248 0
-2026 -2105 2249 0
-2026 -2106 2250 0
-2026 -2107 2251 0
-2026 -2108 2252 0
-2026 -2109 2253 0
-2026 -2110 2254 0
-2026 -2111 2255 0
-2026 -2112 2256 0
-2026 -2113 2257 0
-2026 -2114 2258 0
-2026 -2115 2259 0
-2026 -2116 2260 0
-2026 -2117 2261 0
-2026 -2118 2262 0
-2026 -2119 2263 0
-2026 -2120 2264 0
-2026 -2121 2265 0
-2026 -2122 2266 0
-2026 -2123 2267 0
-2026 -2124 2268 0
-2026 -2125 2269 0
-2026 -2126 2270 0
-2026 -2127 2271 0
-2026 -2128 2272 0
-2026 -2129 2273 0
-2026 -2130 2274 0
-2026 -2131 2275 0
-2026 -2132 2276 0
-2026 -2133 2277 0
-2026 -2134 2278 0
-2026 -2135 2279 0
-2026 -2136 2280 0
-2026 -2137 2281 0
-2026 -2138 2282 0
-2026 -2139 2283 0
-2026 -2140 2284 0
-2026 -2141 2285 0
-2026 -2142 2286 0
-2026 -2143 2287 0
-2026 -2144 2288 0
-2026 -2145 2289 0
-2026 -2146 2290 0
-2026 -2147 2291 0
-2026 -2148 2292 0
-2026 -2149 2293 0
-2026 -2150 2294 0
-2026 -2151 2295 0
-2026 -2152 2296 0
-2026 -2153 2297 0
-2026 -2154 2298 0
-2026 -2155 2299 0
-2026 -2156 2300 0
-2026 -2157 2301 0
-2026 -2158 2302 0
-2026 -2159 2303 0
-2026 -2160 2304 0
-2026 -2161 2305 0
-2026 -2162 2306 0
-2026 -2163 2307 0
-2026 -2164 2308 0
-2026 -2165 2309 0
-2026 -2166 2310 0
-2026 -2167 2311 0
-2026 -2168 2312 0
-2026 -2169 2313 0
-2026 -2170 2314 0
-2026 -2171 2315 0
-2026 -2172 2316 0
-2026 -2173 2317 0
-2026 -2174 2318 0
-2026 -2175 2319 0
-2026 -2176 2320 0
-2026 -2177 2321 0
-2026 -2178 2322 0
-2026 -2179 2323 0
-2026 -2180 2324 0
-2026 -2181 2325 0
-2026 -2182 2326 0
-2026 -2183 2327 0
-2026 -2184 2328 0
-2026 -2185 2329 0
-2026 -2186 2330 0
-2026 -2187 2331 0
-2026 -2188 2332 0
-2026 -2189 2333 0
-2026 -2190 2334 0
-2026 -2191 2335 0
-2026 -2192 2336 0
-2026 -2193 2337 0
-2026 -2194 2338 0
-2026 -2195 2339 0
-2026 -2196 2340 0
-2026 -2197 2341 0
-2026 -2198 2342 0
-2026 -2199 2343 0
-2026 -2200 2344 0
-2026 -2201 2345 0
-2026 -2202 2346 0
-2026 -2203 2347 0
-2026 -2204 2348 0
-2026 -2205 2349 0
-2026 -2206 2350 0
-2026 -2207 2351 0
-2026 -2208 2352 0
-2026 -2209 2353 0
-2026 -2210 2354 0
-2026 -2211 2355 0
-2026 -2212 2356 0
-2026 -2213 2357 0
-2026 -2214 2358 0
-2026 -2215 2359 0
-2026 -2216 2360 0
-2026 -2217 2361 0
-2026 -2218 2362 0
-2026 -2219 2363 0
-2026 -2220 2364 0
-2026 -2221 2365 0
-2027 -2099 2244 0
-2027 -2100 2245 0
-2027 -2101 2246 0
-2027 -2102 2247 0
-2027 -2103 2248 0
-2027 -2104 2249 0
-2027 -2105 2250 0
-2027 -2106 2251 0
-2027 -2107 2252 0
-2027 -2108 2253 0
-2027 -2109 2254 0
-2027 -2110 2255 0
-2027 -2111 2256 0
-2027 -2112 2257 0
-2027 -2113 2258 0
-2027 -2114 2259 0
-2027 -2115 2260 0
-2027 -2116 2261 0
-2027 -2117 2262 0
-2027 -2118 2263 0
-2027 -2119 2264 0
-2027 -2120 2265 0
-2027 -2121 2266 0
-2027 -2122 2267 0
-2027 -2123 2268 0
-2027 -2124 2269 0
-2027 -2125 2270 0
-2027 -2126 2271 0
-2027 -2127 2272 0
-2027 -2128 2273 0
-2027 -2129 2274 0
-2027 -2130 2275 0
-2027 -2131 2276 0
-2027 -2132 2277 0
-2027 -2133 2278 0
-2027 -2134 2279 0
-2027 -2135 2280 0
-2027 -2136 2281 0
-2027 -2137 2282 0
-2027 -2138 2283 0
-2027 -2139 2284 0
-2027 -2140 2285 0
-2027 -2141 2286 0
-2027 -2142 2287 0
-2027 -2143 2288 0
-2027 -2144 2289 0
-2027 -2145 2290 0
-2027 -2146 2291 0
-2027 -2147 2292 0
-2027 -2148 2293 0
-2027 -2149 2294 0
-2027 -2150 2295 0
-2027 -2151 2296 0
-2027 -2152 2297 0
-2027 -2153 2298 0
-2027 -2154 2299 0
-2027 -2155 2300 0
-2027 -2156 2301 0
-2027 -2157 2302 0
-2027 -2158 2303 0
-2027 -2159 2304 0
-2027 -2160 2305 0
-2027 -2161 2306 0
-2027 -2162 2307 0
-2027 -2163 2308 0
-2027 -2164 2309 0
-2027 -2165 2310 0
-2027 -2166 2311 0
-2027 -2167 2312 0
-2027 -2168 2313 0
-2027 -2169 2314 0
-2027 -2170 2315 0
-2027 -2171 2316 0
-2027 -2172 2317 0
-2027 -2173 2318 0
-2027 -2174 2319 0
-2027 -2175 2320 0
-2027 -2176 2321 0
-2027 -2177 2322 0
-2027 -2178 2323 0
-2027 -2179 2324 0
-2027 -2180 2325 0
-2027 -2181 2326 0
-2027 -2182 2327 0
-2027 -2183 2328 0
-2027 -2184 2329 0
-2027 -2185 2330 0
-2027 -2186 2331 0
-2027 -2187 2332 0
-2027 -2188 2333 0
-2027 -2189 2334 0
-2027 -2190 2335 0
-2027 -2191 2336 0
-2027 -2192 2337 0
-2027 -2193 2338 0
-2027 -2194 2339 0
-2027 -2195 2340 0
-2027 -2196 2341 0
-2027 -2197 2342 0
-2027 -2198 2343 0
-2027 -2199 2344 0
-2027 -2200 2345 0
-2027 -2201 2346 0
-2027 -2202 2347 0
-2027 -2203 2348 0
-2027 -2204 2349 0
-2027 -2205 2350 0
-2027 -2206 2351 0
-2027 -2207 2352 0
-2027 -2208 2353 0
-2027 -2209 2354 0
-2027 -2210 2355 0
-2027 -2211 2356 0
-2027 -2212 2357 0
-2027 -2213 2358 0
-2027 -2214 2359 0
-2027 -2215 2360 0
-2027 -2216 2361 0
-2027 -2217 2362 0
-2027 -2218 2363 0
-2027 -2219 2364 0
-2027 -2220 2365 0
-2028 -2099 2245 0
-2028 -2100 2246 0
-2028 -2101 2247 0
-2028 -2102 2248 0
-2028 -2103 2249 0
-2028 -2104 2250 0
-2028 -2105 2251 0
-2028 -2106 2252 0
-2028 -2107 2253 0
-2028 -2108 2254 0
-2028 -2109 2255 0
-2028 -2110 2256 0
-2028 -2111 2257 0
-2028 -2112 2258 0
-2028 -2113 2259 0
-2028 -2114 2260 0
-2028 -2115 2261 0
-2028 -2116 2262 0
-2028 -2117 2263 0
-2028 -2118 2264 0
-2028 -2119 2265 0
-2028 -2120 2266 0
-2028 -2121 2267 0
-2028 -2122 2268 0
-2028 -2123 2269 0
-2028 -2124 2270 0
-2028 -2125 2271 0
-2028 -2126 2272 0
-2028 -2127 2273 0
-2028 -2128 2274 0
-2028 -2129 2275 0
-2028 -2130 2276 0
-2028 -2131 2277 0
-2028 -2132 2278 0
-2028 -2133 2279 0
-2028 -2134 2280 0
-2028 -2135 2281 0
-2028 -2136 2282 0
-2028 -2137 2283 0
-2028 -2138 2284 0
-2028 -2139 2285 0
-2028 -2140 2286 0
-2028 -2141 2287 0
-2028 -2142 2288 0
-2028 -2143 2289 0
-2028 -2144 2290 0
-2028 -2145 2291 0
-2028 -2146 2292 0
-2028 -2147 2293 0
-2028 -2148 2294 0
-2028 -2149 2295 0
-2028 -2150 2296 0
-2028 -2151 2297 0
-2028 -2152 2298 0
-2028 -2153 2299 0
-2028 -2154 2300 0
-2028 -2155 2301 0
-2028 -2156 2302 0
-2028 -2157 2303 0
-2028 -2158 2304 0
-2028 -2159 2305 0
-2028 -2160 2306 0
-2028 -2161 2307 0
-2028 -2162 2308 0
-2028 -2163 2309 0
-2028 -2164 2310 0
-2028 -2165 2311 0
-2028 -2166 2312 0
-2028 -2167 2313 0
-2028 -2168 2314 0
-2028 -2169 2315 0
-2028 -2170 2316 0
-2028 -2171 2317 0
-2028 -2172 2318 0
-2028 -2173 2319 0
-2028 -2174 2320 0
-2028 -2175 2321 0
-2028 -2176 2322 0
-2028 -2177 2323 0
-2028 -2178 2324 0
-2028 -2179 2325 0
-2028 -2180 2326 0
-2028 -2181 2327 0
-2028 -2182 2328 0
-2028 -2183 2329 0
-2028 -2184 2330 0
-2028 -2185 2331 0
-2028 -2186 2332 0
-2028 -2187 2333 0
-2028 -2188 2334 0
-2028 -2189 2335 0
-2028 -2190 2336 0
-2028 -2191 2337 0
-2028 -2192 2338 0
-2028 -2193 2339 0
-2028 -2194 2340 0
-2028 -2195 2341 0
-2028 -2196 2342 0
-2028 -2197 2343 0
-2028 -2198 2344 0
-2028 -2199 2345 0
-2028 -2200 2346 0
-2028 -2201 2347 0
-2028 -2202 2348 0
-2028 -2203 2349 0
-2028 -2204 2350 0
-2028 -2205 2351 0
-2028 -2206 2352 0
-2028 -2207 2353 0
-2028 -2208 2354 0
-2028 -2209 2355 0
-2028 -2210 2356 0
-2028 -2211 2357 0
-2028 -2212 2358 0
-2028 -2213 2359 0
-2028 -2214 2360 0
-2028 -2215 2361 0
-2028 -2216 2362 0
-2028 -2217 2363 0
-2028 -2218 2364 0
-2028 -2219 2365 0
-2029 -2099 2246 0
-2029 -2100 2247 0
-2029 -2101 2248 0
-2029 -2102 2249 0
-2029 -2103 2250 0
-2029 -2104 2251 0
-2029 -2105 2252 0
-2029 -2106 2253 0
-2029 -2107 2254 0
-2029 -2108 2255 0
-2029 -2109 2256 0
-2029 -2110 2257 0
-2029 -2111 2258 0
-2029 -2112 2259 0
-2029 -2113 2260 0
-2029 -2114 2261 0
-2029 -2115 2262 0
-2029 -2116 2263 0
-2029 -2117 2264 0
-2029 -2118 2265 0
-2029 -2119 2266 0
-2029 -2120 2267 0
-2029 -2121 2268 0
-2029 -2122 2269 0
-2029 -2123 2270 0
-2029 -2124 2271 0
-2029 -2125 2272 0
-2029 -2126 2273 0
-2029 -2127 2274 0
-2029 -2128 2275 0
-2029 -2129 2276 0
-2029 -2130 2277 0
-2029 -2131 2278 0
-2029 -2132 2279 0
-2029 -2133 2280 0
-2029 -2134 2281 0
-2029 -2135 2282 0
-2029 -2136 2283 0
-2029 -2137 2284 0
-2029 -2138 2285 0
-2029 -2139 2286 0
-2029 -2140 2287 0
-2029 -2141 2288 0
-2029 -2142 2289 0
-2029 -2143 2290 0
-2029 -2144 2291 0
-2029 -2145 2292 0
-2029 -2146 2293 0
-2029 -2147 2294 0
-2029 -2148 2295 0
-2029 -2149 2296 0
-2029 -2150 2297 0
-2029 -2151 2298 0
-2029 -2152 2299 0
-2029 -2153 2300 0
-2029 -2154 2301 0
-2029 -2155 2302 0
-2029 -2156 2303 0
-2029 -2157 2304 0
-2029 -2158 2305 0
-2029 -2159 2306 0
-2029 -2160 2307 0
-2029 -2161 2308 0
-2029 -2162 2309 0
-2029 -2163 2310 0
-2029 -2164 2311 0
-2029 -2165 2312 0
-2029 -2166 2313 0
-2029 -2167 2314 0
-2029 -2168 2315 0
-2029 -2169 2316 0
-2029 -2170 2317 0
-2029 -2171 2318 0
-2029 -2172 2319 0
-2029 -2173 2320 0
-2029 -2174 2321 0
-2029 -2175 2322 0
-2029 -2176 2323 0
-2029 -2177 2324 0
-2029 -2178 2325 0
-2029 -2179 2326 0
-2029 -2180 2327 0
-2029 -2181 2328 0
-2029 -2182 2329 0
-2029 -2183 2330 0
-2029 -2184 2331 0
-2029 -2185 2332 0
-2029 -2186 2333 0
-2029 -2187 2334 0
-2029 -2188 2335 0
-2029 -2189 2336 0
-2029 -2190 2337 0
-2029 -2191 2338 0
-2029 -2192 2339 0
-2029 -2193 2340 0
-2029 -2194 2341 0
-2029 -2195 2342 0
-2029 -2196 2343 0
-2029 -2197 2344 0
-2029 -2198 2345 0
-2029 -2199 2346 0
-2029 -2200 2347 0
-2029 -2201 2348 0
-2029 -2202 2349 0
-2029 -2203 2350 0
-2029 -2204 2351 0
-2029 -2205 2352 0
-2029 -2206 2353 0
-2029 -2207 2354 0
-2029 -2208 2355 0
-2029 -2209 2356 0
-2029 -2210 2357 0
-2029 -2211 2358 0
-2029 -2212 2359 0
-2029 -2213 2360 0
-2029 -2214 2361 0
-2029 -2215 2362 0
-2029 -2216 2363 0
-2029 -2217 2364 0
-2029 -2218 2365 0
-2030 -2099 2247 0
-2030 -2100 2248 0
-2030 -2101 2249 0
-2030 -2102 2250 0
-2030 -2103 2251 0
-2030 -2104 2252 0
-2030 -2105 2253 0
-2030 -2106 2254 0
-2030 -2107 2255 0
-2030 -2108 2256 0
-2030 -2109 2257 0
-2030 -2110 2258 0
-2030 -2111 2259 0
-2030 -2112 2260 0
-2030 -2113 2261 0
-2030 -2114 2262 0
-2030 -2115 2263 0
-2030 -2116 2264 0
-2030 -2117 2265 0
-2030 -2118 2266 0
-2030 -2119 2267 0
-2030 -2120 2268 0
-2030 -2121 2269 0
-2030 -2122 2270 0
-2030 -2123 2271 0
-2030 -2124 2272 0
-2030 -2125 2273 0
-2030 -2126 2274 0
-2030 -2127 2275 0
-2030 -2128 2276 0
-2030 -2129 2277 0
-2030 -2130 2278 0
-2030 -2131 2279 0
-2030 -2132 2280 0
-2030 -2133 2281 0
-2030 -2134 2282 0
-2030 -2135 2283 0
-2030 -2136 2284 0
-2030 -2137 2285 0
-2030 -2138 2286 0
-2030 -2139 2287 0
-2030 -2140 2288 0
-2030 -2141 2289 0
-2030 -2142 2290 0
-2030 -2143 2291 0
-2030 -2144 2292 0
-2030 -2145 2293 0
-2030 -2146 2294 0
-2030 -2147 2295 0
-2030 -2148 2296 0
-2030 -2149 2297 0
-2030 -2150 2298 0
-2030 -2151 2299 0
-2030 -2152 2300 0
-2030 -2153 2301 0
-2030 -2154 2302 0
-2030 -2155 2303 0
-2030 -2156 2304 0
-2030 -2157 2305 0
-2030 -2158 2306 0
-2030 -2159 2307 0
-2030 -2160 2308 0
-2030 -2161 2309 0
-2030 -2162 2310 0
-2030 -2163 2311 0
-2030 -2164 2312 0
-2030 -2165 2313 0
-2030 -2166 2314 0
-2030 -2167 2315 0
-2030 -2168 2316 0
-2030 -2169 2317 0
-2030 -2170 2318 0
-2030 -2171 2319 0
-2030 -2172 2320 0
-2030 -2173 2321 0
-2030 -2174 2322 0
-2030 -2175 2323 0
-2030 -2176 2324 0
-2030 -2177 2325 0
-2030 -2178 2326 0
-2030 -2179 2327 0
-2030 -2180 2328 0
-2030 -2181 2329 0
-2030 -2182 2330 0
-2030 -2183 2331 0
-2030 -2184 2332 0
-2030 -2185 2333 0
-2030 -2186 2334 0
-2030 -2187 2335 0
-2030 -2188 2336 0
-2030 -2189 2337 0
-2030 -2190 2338 0
-2030 -2191 2339 0
-2030 -2192 2340 0
-2030 -2193 2341 0
-2030 -2194 2342 0
-2030 -2195 2343 0
-2030 -2196 2344 0
-2030 -2197 2345 0
-2030 -2198 2346 0
-2030 -2199 2347 0
-2030 -2200 2348 0
-2030 -2201 2349 0
-2030 -2202 2350 0
-2030 -2203 2351 0
-2030 -2204 2352 0
-2030 -2205 2353 0
-2030 -2206 2354 0
-2030 -2207 2355 0
-2030 -2208 2356 0
-2030 -2209 2357 0
-2030 -2210 2358 0
-2030 -2211 2359 0
-2030 -2212 2360 0
-2030 -2213 2361 0
-2030 -2214 2362 0
-2030 -2215 2363 0
-2030 -2216 2364 0
-2030 -2217 2365 0
-2031 -2099 2248 0
-2031 -2100 2249 0
-2031 -2101 2250 0
-2031 -2102 2251 0
-2031 -2103 2252 0
-2031 -2104 2253 0
-2031 -2105 2254 0
-2031 -2106 2255 0
-2031 -2107 2256 0
-2031 -2108 2257 0
-2031 -2109 2258 0
-2031 -2110 2259 0
-2031 -2111 2260 0
-2031 -2112 2261 0
-2031 -2113 2262 0
-2031 -2114 2263 0
-2031 -2115 2264 0
-2031 -2116 2265 0
-2031 -2117 2266 0
-2031 -2118 2267 0
-2031 -2119 2268 0
-2031 -2120 2269 0
-2031 -2121 2270 0
-2031 -2122 2271 0
-2031 -2123 2272 0
-2031 -2124 2273 0
-2031 -2125 2274 0
-2031 -2126 2275 0
-2031 -2127 2276 0
-2031 -2128 2277 0
-2031 -2129 2278 0
-2031 -2130 2279 0
-2031 -2131 2280 0
-2031 -2132 2281 0
-2031 -2133 2282 0
-2031 -2134 2283 0
-2031 -2135 2284 0
-2031 -2136 2285 0
-2031 -2137 2286 0
-2031 -2138 2287 0
-2031 -2139 2288 0
-2031 -2140 2289 0
-2031 -2141 2290 0
-2031 -2142 2291 0
-2031 -2143 2292 0
-2031 -2144 2293 0
-2031 -2145 2294 0
-2031 -2146 2295 0
-2031 -2147 2296 0
-2031 -2148 2297 0
-2031 -2149 2298 0
-2031 -2150 2299 0
-2031 -2151 2300 0
-2031 -2152 2301 0
-2031 -2153 2302 0
-2031 -2154 2303 0
-2031 -2155 2304 0
-2031 -2156 2305 0
-2031 -2157 2306 0
-2031 -2158 2307 0
-2031 -2159 2308 0
-2031 -2160 2309 0
-2031 -2161 2310 0
-2031 -2162 2311 0
-2031 -2163 2312 0
-2031 -2164 2313 0
-2031 -2165 2314 0
-2031 -2166 2315 0
-2031 -2167 2316 0
-2031 -2168 2317 0
-2031 -2169 2318 0
-2031 -2170 2319 0
-2031 -2171 2320 0
-2031 -2172 2321 0
-2031 -2173 2322 0
-2031 -2174 2323 0
-2031 -2175 2324 0
-2031 -2176 2325 0
-2031 -2177 2326 0
-2031 -2178 2327 0
-2031 -2179 2328 0
-2031 -2180 2329 0
-2031 -2181 2330 0
-2031 -2182 2331 0
-2031 -2183 2332 0
-2031 -2184 2333 0
-2031 -2185 2334 0
-2031 -2186 2335 0
-2031 -2187 2336 0
-2031 -2188 2337 0
-2031 -2189 2338 0
-2031 -2190 2339 0
-2031 -2191 2340 0
-2031 -2192 2341 0
-2031 -2193 2342 0
-2031 -2194 2343 0
-2031 -2195 2344 0
-2031 -2196 2345 0
-2031 -2197 2346 0
-2031 -2198 2347 0
-2031 -2199 2348 0
-2031 -2200 2349 0
-2031 -2201 2350 0
-2031 -2202 2351 0
-2031 -2203 2352 0
-2031 -2204 2353 0
-2031 -2205 2354 0
-2031 -2206 2355 0
-2031 -2207 2356 0
-2031 -2208 2357 0
-2031 -2209 2358 0
-2031 -2210 2359 0
-2031 -2211 2360 0
-2031 -2212 2361 0
-2031 -2213 2362 0
-2031 -2214 2363 0
-2031 -2215 2364 0
-2031 -2216 2365 0
-2032 -2099 2249 0
-2032 -2100 2250 0
-2032 -2101 2251 0
-2032 -2102 2252 0
-2032 -2103 2253 0
-2032 -2104 2254 0
-2032 -2105 2255 0
-2032 -2106 2256 0
-2032 -2107 2257 0
-2032 -2108 2258 0
-2032 -2109 2259 0
-2032 -2110 2260 0
-2032 -2111 2261 0
-2032 -2112 2262 0
-2032 -2113 2263 0
-2032 -2114 2264 0
-2032 -2115 2265 0
-2032 -2116 2266 0
-2032 -2117 2267 0
-2032 -2118 2268 0
-2032 -2119 2269 0
-2032 -2120 2270 0
-2032 -2121 2271 0
-2032 -2122 2272 0
-2032 -2123 2273 0
-2032 -2124 2274 0
-2032 -2125 2275 0
-2032 -2126 2276 0
-2032 -2127 2277 0
-2032 -2128 2278 0
-2032 -2129 2279 0
-2032 -2130 2280 0
-2032 -2131 2281 0
-2032 -2132 2282 0
-2032 -2133 2283 0
-2032 -2134 2284 0
-2032 -2135 2285 0
-2032 -2136 2286 0
-2032 -2137 2287 0
-2032 -2138 2288 0
-2032 -2139 2289 0
-2032 -2140 2290 0
-2032 -2141 2291 0
-2032 -2142 2292 0
-2032 -2143 2293 0
-2032 -2144 2294 0
-2032 -2145 2295 0
-2032 -2146 2296 0
-2032 -2147 2297 0
-2032 -2148 2298 0
-2032 -2149 2299 0
-2032 -2150 2300 0
-2032 -2151 2301 0
-2032 -2152 2302 0
-2032 -2153 2303 0
-2032 -2154 2304 0
-2032 -2155 2305 0
-2032 -2156 2306 0
-2032 -2157 2307 0
-2032 -2158 2308 0
-2032 -2159 2309 0
-2032 -2160 2310 0
-2032 -2161 2311 0
-2032 -2162 2312 0
-2032 -2163 2313 0
-2032 -2164 2314 0
-2032 -2165 2315 0
-2032 -2166 2316 0
-2032 -2167 2317 0
-2032 -2168 2318 0
-2032 -2169 2319 0
-2032 -2170 2320 0
-2032 -2171 2321 0
-2032 -2172 2322 0
-2032 -2173 2323 0
-2032 -2174 2324 0
-2032 -2175 2325 0
-2032 -2176 2326 0
-2032 -2177 2327 0
-2032 -2178 2328 0
-2032 -2179 2329 0
-2032 -2180 2330 0
-2032 -2181 2331 0
-2032 -2182 2332 0
-2032 -2183 2333 0
-2032 -2184 2334 0
-2032 -2185 2335 0
-2032 -2186 2336 0
-2032 -2187 2337 0
-2032 -2188 2338 0
-2032 -2189 2339 0
-2032 -2190 2340 0
-2032 -2191 2341 0
-2032 -2192 2342 0
-2032 -2193 2343 0
-2032 -2194 2344 0
-2032 -2195 2345 0
-2032 -2196 2346 0
-2032 -2197 2347 0
-2032 -2198 2348 0
-2032 -2199 2349 0
-2032 -2200 2350 0
-2032 -2201 2351 0
-2032 -2202 2352 0
-2032 -2203 2353 0
-2032 -2204 2354 0
-2032 -2205 2355 0
-2032 -2206 2356 0
-2032 -2207 2357 0
-2032 -2208 2358 0
-2032 -2209 2359 0
-2032 -2210 2360 0
-2032 -2211 2361 0
-2032 -2212 2362 0
-2032 -2213 2363 0
-2032 -2214 2364 0
-2032 -2215 2365 0
-2033 -2099 2250 0
-2033 -2100 2251 0
-2033 -2101 2252 0
-2033 -2102 2253 0
-2033 -2103 2254 0
-2033 -2104 2255 0
-2033 -2105 2256 0
-2033 -2106 2257 0
-2033 -2107 2258 0
-2033 -2108 2259 0
-2033 -2109 2260 0
-2033 -2110 2261 0
-2033 -2111 2262 0
-2033 -2112 2263 0
-2033 -2113 2264 0
-2033 -2114 2265 0
-2033 -2115 2266 0
-2033 -2116 2267 0
-2033 -2117 2268 0
-2033 -2118 2269 0
-2033 -2119 2270 0
-2033 -2120 2271 0
-2033 -2121 2272 0
-2033 -2122 2273 0
-2033 -2123 2274 0
-2033 -2124 2275 0
-2033 -2125 2276 0
-2033 -2126 2277 0
-2033 -2127 2278 0
-2033 -2128 2279 0
-2033 -2129 2280 0
-2033 -2130 2281 0
-2033 -2131 2282 0
-2033 -2132 2283 0
-2033 -2133 2284 0
-2033 -2134 2285 0
-2033 -2135 2286 0
-2033 -2136 2287 0
-2033 -2137 2288 0
-2033 -2138 2289 0
-2033 -2139 2290 0
-2033 -2140 2291 0
-2033 -2141 2292 0
-2033 -2142 2293 0
-2033 -2143 2294 0
-2033 -2144 2295 0
-2033 -2145 2296 0
-2033 -2146 2297 0
-2033 -2147 2298 0
-2033 -2148 2299 0
-2033 -2149 2300 0
-2033 -2150 2301 0
-2033 -2151 2302 0
-2033 -2152 2303 0
-2033 -2153 2304 0
-2033 -2154 2305 0
-2033 -2155 2306 0
-2033 -2156 2307 0
-2033 -2157 2308 0
-2033 -2158 2309 0
-2033 -2159 2310 0
-2033 -2160 2311 0
-2033 -2161 2312 0
-2033 -2162 2313 0
-2033 -2163 2314 0
-2033 -2164 2315 0
-2033 -2165 2316 0
-2033 -2166 2317 0
-2033 -2167 2318 0
-2033 -2168 2319 0
-2033 -2169 2320 0
-2033 -2170 2321 0
-2033 -2171 2322 0
-2033 -2172 2323 0
-2033 -2173 2324 0
-2033 -2174 2325 0
-2033 -2175 2326 0
-2033 -2176 2327 0
-2033 -2177 2328 0
-2033 -2178 2329 0
-2033 -2179 2330 0
-2033 -2180 2331 0
-2033 -2181 2332 0
-2033 -2182 2333 0
-2033 -2183 2334 0
-2033 -2184 2335 0
-2033 -2185 2336 0
-2033 -2186 2337 0
-2033 -2187 2338 0
-2033 -2188 2339 0
-2033 -2189 2340 0
-2033 -2190 2341 0
-2033 -2191 2342 0
-2033 -2192 2343 0
-2033 -2193 2344 0
-2033 -2194 2345 0
-2033 -2195 2346 0
-2033 -2196 2347 0
-2033 -2197 2348 0
-2033 -2198 2349 0
-2033 -2199 2350 0
-2033 -2200 2351 0
-2033 -2201 2352 0
-2033 -2202 2353 0
-2033 -2203 2354 0
-2033 -2204 2355 0
-2033 -2205 2356 0
-2033 -2206 2357 0
-2033 -2207 2358 0
-2033 -2208 2359 0
-2033 -2209 2360 0
-2033 -2210 2361 0
-2033 -2211 2362 0
-2033 -2212 2363 0
-2033 -2213 2364 0
-2033 -2214 2365 0
-2034 -2099 2251 0
-2034 -2100 2252 0
-2034 -2101 2253 0
-2034 -2102 2254 0
-2034 -2103 2255 0
-2034 -2104 2256 0
-2034 -2105 2257 0
-2034 -2106 2258 0
-2034 -2107 2259 0
-2034 -2108 2260 0
-2034 -2109 2261 0
-2034 -2110 2262 0
-2034 -2111 2263 0
-2034 -2112 2264 0
-2034 -2113 2265 0
-2034 -2114 2266 0
-2034 -2115 2267 0
-2034 -2116 2268 0
-2034 -2117 2269 0
-2034 -2118 2270 0
-2034 -2119 2271 0
-2034 -2120 2272 0
-2034 -2121 2273 0
-2034 -2122 2274 0
-2034 -2123 2275 0
-2034 -2124 2276 0
-2034 -2125 2277 0
-2034 -2126 2278 0
-2034 -2127 2279 0
-2034 -2128 2280 0
-2034 -2129 2281 0
-2034 -2130 2282 0
-2034 -2131 2283 0
-2034 -2132 2284 0
-2034 -2133 2285 0
-2034 -2134 2286 0
-2034 -2135 2287 0
-2034 -2136 2288 0
-2034 -2137 2289 0
-2034 -2138 2290 0
-2034 -2139 2291 0
-2034 -2140 2292 0
-2034 -2141 2293 0
-2034 -2142 2294 0
-2034 -2143 2295 0
-2034 -2144 2296 0
-2034 -2145 2297 0
-2034 -2146 2298 0
-2034 -2147 2299 0
-2034 -2148 2300 0
-2034 -2149 2301 0
-2034 -2150 2302 0
-2034 -2151 2303 0
-2034 -2152 2304 0
-2034 -2153 2305 0
-2034 -2154 2306 0
-2034 -2155 2307 0
-2034 -2156 2308 0
-2034 -2157 2309 0
-2034 -2158 2310 0
-2034 -2159 2311 0
-2034 -2160 2312 0
-2034 -2161 2313 0
-2034 -2162 2314 0
-2034 -2163 2315 0
-2034 -2164 2316 0
-2034 -2165 2317 0
-2034 -2166 2318 0
-2034 -2167 2319 0
-2034 -2168 2320 0
-2034 -2169 2321 0
-2034 -2170 2322 0
-2034 -2171 2323 0
-2034 -2172 2324 0
-2034 -2173 2325 0
-2034 -2174 2326 0
-2034 -2175 2327 0
-2034 -2176 2328 0
-2034 -2177 2329 0
-2034 -2178 2330 0
-2034 -2179 2331 0
-2034 -2180 2332 0
-2034 -2181 2333 0
-2034 -2182 2334 0
-2034 -2183 2335 0
-2034 -2184 2336 0
-2034 -2185 2337 0
-2034 -2186 2338 0
-2034 -2187 2339 0
-2034 -2188 2340 0
-2034 -2189 2341 0
-2034 -2190 2342 0
-2034 -2191 2343 0
-2034 -2192 2344 0
-2034 -2193 2345 0
-2034 -2194 2346 0
-2034 -2195 2347 0
-2034 -2196 2348 0
-2034 -2197 2349 0
-2034 -2198 2350 0
-2034 -2199 2351 0
-2034 -2200 2352 0
-2034 -2201 2353 0
-2034 -2202 2354 0
-2034 -2203 2355 0
-2034 -2204 2356 0
-2034 -2205 2357 0
-2034 -2206 2358 0
-2034 -2207 2359 0
-2034 -2208 2360 0
-2034 -2209 2361 0
-2034 -2210 2362 0
-2034 -2211 2363 0
-2034 -2212 2364 0
-2034 -2213 2365 0
-2035 -2099 2252 0
-2035 -2100 2253 0
-2035 -2101 2254 0
-2035 -2102 2255 0
-2035 -2103 2256 0
-2035 -2104 2257 0
-2035 -2105 2258 0
-2035 -2106 2259 0
-2035 -2107 2260 0
-2035 -2108 2261 0
-2035 -2109 2262 0
-2035 -2110 2263 0
-2035 -2111 2264 0
-2035 -2112 2265 0
-2035 -2113 2266 0
-2035 -2114 2267 0
-2035 -2115 2268 0
-2035 -2116 2269 0
-2035 -2117 2270 0
-2035 -2118 2271 0
-2035 -2119 2272 0
-2035 -2120 2273 0
-2035 -2121 2274 0
-2035 -2122 2275 0
-2035 -2123 2276 0
-2035 -2124 2277 0
-2035 -2125 2278 0
-2035 -2126 2279 0
-2035 -2127 2280 0
-2035 -2128 2281 0
-2035 -2129 2282 0
-2035 -2130 2283 0
-2035 -2131 2284 0
-2035 -2132 2285 0
-2035 -2133 2286 0
-2035 -2134 2287 0
-2035 -2135 2288 0
-2035 -2136 2289 0
-2035 -2137 2290 0
-2035 -2138 2291 0
-2035 -2139 2292 0
-2035 -2140 2293 0
-2035 -2141 2294 0
-2035 -2142 2295 0
-2035 -2143 2296 0
-2035 -2144 2297 0
-2035 -2145 2298 0
-2035 -2146 2299 0
-2035 -2147 2300 0
-2035 -2148 2301 0
-2035 -2149 2302 0
-2035 -2150 2303 0
-2035 -2151 2304 0
-2035 -2152 2305 0
-2035 -2153 2306 0
-2035 -2154 2307 0
-2035 -2155 2308 0
-2035 -2156 2309 0
-2035 -2157 2310 0
-2035 -2158 2311 0
-2035 -2159 2312 0
-2035 -2160 2313 0
-2035 -2161 2314 0
-2035 -2162 2315 0
-2035 -2163 2316 0
-2035 -2164 2317 0
-2035 -2165 2318 0
-2035 -2166 2319 0
-2035 -2167 2320 0
-2035 -2168 2321 0
-2035 -2169 2322 0
-2035 -2170 2323 0
-2035 -2171 2324 0
-2035 -2172 2325 0
-2035 -2173 2326 0
-2035 -2174 2327 0
-2035 -2175 2328 0
-2035 -2176 2329 0
-2035 -2177 2330 0
-2035 -2178 2331 0
-2035 -2179 2332 0
-2035 -2180 2333 0
-2035 -2181 2334 0
-2035 -2182 2335 0
-2035 -2183 2336 0
-2035 -2184 2337 0
-2035 -2185 2338 0
-2035 -2186 2339 0
-2035 -2187 2340 0
-2035 -2188 2341 0
-2035 -2189 2342 0
-2035 -2190 2343 0
-2035 -2191 2344 0
-2035 -2192 2345 0
-2035 -2193 2346 0
-2035 -2194 2347 0
-2035 -2195 2348 0
-2035 -2196 2349 0
-2035 -2197 2350 0
-2035 -2198 2351 0
-2035 -2199 2352 0
-2035 -2200 2353 0
-2035 -2201 2354 0
-2035 -2202 2355 0
-2035 -2203 2356 0
-2035 -2204 2357 0
-2035 -2205 2358 0
-2035 -2206 2359 0
-2035 -2207 2360 0
-2035 -2208 2361 0
-2035 -2209 2362 0
-2035 -2210 2363 0
-2035 -2211 2364 0
-2035 -2212 2365 0
-2036 -2099 2253 0
-2036 -2100 2254 0
-2036 -2101 2255 0
-2036 -2102 2256 0
-2036 -2103 2257 0
-2036 -2104 2258 0
-2036 -2105 2259 0
-2036 -2106 2260 0
-2036 -2107 2261 0
-2036 -2108 2262 0
-2036 -2109 2263 0
-2036 -2110 2264 0
-2036 -2111 2265 0
-2036 -2112 2266 0
-2036 -2113 2267 0
-2036 -2114 2268 0
-2036 -2115 2269 0
-2036 -2116 2270 0
-2036 -2117 2271 0
-2036 -2118 2272 0
-2036 -2119 2273 0
-2036 -2120 2274 0
-2036 -2121 2275 0
-2036 -2122 2276 0
-2036 -2123 2277 0
-2036 -2124 2278 0
-2036 -2125 2279 0
-2036 -2126 2280 0
-2036 -2127 2281 0
-2036 -2128 2282 0
-2036 -2129 2283 0
-2036 -2130 2284 0
-2036 -2131 2285 0
-2036 -2132 2286 0
-2036 -2133 2287 0
-2036 -2134 2288 0
-2036 -2135 2289 0
-2036 -2136 2290 0
-2036 -2137 2291 0
-2036 -2138 2292 0
-2036 -2139 2293 0
-2036 -2140 2294 0
-2036 -2141 2295 0
-2036 -2142 2296 0
-2036 -2143 2297 0
-2036 -2144 2298 0
-2036 -2145 2299 0
-2036 -2146 2300 0
-2036 -2147 2301 0
-2036 -2148 2302 0
-2036 -2149 2303 0
-2036 -2150 2304 0
-2036 -2151 2305 0
-2036 -2152 2306 0
-2036 -2153 2307 0
-2036 -2154 2308 0
-2036 -2155 2309 0
-2036 -2156 2310 0
-2036 -2157 2311 0
-2036 -2158 2312 0
-2036 -2159 2313 0
-2036 -2160 2314 0
-2036 -2161 2315 0
-2036 -2162 2316 0
-2036 -2163 2317 0
-2036 -2164 2318 0
-2036 -2165 2319 0
-2036 -2166 2320 0
-2036 -2167 2321 0
-2036 -2168 2322 0
-2036 -2169 2323 0
-2036 -2170 2324 0
-2036 -2171 2325 0
-2036 -2172 2326 0
-2036 -2173 2327 0
-2036 -2174 2328 0
-2036 -2175 2329 0
-2036 -2176 2330 0
-2036 -2177 2331 0
-2036 -2178 2332 0
-2036 -2179 2333 0
-2036 -2180 2334 0
-2036 -2181 2335 0
-2036 -2182 2336 0
-2036 -2183 2337 0
-2036 -2184 2338 0
-2036 -2185 2339 0
-2036 -2186 2340 0
-2036 -2187 2341 0
-2036 -2188 2342 0
-2036 -2189 2343 0
-2036 -2190 2344 0
-2036 -2191 2345 0
-2036 -2192 2346 0
-2036 -2193 2347 0
-2036 -2194 2348 0
-2036 -2195 2349 0
-2036 -2196 2350 0
-2036 -2197 2351 0
-2036 -2198 2352 0
-2036 -2199 2353 0
-2036 -2200 2354 0
-2036 -2201 2355 0
-2036 -2202 2356 0
-2036 -2203 2357 0
-2036 -2204 2358 0
-2036 -2205 2359 0
-2036 -2206 2360 0
-2036 -2207 2361 0
-2036 -2208 2362 0
-2036 -2209 2363 0
-2036 -2210 2364 0
-2036 -2211 2365 0
-2037 -2099 2254 0
-2037 -2100 2255 0
-2037 -2101 2256 0
-2037 -2102 2257 0
-2037 -2103 2258 0
-2037 -2104 2259 0
-2037 -2105 2260 0
-2037 -2106 2261 0
-2037 -2107 2262 0
-2037 -2108 2263 0
-2037 -2109 2264 0
-2037 -2110 2265 0
-2037 -2111 2266 0
-2037 -2112 2267 0
-2037 -2113 2268 0
-2037 -2114 2269 0
-2037 -2115 2270 0
-2037 -2116 2271 0
-2037 -2117 2272 0
-2037 -2118 2273 0
-2037 -2119 2274 0
-2037 -2120 2275 0
-2037 -2121 2276 0
-2037 -2122 2277 0
-2037 -2123 2278 0
-2037 -2124 2279 0
-2037 -2125 2280 0
-2037 -2126 2281 0
-2037 -2127 2282 0
-2037 -2128 2283 0
-2037 -2129 2284 0
-2037 -2130 2285 0
-2037 -2131 2286 0
-2037 -2132 2287 0
-2037 -2133 2288 0
-2037 -2134 2289 0
-2037 -2135 2290 0
-2037 -2136 2291 0
-2037 -2137 2292 0
-2037 -2138 2293 0
-2037 -2139 2294 0
-2037 -2140 2295 0
-2037 -2141 2296 0
-2037 -2142 2297 0
-2037 -2143 2298 0
-2037 -2144 2299 0
-2037 -2145 2300 0
-2037 -2146 2301 0
-2037 -2147 2302 0
-2037 -2148 2303 0
-2037 -2149 2304 0
-2037 -2150 2305 0
-2037 -2151 2306 0
-2037 -2152 2307 0
-2037 -2153 2308 0
-2037 -2154 2309 0
-2037 -2155 2310 0
-2037 -2156 2311 0
-2037 -2157 2312 0
-2037 -2158 2313 0
-2037 -2159 2314 0
-2037 -2160 2315 0
-2037 -2161 2316 0
-2037 -2162 2317 0
-2037 -2163 2318 0
-2037 -2164 2319 0
-2037 -2165 2320 0
-2037 -2166 2321 0
-2037 -2167 2322 0
-2037 -2168 2323 0
-2037 -2169 2324 0
-2037 -2170 2325 0
-2037 -2171 2326 0
-2037 -2172 2327 0
-2037 -2173 2328 0
-2037 -2174 2329 0
-2037 -2175 2330 0
-2037 -2176 2331 0
-2037 -2177 2332 0
-2037 -2178 2333 0
-2037 -2179 2334 0
-2037 -2180 2335 0
-2037 -2181 2336 0
-2037 -2182 2337 0
-2037 -2183 2338 0
-2037 -2184 2339 0
-2037 -2185 2340 0
-2037 -2186 2341 0
-2037 -2187 2342 0
-2037 -2188 2343 0
-2037 -2189 2344 0
-2037 -2190 2345 0
-2037 -2191 2346 0
-2037 -2192 2347 0
-2037 -2193 2348 0
-2037 -2194 2349 0
-2037 -2195 2350 0
-2037 -2196 2351 0
-2037 -2197 2352 0
-2037 -2198 2353 0
-2037 -2199 2354 0
-2037 -2200 2355 0
-2037 -2201 2356 0
-2037 -2202 2357 0
-2037 -2203 2358 0
-2037 -2204 2359 0
-2037 -2205 2360 0
-2037 -2206 2361 0
-2037 -2207 2362 0
-2037 -2208 2363 0
-2037 -2209 2364 0
-2037 -2210 2365 0
-2038 -2099 2255 0
-2038 -2100 2256 0
-2038 -2101 2257 0
-2038 -2102 2258 0
-2038 -2103 2259 0
-2038 -2104 2260 0
-2038 -2105 2261 0
-2038 -2106 2262 0
-2038 -2107 2263 0
-2038 -2108 2264 0
-2038 -2109 2265 0
-2038 -2110 2266 0
-2038 -2111 2267 0
-2038 -2112 2268 0
-2038 -2113 2269 0
-2038 -2114 2270 0
-2038 -2115 2271 0
-2038 -2116 2272 0
-2038 -2117 2273 0
-2038 -2118 2274 0
-2038 -2119 2275 0
-2038 -2120 2276 0
-2038 -2121 2277 0
-2038 -2122 2278 0
-2038 -2123 2279 0
-2038 -2124 2280 0
-2038 -2125 2281 0
-2038 -2126 2282 0
-2038 -2127 2283 0
-2038 -2128 2284 0
-2038 -2129 2285 0
-2038 -2130 2286 0
-2038 -2131 2287 0
-2038 -2132 2288 0
-2038 -2133 2289 0
-2038 -2134 2290 0
-2038 -2135 2291 0
-2038 -2136 2292 0
-2038 -2137 2293 0
-2038 -2138 2294 0
-2038 -2139 2295 0
-2038 -2140 2296 0
-2038 -2141 2297 0
-2038 -2142 2298 0
-2038 -2143 2299 0
-2038 -2144 2300 0
-2038 -2145 2301 0
-2038 -2146 2302 0
-2038 -2147 2303 0
-2038 -2148 2304 0
-2038 -2149 2305 0
-2038 -2150 2306 0
-2038 -2151 2307 0
-2038 -2152 2308 0
-2038 -2153 2309 0
-2038 -2154 2310 0
-2038 -2155 2311 0
-2038 -2156 2312 0
-2038 -2157 2313 0
-2038 -2158 2314 0
-2038 -2159 2315 0
-2038 -2160 2316 0
-2038 -2161 2317 0
-2038 -2162 2318 0
-2038 -2163 2319 0
-2038 -2164 2320 0
-2038 -2165 2321 0
-2038 -2166 2322 0
-2038 -2167 2323 0
-2038 -2168 2324 0
-2038 -2169 2325 0
-2038 -2170 2326 0
-2038 -2171 2327 0
-2038 -2172 2328 0
-2038 -2173 2329 0
-2038 -2174 2330 0
-2038 -2175 2331 0
-2038 -2176 2332 0
-2038 -2177 2333 0
-2038 -2178 2334 0
-2038 -2179 2335 0
-2038 -2180 2336 0
-2038 -2181 2337 0
-2038 -2182 2338 0
-2038 -2183 2339 0
-2038 -2184 2340 0
-2038 -2185 2341 0
-2038 -2186 2342 0
-2038 -2187 2343 0
-2038 -2188 2344 0
-2038 -2189 2345 0
-2038 -2190 2346 0
-2038 -2191 2347 0
-2038 -2192 2348 0
-2038 -2193 2349 0
-2038 -2194 2350 0
-2038 -2195 2351 0
-2038 -2196 2352 0
-2038 -2197 2353 0
-2038 -2198 2354 0
-2038 -2199 2355 0
-2038 -2200 2356 0
-2038 -2201 2357 0
-2038 -2202 2358 0
-2038 -2203 2359 0
-2038 -2204 2360 0
-2038 -2205 2361 0
-2038 -2206 2362 0
-2038 -2207 2363 0
-2038 -2208 2364 0
-2038 -2209 2365 0
-2039 -2099 2256 0
-2039 -2100 2257 0
-2039 -2101 2258 0
-2039 -2102 2259 0
-2039 -2103 2260 0
-2039 -2104 2261 0
-2039 -2105 2262 0
-2039 -2106 2263 0
-2039 -2107 2264 0
-2039 -2108 2265 0
-2039 -2109 2266 0
-2039 -2110 2267 0
-2039 -2111 2268 0
-2039 -2112 2269 0
-2039 -2113 2270 0
-2039 -2114 2271 0
-2039 -2115 2272 0
-2039 -2116 2273 0
-2039 -2117 2274 0
-2039 -2118 2275 0
-2039 -2119 2276 0
-2039 -2120 2277 0
-2039 -2121 2278 0
-2039 -2122 2279 0
-2039 -2123 2280 0
-2039 -2124 2281 0
-2039 -2125 2282 0
-2039 -2126 2283 0
-2039 -2127 2284 0
-2039 -2128 2285 0
-2039 -2129 2286 0
-2039 -2130 2287 0
-2039 -2131 2288 0
-2039 -2132 2289 0
-2039 -2133 2290 0
-2039 -2134 2291 0
-2039 -2135 2292 0
-2039 -2136 2293 0
-2039 -2137 2294 0
-2039 -2138 2295 0
-2039 -2139 2296 0
-2039 -2140 2297 0
-2039 -2141 2298 0
-2039 -2142 2299 0
-2039 -2143 2300 0
-2039 -2144 2301 0
-2039 -2145 2302 0
-2039 -2146 2303 0
-2039 -2147 2304 0
-2039 -2148 2305 0
-2039 -2149 2306 0
-2039 -2150 2307 0
-2039 -2151 2308 0
-2039 -2152 2309 0
-2039 -2153 2310 0
-2039 -2154 2311 0
-2039 -2155 2312 0
-2039 -2156 2313 0
-2039 -2157 2314 0
-2039 -2158 2315 0
-2039 -2159 2316 0
-2039 -2160 2317 0
-2039 -2161 2318 0
-2039 -2162 2319 0
-2039 -2163 2320 0
-2039 -2164 2321 0
-2039 -2165 2322 0
-2039 -2166 2323 0
-2039 -2167 2324 0
-2039 -2168 2325 0
-2039 -2169 2326 0
-2039 -2170 2327 0
-2039 -2171 2328 0
-2039 -2172 2329 0
-2039 -2173 2330 0
-2039 -2174 2331 0
-2039 -2175 2332 0
-2039 -2176 2333 0
-2039 -2177 2334 0
-2039 -2178 2335 0
-2039 -2179 2336 0
-2039 -2180 2337 0
-2039 -2181 2338 0
-2039 -2182 2339 0
-2039 -2183 2340 0
-2039 -2184 2341 0
-2039 -2185 2342 0
-2039 -2186 2343 0
-2039 -2187 2344 0
-2039 -2188 2345 0
-2039 -2189 2346 0
-2039 -2190 2347 0
-2039 -2191 2348 0
-2039 -2192 2349 0
-2039 -2193 2350 0
-2039 -2194 2351 0
-2039 -2195 2352 0
-2039 -2196 2353 0
-2039 -2197 2354 0
-2039 -2198 2355 0
-2039 -2199 2356 0
-2039 -2200 2357 0
-2039 -2201 2358 0
-2039 -2202 2359 0
-2039 -2203 2360 0
-2039 -2204 2361 0
-2039 -2205 2362 0
-2039 -2206 2363 0
-2039 -2207 2364 0
-2039 -2208 2365 0
-2040 -2099 2257 0
-2040 -2100 2258 0
-2040 -2101 2259 0
-2040 -2102 2260 0
-2040 -2103 2261 0
-2040 -2104 2262 0
-2040 -2105 2263 0
-2040 -2106 2264 0
-2040 -2107 2265 0
-2040 -2108 2266 0
-2040 -2109 2267 0
-2040 -2110 2268 0
-2040 -2111 2269 0
-2040 -2112 2270 0
-2040 -2113 2271 0
-2040 -2114 2272 0
-2040 -2115 2273 0
-2040 -2116 2274 0
-2040 -2117 2275 0
-2040 -2118 2276 0
-2040 -2119 2277 0
-2040 -2120 2278 0
-2040 -2121 2279 0
-2040 -2122 2280 0
-2040 -2123 2281 0
-2040 -2124 2282 0
-2040 -2125 2283 0
-2040 -2126 2284 0
-2040 -2127 2285 0
-2040 -2128 2286 0
-2040 -2129 2287 0
-2040 -2130 2288 0
-2040 -2131 2289 0
-2040 -2132 2290 0
-2040 -2133 2291 0
-2040 -2134 2292 0
-2040 -2135 2293 0
-2040 -2136 2294 0
-2040 -2137 2295 0
-2040 -2138 2296 0
-2040 -2139 2297 0
-2040 -2140 2298 0
-2040 -2141 2299 0
-2040 -2142 2300 0
-2040 -2143 2301 0
-2040 -2144 2302 0
-2040 -2145 2303 0
-2040 -2146 2304 0
-2040 -2147 2305 0
-2040 -2148 2306 0
-2040 -2149 2307 0
-2040 -2150 2308 0
-2040 -2151 2309 0
-2040 -2152 2310 0
-2040 -2153 2311 0
-2040 -2154 2312 0
-2040 -2155 2313 0
-2040 -2156 2314 0
-2040 -2157 2315 0
-2040 -2158 2316 0
-2040 -2159 2317 0
-2040 -2160 2318 0
-2040 -2161 2319 0
-2040 -2162 2320 0
-2040 -2163 2321 0
-2040 -2164 2322 0
-2040 -2165 2323 0
-2040 -2166 2324 0
-2040 -2167 2325 0
-2040 -2168 2326 0
-2040 -2169 2327 0
-2040 -2170 2328 0
-2040 -2171 2329 0
-2040 -2172 2330 0
-2040 -2173 2331 0
-2040 -2174 2332 0
-2040 -2175 2333 0
-2040 -2176 2334 0
-2040 -2177 2335 0
-2040 -2178 2336 0
-2040 -2179 2337 0
-2040 -2180 2338 0
-2040 -2181 2339 0
-2040 -2182 2340 0
-2040 -2183 2341 0
-2040 -2184 2342 0
-2040 -2185 2343 0
-2040 -2186 2344 0
-2040 -2187 2345 0
-2040 -2188 2346 0
-2040 -2189 2347 0
-2040 -2190 2348 0
-2040 -2191 2349 0
-2040 -2192 2350 0
-2040 -2193 2351 0
-2040 -2194 2352 0
-2040 -2195 2353 0
-2040 -2196 2354 0
-2040 -2197 2355 0
-2040 -2198 2356 0
-2040 -2199 2357 0
-2040 -2200 2358 0
-2040 -2201 2359 0
-2040 -2202 2360 0
-2040 -2203 2361 0
-2040 -2204 2362 0
-2040 -2205 2363 0
-2040 -2206 2364 0
-2040 -2207 2365 0
-2041 -2099 2258 0
-2041 -2100 2259 0
-2041 -2101 2260 0
-2041 -2102 2261 0
-2041 -2103 2262 0
-2041 -2104 2263 0
-2041 -2105 2264 0
-2041 -2106 2265 0
-2041 -2107 2266 0
-2041 -2108 2267 0
-2041 -2109 2268 0
-2041 -2110 2269 0
-2041 -2111 2270 0
-2041 -2112 2271 0
-2041 -2113 2272 0
-2041 -2114 2273 0
-2041 -2115 2274 0
-2041 -2116 2275 0
-2041 -2117 2276 0
-2041 -2118 2277 0
-2041 -2119 2278 0
-2041 -2120 2279 0
-2041 -2121 2280 0
-2041 -2122 2281 0
-2041 -2123 2282 0
-2041 -2124 2283 0
-2041 -2125 2284 0
-2041 -2126 2285 0
-2041 -2127 2286 0
-2041 -2128 2287 0
-2041 -2129 2288 0
-2041 -2130 2289 0
-2041 -2131 2290 0
-2041 -2132 2291 0
-2041 -2133 2292 0
-2041 -2134 2293 0
-2041 -2135 2294 0
-2041 -2136 2295 0
-2041 -2137 2296 0
-2041 -2138 2297 0
-2041 -2139 2298 0
-2041 -2140 2299 0
-2041 -2141 2300 0
-2041 -2142 2301 0
-2041 -2143 2302 0
-2041 -2144 2303 0
-2041 -2145 2304 0
-2041 -2146 2305 0
-2041 -2147 2306 0
-2041 -2148 2307 0
-2041 -2149 2308 0
-2041 -2150 2309 0
-2041 -2151 2310 0
-2041 -2152 2311 0
-2041 -2153 2312 0
-2041 -2154 2313 0
-2041 -2155 2314 0
-2041 -2156 2315 0
-2041 -2157 2316 0
-2041 -2158 2317 0
-2041 -2159 2318 0
-2041 -2160 2319 0
-2041 -2161 2320 0
-2041 -2162 2321 0
-2041 -2163 2322 0
-2041 -2164 2323 0
-2041 -2165 2324 0
-2041 -2166 2325 0
-2041 -2167 2326 0
-2041 -2168 2327 0
-2041 -2169 2328 0
-2041 -2170 2329 0
-2041 -2171 2330 0
-2041 -2172 2331 0
-2041 -2173 2332 0
-2041 -2174 2333 0
-2041 -2175 2334 0
-2041 -2176 2335 0
-2041 -2177 2336 0
-2041 -2178 2337 0
-2041 -2179 2338 0
-2041 -2180 2339 0
-2041 -2181 2340 0
-2041 -2182 2341 0
-2041 -2183 2342 0
-2041 -2184 2343 0
-2041 -2185 2344 0
-2041 -2186 2345 0
-2041 -2187 2346 0
-2041 -2188 2347 0
-2041 -2189 2348 0
-2041 -2190 2349 0
-2041 -2191 2350 0
-2041 -2192 2351 0
-2041 -2193 2352 0
-2041 -2194 2353 0
-2041 -2195 2354 0
-2041 -2196 2355 0
-2041 -2197 2356 0
-2041 -2198 2357 0
-2041 -2199 2358 0
-2041 -2200 2359 0
-2041 -2201 2360 0
-2041 -2202 2361 0
-2041 -2203 2362 0
-2041 -2204 2363 0
-2041 -2205 2364 0
-2041 -2206 2365 0
-2042 -2099 2259 0
-2042 -2100 2260 0
-2042 -2101 2261 0
-2042 -2102 2262 0
-2042 -2103 2263 0
-2042 -2104 2264 0
-2042 -2105 2265 0
-2042 -2106 2266 0
-2042 -2107 2267 0
-2042 -2108 2268 0
-2042 -2109 2269 0
-2042 -2110 2270 0
-2042 -2111 2271 0
-2042 -2112 2272 0
-2042 -2113 2273 0
-2042 -2114 2274 0
-2042 -2115 2275 0
-2042 -2116 2276 0
-2042 -2117 2277 0
-2042 -2118 2278 0
-2042 -2119 2279 0
-2042 -2120 2280 0
-2042 -2121 2281 0
-2042 -2122 2282 0
-2042 -2123 2283 0
-2042 -2124 2284 0
-2042 -2125 2285 0
-2042 -2126 2286 0
-2042 -2127 2287 0
-2042 -2128 2288 0
-2042 -2129 2289 0
-2042 -2130 2290 0
-2042 -2131 2291 0
-2042 -2132 2292 0
-2042 -2133 2293 0
-2042 -2134 2294 0
-2042 -2135 2295 0
-2042 -2136 2296 0
-2042 -2137 2297 0
-2042 -2138 2298 0
-2042 -2139 2299 0
-2042 -2140 2300 0
-2042 -2141 2301 0
-2042 -2142 2302 0
-2042 -2143 2303 0
-2042 -2144 2304 0
-2042 -2145 2305 0
-2042 -2146 2306 0
-2042 -2147 2307 0
-2042 -2148 2308 0
-2042 -2149 2309 0
-2042 -2150 2310 0
-2042 -2151 2311 0
-2042 -2152 2312 0
-2042 -2153 2313 0
-2042 -2154 2314 0
-2042 -2155 2315 0
-2042 -2156 2316 0
-2042 -2157 2317 0
-2042 -2158 2318 0
-2042 -2159 2319 0
-2042 -2160 2320 0
-2042 -2161 2321 0
-2042 -2162 2322 0
-2042 -2163 2323 0
-2042 -2164 2324 0
-2042 -2165 2325 0
-2042 -2166 2326 0
-2042 -2167 2327 0
-2042 -2168 2328 0
-2042 -2169 2329 0
-2042 -2170 2330 0
-2042 -2171 2331 0
-2042 -2172 2332 0
-2042 -2173 2333 0
-2042 -2174 2334 0
-2042 -2175 2335 0
-2042 -2176 2336 0
-2042 -2177 2337 0
-2042 -2178 2338 0
-2042 -2179 2339 0
-2042 -2180 2340 0
-2042 -2181 2341 0
-2042 -2182 2342 0
-2042 -2183 2343 0
-2042 -2184 2344 0
-2042 -2185 2345 0
-2042 -2186 2346 0
-2042 -2187 2347 0
-2042 -2188 2348 0
-2042 -2189 2349 0
-2042 -2190 2350 0
-2042 -2191 2351 0
-2042 -2192 2352 0
-2042 -2193 2353 0
-2042 -2194 2354 0
-2042 -2195 2355 0
-2042 -2196 2356 0
-2042 -2197 2357 0
-2042 -2198 2358 0
-2042 -2199 2359 0
-2042 -2200 2360 0
-2042 -2201 2361 0
-2042 -2202 2362 0
-2042 -2203 2363 0
-2042 -2204 2364 0
-2042 -2205 2365 0
-2043 -2099 2260 0
-2043 -2100 2261 0
-2043 -2101 2262 0
-2043 -2102 2263 0
-2043 -2103 2264 0
-2043 -2104 2265 0
-2043 -2105 2266 0
-2043 -2106 2267 0
-2043 -2107 2268 0
-2043 -2108 2269 0
-2043 -2109 2270 0
-2043 -2110 2271 0
-2043 -2111 2272 0
-2043 -2112 2273 0
-2043 -2113 2274 0
-2043 -2114 2275 0
-2043 -2115 2276 0
-2043 -2116 2277 0
-2043 -2117 2278 0
-2043 -2118 2279 0
-2043 -2119 2280 0
-2043 -2120 2281 0
-2043 -2121 2282 0
-2043 -2122 2283 0
-2043 -2123 2284 0
-2043 -2124 2285 0
-2043 -2125 2286 0
-2043 -2126 2287 0
-2043 -2127 2288 0
-2043 -2128 2289 0
-2043 -2129 2290 0
-2043 -2130 2291 0
-2043 -2131 2292 0
-2043 -2132 2293 0
-2043 -2133 2294 0
-2043 -2134 2295 0
-2043 -2135 2296 0
-2043 -2136 2297 0
-2043 -2137 2298 0
-2043 -2138 2299 0
-2043 -2139 2300 0
-2043 -2140 2301 0
-2043 -2141 2302 0
-2043 -2142 2303 0
-2043 -2143 2304 0
-2043 -2144 2305 0
-2043 -2145 2306 0
-2043 -2146 2307 0
-2043 -2147 2308 0
-2043 -2148 2309 0
-2043 -2149 2310 0
-2043 -2150 2311 0
-2043 -2151 2312 0
-2043 -2152 2313 0
-2043 -2153 2314 0
-2043 -2154 2315 0
-2043 -2155 2316 0
-2043 -2156 2317 0
-2043 -2157 2318 0
-2043 -2158 2319 0
-2043 -2159 2320 0
-2043 -2160 2321 0
-2043 -2161 2322 0
-2043 -2162 2323 0
-2043 -2163 2324 0
-2043 -2164 2325 0
-2043 -2165 2326 0
-2043 -2166 2327 0
-2043 -2167 2328 0
-2043 -2168 2329 0
-2043 -2169 2330 0
-2043 -2170 2331 0
-2043 -2171 2332 0
-2043 -2172 2333 0
-2043 -2173 2334 0
-2043 -2174 2335 0
-2043 -2175 2336 0
-2043 -2176 2337 0
-2043 -2177 2338 0
-2043 -2178 2339 0
-2043 -2179 2340 0
-2043 -2180 2341 0
-2043 -2181 2342 0
-2043 -2182 2343 0
-2043 -2183 2344 0
-2043 -2184 2345 0
-2043 -2185 2346 0
-2043 -2186 2347 0
-2043 -2187 2348 0
-2043 -2188 2349 0
-2043 -2189 2350 0
-2043 -2190 2351 0
-2043 -2191 2352 0
-2043 -2192 2353 0
-2043 -2193 2354 0
-2043 -2194 2355 0
-2043 -2195 2356 0
-2043 -2196 2357 0
-2043 -2197 2358 0
-2043 -2198 2359 0
-2043 -2199 2360 0
-2043 -2200 2361 0
-2043 -2201 2362 0
-2043 -2202 2363 0
-2043 -2203 2364 0
-2043 -2204 2365 0
-2044 -2099 2261 0
-2044 -2100 2262 0
-2044 -2101 2263 0
-2044 -2102 2264 0
-2044 -2103 2265 0
-2044 -2104 2266 0
-2044 -2105 2267 0
-2044 -2106 2268 0
-2044 -2107 2269 0
-2044 -2108 2270 0
-2044 -2109 2271 0
-2044 -2110 2272 0
-2044 -2111 2273 0
-2044 -2112 2274 0
-2044 -2113 2275 0
-2044 -2114 2276 0
-2044 -2115 2277 0
-2044 -2116 2278 0
-2044 -2117 2279 0
-2044 -2118 2280 0
-2044 -2119 2281 0
-2044 -2120 2282 0
-2044 -2121 2283 0
-2044 -2122 2284 0
-2044 -2123 2285 0
-2044 -2124 2286 0
-2044 -2125 2287 0
-2044 -2126 2288 0
-2044 -2127 2289 0
-2044 -2128 2290 0
-2044 -2129 2291 0
-2044 -2130 2292 0
-2044 -2131 2293 0
-2044 -2132 2294 0
-2044 -2133 2295 0
-2044 -2134 2296 0
-2044 -2135 2297 0
-2044 -2136 2298 0
-2044 -2137 2299 0
-2044 -2138 2300 0
-2044 -2139 2301 0
-2044 -2140 2302 0
-2044 -2141 2303 0
-2044 -2142 2304 0
-2044 -2143 2305 0
-2044 -2144 2306 0
-2044 -2145 2307 0
-2044 -2146 2308 0
-2044 -2147 2309 0
-2044 -2148 2310 0
-2044 -2149 2311 0
-2044 -2150 2312 0
-2044 -2151 2313 0
-2044 -2152 2314 0
-2044 -2153 2315 0
-2044 -2154 2316 0
-2044 -2155 2317 0
-2044 -2156 2318 0
-2044 -2157 2319 0
-2044 -2158 2320 0
-2044 -2159 2321 0
-2044 -2160 2322 0
-2044 -2161 2323 0
-2044 -2162 2324 0
-2044 -2163 2325 0
-2044 -2164 2326 0
-2044 -2165 2327 0
-2044 -2166 2328 0
-2044 -2167 2329 0
-2044 -2168 2330 0
-2044 -2169 2331 0
-2044 -2170 2332 0
-2044 -2171 2333 0
-2044 -2172 2334 0
-2044 -2173 2335 0
-2044 -2174 2336 0
-2044 -2175 2337 0
-2044 -2176 2338 0
-2044 -2177 2339 0
-2044 -2178 2340 0
-2044 -2179 2341 0
-2044 -2180 2342 0
-2044 -2181 2343 0
-2044 -2182 2344 0
-2044 -2183 2345 0
-2044 -2184 2346 0
-2044 -2185 2347 0
-2044 -2186 2348 0
-2044 -2187 2349 0
-2044 -2188 2350 0
-2044 -2189 2351 0
-2044 -2190 2352 0
-2044 -2191 2353 0
-2044 -2192 2354 0
-2044 -2193 2355 0
-2044 -2194 2356 0
-2044 -2195 2357 0
-2044 -2196 2358 0
-2044 -2197 2359 0
-2044 -2198 2360 0
-2044 -2199 2361 0
-2044 -2200 2362 0
-2044 -2201 2363 0
-2044 -2202 2364 0
-2044 -2203 2365 0
-2045 -2099 2262 0
-2045 -2100 2263 0
-2045 -2101 2264 0
-2045 -2102 2265 0
-2045 -2103 2266 0
-2045 -2104 2267 0
-2045 -2105 2268 0
-2045 -2106 2269 0
-2045 -2107 2270 0
-2045 -2108 2271 0
-2045 -2109 2272 0
-2045 -2110 2273 0
-2045 -2111 2274 0
-2045 -2112 2275 0
-2045 -2113 2276 0
-2045 -2114 2277 0
-2045 -2115 2278 0
-2045 -2116 2279 0
-2045 -2117 2280 0
-2045 -2118 2281 0
-2045 -2119 2282 0
-2045 -2120 2283 0
-2045 -2121 2284 0
-2045 -2122 2285 0
-2045 -2123 2286 0
-2045 -2124 2287 0
-2045 -2125 2288 0
-2045 -2126 2289 0
-2045 -2127 2290 0
-2045 -2128 2291 0
-2045 -2129 2292 0
-2045 -2130 2293 0
-2045 -2131 2294 0
-2045 -2132 2295 0
-2045 -2133 2296 0
-2045 -2134 2297 0
-2045 -2135 2298 0
-2045 -2136 2299 0
-2045 -2137 2300 0
-2045 -2138 2301 0
-2045 -2139 2302 0
-2045 -2140 2303 0
-2045 -2141 2304 0
-2045 -2142 2305 0
-2045 -2143 2306 0
-2045 -2144 2307 0
-2045 -2145 2308 0
-2045 -2146 2309 0
-2045 -2147 2310 0
-2045 -2148 2311 0
-2045 -2149 2312 0
-2045 -2150 2313 0
-2045 -2151 2314 0
-2045 -2152 2315 0
-2045 -2153 2316 0
-2045 -2154 2317 0
-2045 -2155 2318 0
-2045 -2156 2319 0
-2045 -2157 2320 0
-2045 -2158 2321 0
-2045 -2159 2322 0
-2045 -2160 2323 0
-2045 -2161 2324 0
-2045 -2162 2325 0
-2045 -2163 2326 0
-2045 -2164 2327 0
-2045 -2165 2328 0
-2045 -2166 2329 0
-2045 -2167 2330 0
-2045 -2168 2331 0
-2045 -2169 2332 0
-2045 -2170 2333 0
-2045 -2171 2334 0
-2045 -2172 2335 0
-2045 -2173 2336 0
-2045 -2174 2337 0
-2045 -2175 2338 0
-2045 -2176 2339 0
-2045 -2177 2340 0
-2045 -2178 2341 0
-2045 -2179 2342 0
-2045 -2180 2343 0
-2045 -2181 2344 0
-2045 -2182 2345 0
-2045 -2183 2346 0
-2045 -2184 2347 0
-2045 -2185 2348 0
-2045 -2186 2349 0
-2045 -2187 2350 0
-2045 -2188 2351 0
-2045 -2189 2352 0
-2045 -2190 2353 0
-2045 -2191 2354 0
-2045 -2192 2355 0
-2045 -2193 2356 0
-2045 -2194 2357 0
-2045 -2195 2358 0
-2045 -2196 2359 0
-2045 -2197 2360 0
-2045 -2198 2361 0
-2045 -2199 2362 0
-2045 -2200 2363 0
-2045 -2201 2364 0
-2045 -2202 2365 0
-2046 -2099 2263 0
-2046 -2100 2264 0
-2046 -2101 2265 0
-2046 -2102 2266 0
-2046 -2103 2267 0
-2046 -2104 2268 0
-2046 -2105 2269 0
-2046 -2106 2270 0
-2046 -2107 2271 0
-2046 -2108 2272 0
-2046 -2109 2273 0
-2046 -2110 2274 0
-2046 -2111 2275 0
-2046 -2112 2276 0
-2046 -2113 2277 0
-2046 -2114 2278 0
-2046 -2115 2279 0
-2046 -2116 2280 0
-2046 -2117 2281 0
-2046 -2118 2282 0
-2046 -2119 2283 0
-2046 -2120 2284 0
-2046 -2121 2285 0
-2046 -2122 2286 0
-2046 -2123 2287 0
-2046 -2124 2288 0
-2046 -2125 2289 0
-2046 -2126 2290 0
-2046 -2127 2291 0
-2046 -2128 2292 0
-2046 -2129 2293 0
-2046 -2130 2294 0
-2046 -2131 2295 0
-2046 -2132 2296 0
-2046 -2133 2297 0
-2046 -2134 2298 0
-2046 -2135 2299 0
-2046 -2136 2300 0
-2046 -2137 2301 0
-2046 -2138 2302 0
-2046 -2139 2303 0
-2046 -2140 2304 0
-2046 -2141 2305 0
-2046 -2142 2306 0
-2046 -2143 2307 0
-2046 -2144 2308 0
-2046 -2145 2309 0
-2046 -2146 2310 0
-2046 -2147 2311 0
-2046 -2148 2312 0
-2046 -2149 2313 0
-2046 -2150 2314 0
-2046 -2151 2315 0
-2046 -2152 2316 0
-2046 -2153 2317 0
-2046 -2154 2318 0
-2046 -2155 2319 0
-2046 -2156 2320 0
-2046 -2157 2321 0
-2046 -2158 2322 0
-2046 -2159 2323 0
-2046 -2160 2324 0
-2046 -2161 2325 0
-2046 -2162 2326 0
-2046 -2163 2327 0
-2046 -2164 2328 0
-2046 -2165 2329 0
-2046 -2166 2330 0
-2046 -2167 2331 0
-2046 -2168 2332 0
-2046 -2169 2333 0
-2046 -2170 2334 0
-2046 -2171 2335 0
-2046 -2172 2336 0
-2046 -2173 2337 0
-2046 -2174 2338 0
-2046 -2175 2339 0
-2046 -2176 2340 0
-2046 -2177 2341 0
-2046 -2178 2342 0
-2046 -2179 2343 0
-2046 -2180 2344 0
-2046 -2181 2345 0
-2046 -2182 2346 0
-2046 -2183 2347 0
-2046 -2184 2348 0
-2046 -2185 2349 0
-2046 -2186 2350 0
-2046 -2187 2351 0
-2046 -2188 2352 0
-2046 -2189 2353 0
-2046 -2190 2354 0
-2046 -2191 2355 0
-2046 -2192 2356 0
-2046 -2193 2357 0
-2046 -2194 2358 0
-2046 -2195 2359 0
-2046 -2196 2360 0
-2046 -2197 2361 0
-2046 -2198 2362 0
-2046 -2199 2363 0
-2046 -2200 2364 0
-2046 -2201 2365 0
-2047 -2099 2264 0
-2047 -2100 2265 0
-2047 -2101 2266 0
-2047 -2102 2267 0
-2047 -2103 2268 0
-2047 -2104 2269 0
-2047 -2105 2270 0
-2047 -2106 2271 0
-2047 -2107 2272 0
-2047 -2108 2273 0
-2047 -2109 2274 0
-2047 -2110 2275 0
-2047 -2111 2276 0
-2047 -2112 2277 0
-2047 -2113 2278 0
-2047 -2114 2279 0
-2047 -2115 2280 0
-2047 -2116 2281 0
-2047 -2117 2282 0
-2047 -2118 2283 0
-2047 -2119 2284 0
-2047 -2120 2285 0
-2047 -2121 2286 0
-2047 -2122 2287 0
-2047 -2123 2288 0
-2047 -2124 2289 0
-2047 -2125 2290 0
-2047 -2126 2291 0
-2047 -2127 2292 0
-2047 -2128 2293 0
-2047 -2129 2294 0
-2047 -2130 2295 0
-2047 -2131 2296 0
-2047 -2132 2297 0
-2047 -2133 2298 0
-2047 -2134 2299 0
-2047 -2135 2300 0
-2047 -2136 2301 0
-2047 -2137 2302 0
-2047 -2138 2303 0
-2047 -2139 2304 0
-2047 -2140 2305 0
-2047 -2141 2306 0
-2047 -2142 2307 0
-2047 -2143 2308 0
-2047 -2144 2309 0
-2047 -2145 2310 0
-2047 -2146 2311 0
-2047 -2147 2312 0
-2047 -2148 2313 0
-2047 -2149 2314 0
-2047 -2150 2315 0
-2047 -2151 2316 0
-2047 -2152 2317 0
-2047 -2153 2318 0
-2047 -2154 2319 0
-2047 -2155 2320 0
-2047 -2156 2321 0
-2047 -2157 2322 0
-2047 -2158 2323 0
-2047 -2159 2324 0
-2047 -2160 2325 0
-2047 -2161 2326 0
-2047 -2162 2327 0
-2047 -2163 2328 0
-2047 -2164 2329 0
-2047 -2165 2330 0
-2047 -2166 2331 0
-2047 -2167 2332 0
-2047 -2168 2333 0
-2047 -2169 2334 0
-2047 -2170 2335 0
-2047 -2171 2336 0
-2047 -2172 2337 0
-2047 -2173 2338 0
-2047 -2174 2339 0
-2047 -2175 2340 0
-2047 -2176 2341 0
-2047 -2177 2342 0
-2047 -2178 2343 0
-2047 -2179 2344 0
-2047 -2180 2345 0
-2047 -2181 2346 0
-2047 -2182 2347 0
-2047 -2183 2348 0
-2047 -2184 2349 0
-2047 -2185 2350 0
-2047 -2186 2351 0
-2047 -2187 2352 0
-2047 -2188 2353 0
-2047 -2189 2354 0
-2047 -2190 2355 0
-2047 -2191 2356 0
-2047 -2192 2357 0
-2047 -2193 2358 0
-2047 -2194 2359 0
-2047 -2195 2360 0
-2047 -2196 2361 0
-2047 -2197 2362 0
-2047 -2198 2363 0
-2047 -2199 2364 0
-2047 -2200 2365 0
-2048 -2099 2265 0
-2048 -2100 2266 0
-2048 -2101 2267 0
-2048 -2102 2268 0
-2048 -2103 2269 0
-2048 -2104 2270 0
-2048 -2105 2271 0
-2048 -2106 2272 0
-2048 -2107 2273 0
-2048 -2108 2274 0
-2048 -2109 2275 0
-2048 -2110 2276 0
-2048 -2111 2277 0
-2048 -2112 2278 0
-2048 -2113 2279 0
-2048 -2114 2280 0
-2048 -2115 2281 0
-2048 -2116 2282 0
-2048 -2117 2283 0
-2048 -2118 2284 0
-2048 -2119 2285 0
-2048 -2120 2286 0
-2048 -2121 2287 0
-2048 -2122 2288 0
-2048 -2123 2289 0
-2048 -2124 2290 0
-2048 -2125 2291 0
-2048 -2126 2292 0
-2048 -2127 2293 0
-2048 -2128 2294 0
-2048 -2129 2295 0
-2048 -2130 2296 0
-2048 -2131 2297 0
-2048 -2132 2298 0
-2048 -2133 2299 0
-2048 -2134 2300 0
-2048 -2135 2301 0
-2048 -2136 2302 0
-2048 -2137 2303 0
-2048 -2138 2304 0
-2048 -2139 2305 0
-2048 -2140 2306 0
-2048 -2141 2307 0
-2048 -2142 2308 0
-2048 -2143 2309 0
-2048 -2144 2310 0
-2048 -2145 2311 0
-2048 -2146 2312 0
-2048 -2147 2313 0
-2048 -2148 2314 0
-2048 -2149 2315 0
-2048 -2150 2316 0
-2048 -2151 2317 0
-2048 -2152 2318 0
-2048 -2153 2319 0
-2048 -2154 2320 0
-2048 -2155 2321 0
-2048 -2156 2322 0
-2048 -2157 2323 0
-2048 -2158 2324 0
-2048 -2159 2325 0
-2048 -2160 2326 0
-2048 -2161 2327 0
-2048 -2162 2328 0
-2048 -2163 2329 0
-2048 -2164 2330 0
-2048 -2165 2331 0
-2048 -2166 2332 0
-2048 -2167 2333 0
-2048 -2168 2334 0
-2048 -2169 2335 0
-2048 -2170 2336 0
-2048 -2171 2337 0
-2048 -2172 2338 0
-2048 -2173 2339 0
-2048 -2174 2340 0
-2048 -2175 2341 0
-2048 -2176 2342 0
-2048 -2177 2343 0
-2048 -2178 2344 0
-2048 -2179 2345 0
-2048 -2180 2346 0
-2048 -2181 2347 0
-2048 -2182 2348 0
-2048 -2183 2349 0
-2048 -2184 2350 0
-2048 -2185 2351 0
-2048 -2186 2352 0
-2048 -2187 2353 0
-2048 -2188 2354 0
-2048 -2189 2355 0
-2048 -2190 2356 0
-2048 -2191 2357 0
-2048 -2192 2358 0
-2048 -2193 2359 0
-2048 -2194 2360 0
-2048 -2195 2361 0
-2048 -2196 2362 0
-2048 -2197 2363 0
-2048 -2198 2364 0
-2048 -2199 2365 0
-2049 -2099 2266 0
-2049 -2100 2267 0
-2049 -2101 2268 0
-2049 -2102 2269 0
-2049 -2103 2270 0
-2049 -2104 2271 0
-2049 -2105 2272 0
-2049 -2106 2273 0
-2049 -2107 2274 0
-2049 -2108 2275 0
-2049 -2109 2276 0
-2049 -2110 2277 0
-2049 -2111 2278 0
-2049 -2112 2279 0
-2049 -2113 2280 0
-2049 -2114 2281 0
-2049 -2115 2282 0
-2049 -2116 2283 0
-2049 -2117 2284 0
-2049 -2118 2285 0
-2049 -2119 2286 0
-2049 -2120 2287 0
-2049 -2121 2288 0
-2049 -2122 2289 0
-2049 -2123 2290 0
-2049 -2124 2291 0
-2049 -2125 2292 0
-2049 -2126 2293 0
-2049 -2127 2294 0
-2049 -2128 2295 0
-2049 -2129 2296 0
-2049 -2130 2297 0
-2049 -2131 2298 0
-2049 -2132 2299 0
-2049 -2133 2300 0
-2049 -2134 2301 0
-2049 -2135 2302 0
-2049 -2136 2303 0
-2049 -2137 2304 0
-2049 -2138 2305 0
-2049 -2139 2306 0
-2049 -2140 2307 0
-2049 -2141 2308 0
-2049 -2142 2309 0
-2049 -2143 2310 0
-2049 -2144 2311 0
-2049 -2145 2312 0
-2049 -2146 2313 0
-2049 -2147 2314 0
-2049 -2148 2315 0
-2049 -2149 2316 0
-2049 -2150 2317 0
-2049 -2151 2318 0
-2049 -2152 2319 0
-2049 -2153 2320 0
-2049 -2154 2321 0
-2049 -2155 2322 0
-2049 -2156 2323 0
-2049 -2157 2324 0
-2049 -2158 2325 0
-2049 -2159 2326 0
-2049 -2160 2327 0
-2049 -2161 2328 0
-2049 -2162 2329 0
-2049 -2163 2330 0
-2049 -2164 2331 0
-2049 -2165 2332 0
-2049 -2166 2333 0
-2049 -2167 2334 0
-2049 -2168 2335 0
-2049 -2169 2336 0
-2049 -2170 2337 0
-2049 -2171 2338 0
-2049 -2172 2339 0
-2049 -2173 2340 0
-2049 -2174 2341 0
-2049 -2175 2342 0
-2049 -2176 2343 0
-2049 -2177 2344 0
-2049 -2178 2345 0
-2049 -2179 2346 0
-2049 -2180 2347 0
-2049 -2181 2348 0
-2049 -2182 2349 0
-2049 -2183 2350 0
-2049 -2184 2351 0
-2049 -2185 2352 0
-2049 -2186 2353 0
-2049 -2187 2354 0
-2049 -2188 2355 0
-2049 -2189 2356 0
-2049 -2190 2357 0
-2049 -2191 2358 0
-2049 -2192 2359 0
-2049 -2193 2360 0
-2049 -2194 2361 0
-2049 -2195 2362 0
-2049 -2196 2363 0
-2049 -2197 2364 0
-2049 -2198 2365 0
-2050 -2099 2267 0
-2050 -2100 2268 0
-2050 -2101 2269 0
-2050 -2102 2270 0
-2050 -2103 2271 0
-2050 -2104 2272 0
-2050 -2105 2273 0
-2050 -2106 2274 0
-2050 -2107 2275 0
-2050 -2108 2276 0
-2050 -2109 2277 0
-2050 -2110 2278 0
-2050 -2111 2279 0
-2050 -2112 2280 0
-2050 -2113 2281 0
-2050 -2114 2282 0
-2050 -2115 2283 0
-2050 -2116 2284 0
-2050 -2117 2285 0
-2050 -2118 2286 0
-2050 -2119 2287 0
-2050 -2120 2288 0
-2050 -2121 2289 0
-2050 -2122 2290 0
-2050 -2123 2291 0
-2050 -2124 2292 0
-2050 -2125 2293 0
-2050 -2126 2294 0
-2050 -2127 2295 0
-2050 -2128 2296 0
-2050 -2129 2297 0
-2050 -2130 2298 0
-2050 -2131 2299 0
-2050 -2132 2300 0
-2050 -2133 2301 0
-2050 -2134 2302 0
-2050 -2135 2303 0
-2050 -2136 2304 0
-2050 -2137 2305 0
-2050 -2138 2306 0
-2050 -2139 2307 0
-2050 -2140 2308 0
-2050 -2141 2309 0
-2050 -2142 2310 0
-2050 -2143 2311 0
-2050 -2144 2312 0
-2050 -2145 2313 0
-2050 -2146 2314 0
-2050 -2147 2315 0
-2050 -2148 2316 0
-2050 -2149 2317 0
-2050 -2150 2318 0
-2050 -2151 2319 0
-2050 -2152 2320 0
-2050 -2153 2321 0
-2050 -2154 2322 0
-2050 -2155 2323 0
-2050 -2156 2324 0
-2050 -2157 2325 0
-2050 -2158 2326 0
-2050 -2159 2327 0
-2050 -2160 2328 0
-2050 -2161 2329 0
-2050 -2162 2330 0
-2050 -2163 2331 0
-2050 -2164 2332 0
-2050 -2165 2333 0
-2050 -2166 2334 0
-2050 -2167 2335 0
-2050 -2168 2336 0
-2050 -2169 2337 0
-2050 -2170 2338 0
-2050 -2171 2339 0
-2050 -2172 2340 0
-2050 -2173 2341 0
-2050 -2174 2342 0
-2050 -2175 2343 0
-2050 -2176 2344 0
-2050 -2177 2345 0
-2050 -2178 2346 0
-2050 -2179 2347 0
-2050 -2180 2348 0
-2050 -2181 2349 0
-2050 -2182 2350 0
-2050 -2183 2351 0
-2050 -2184 2352 0
-2050 -2185 2353 0
-2050 -2186 2354 0
-2050 -2187 2355 0
-2050 -2188 2356 0
-2050 -2189 2357 0
-2050 -2190 2358 0
-2050 -2191 2359 0
-2050 -2192 2360 0
-2050 -2193 2361 0
-2050 -2194 2362 0
-2050 -2195 2363 0
-2050 -2196 2364 0
-2050 -2197 2365 0
-2051 -2099 2268 0
-2051 -2100 2269 0
-2051 -2101 2270 0
-2051 -2102 2271 0
-2051 -2103 2272 0
-2051 -2104 2273 0
-2051 -2105 2274 0
-2051 -2106 2275 0
-2051 -2107 2276 0
-2051 -2108 2277 0
-2051 -2109 2278 0
-2051 -2110 2279 0
-2051 -2111 2280 0
-2051 -2112 2281 0
-2051 -2113 2282 0
-2051 -2114 2283 0
-2051 -2115 2284 0
-2051 -2116 2285 0
-2051 -2117 2286 0
-2051 -2118 2287 0
-2051 -2119 2288 0
-2051 -2120 2289 0
-2051 -2121 2290 0
-2051 -2122 2291 0
-2051 -2123 2292 0
-2051 -2124 2293 0
-2051 -2125 2294 0
-2051 -2126 2295 0
-2051 -2127 2296 0
-2051 -2128 2297 0
-2051 -2129 2298 0
-2051 -2130 2299 0
-2051 -2131 2300 0
-2051 -2132 2301 0
-2051 -2133 2302 0
-2051 -2134 2303 0
-2051 -2135 2304 0
-2051 -2136 2305 0
-2051 -2137 2306 0
-2051 -2138 2307 0
-2051 -2139 2308 0
-2051 -2140 2309 0
-2051 -2141 2310 0
-2051 -2142 2311 0
-2051 -2143 2312 0
-2051 -2144 2313 0
-2051 -2145 2314 0
-2051 -2146 2315 0
-2051 -2147 2316 0
-2051 -2148 2317 0
-2051 -2149 2318 0
-2051 -2150 2319 0
-2051 -2151 2320 0
-2051 -2152 2321 0
-2051 -2153 2322 0
-2051 -2154 2323 0
-2051 -2155 2324 0
-2051 -2156 2325 0
-2051 -2157 2326 0
-2051 -2158 2327 0
-2051 -2159 2328 0
-2051 -2160 2329 0
-2051 -2161 2330 0
-2051 -2162 2331 0
-2051 -2163 2332 0
-2051 -2164 2333 0
-2051 -2165 2334 0
-2051 -2166 2335 0
-2051 -2167 2336 0
-2051 -2168 2337 0
-2051 -2169 2338 0
-2051 -2170 2339 0
-2051 -2171 2340 0
-2051 -2172 2341 0
-2051 -2173 2342 0
-2051 -2174 2343 0
-2051 -2175 2344 0
-2051 -2176 2345 0
-2051 -2177 2346 0
-2051 -2178 2347 0
-2051 -2179 2348 0
-2051 -2180 2349 0
-2051 -2181 2350 0
-2051 -2182 2351 0
-2051 -2183 2352 0
-2051 -2184 2353 0
-2051 -2185 2354 0
-2051 -2186 2355 0
-2051 -2187 2356 0
-2051 -2188 2357 0
-2051 -2189 2358 0
-2051 -2190 2359 0
-2051 -2191 2360 0
-2051 -2192 2361 0
-2051 -2193 2362 0
-2051 -2194 2363 0
-2051 -2195 2364 0
-2051 -2196 2365 0
-2052 -2099 2269 0
-2052 -2100 2270 0
-2052 -2101 2271 0
-2052 -2102 2272 0
-2052 -2103 2273 0
-2052 -2104 2274 0
-2052 -2105 2275 0
-2052 -2106 2276 0
-2052 -2107 2277 0
-2052 -2108 2278 0
-2052 -2109 2279 0
-2052 -2110 2280 0
-2052 -2111 2281 0
-2052 -2112 2282 0
-2052 -2113 2283 0
-2052 -2114 2284 0
-2052 -2115 2285 0
-2052 -2116 2286 0
-2052 -2117 2287 0
-2052 -2118 2288 0
-2052 -2119 2289 0
-2052 -2120 2290 0
-2052 -2121 2291 0
-2052 -2122 2292 0
-2052 -2123 2293 0
-2052 -2124 2294 0
-2052 -2125 2295 0
-2052 -2126 2296 0
-2052 -2127 2297 0
-2052 -2128 2298 0
-2052 -2129 2299 0
-2052 -2130 2300 0
-2052 -2131 2301 0
-2052 -2132 2302 0
-2052 -2133 2303 0
-2052 -2134 2304 0
-2052 -2135 2305 0
-2052 -2136 2306 0
-2052 -2137 2307 0
-2052 -2138 2308 0
-2052 -2139 2309 0
-2052 -2140 2310 0
-2052 -2141 2311 0
-2052 -2142 2312 0
-2052 -2143 2313 0
-2052 -2144 2314 0
-2052 -2145 2315 0
-2052 -2146 2316 0
-2052 -2147 2317 0
-2052 -2148 2318 0
-2052 -2149 2319 0
-2052 -2150 2320 0
-2052 -2151 2321 0
-2052 -2152 2322 0
-2052 -2153 2323 0
-2052 -2154 2324 0
-2052 -2155 2325 0
-2052 -2156 2326 0
-2052 -2157 2327 0
-2052 -2158 2328 0
-2052 -2159 2329 0
-2052 -2160 2330 0
-2052 -2161 2331 0
-2052 -2162 2332 0
-2052 -2163 2333 0
-2052 -2164 2334 0
-2052 -2165 2335 0
-2052 -2166 2336 0
-2052 -2167 2337 0
-2052 -2168 2338 0
-2052 -2169 2339 0
-2052 -2170 2340 0
-2052 -2171 2341 0
-2052 -2172 2342 0
-2052 -2173 2343 0
-2052 -2174 2344 0
-2052 -2175 2345 0
-2052 -2176 2346 0
-2052 -2177 2347 0
-2052 -2178 2348 0
-2052 -2179 2349 0
-2052 -2180 2350 0
-2052 -2181 2351 0
-2052 -2182 2352 0
-2052 -2183 2353 0
-2052 -2184 2354 0
-2052 -2185 2355 0
-2052 -2186 2356 0
-2052 -2187 2357 0
-2052 -2188 2358 0
-2052 -2189 2359 0
-2052 -2190 2360 0
-2052 -2191 2361 0
-2052 -2192 2362 0
-2052 -2193 2363 0
-2052 -2194 2364 0
-2052 -2195 2365 0
-2053 -2099 2270 0
-2053 -2100 2271 0
-2053 -2101 2272 0
-2053 -2102 2273 0
-2053 -2103 2274 0
-2053 -2104 2275 0
-2053 -2105 2276 0
-2053 -2106 2277 0
-2053 -2107 2278 0
-2053 -2108 2279 0
-2053 -2109 2280 0
-2053 -2110 2281 0
-2053 -2111 2282 0
-2053 -2112 2283 0
-2053 -2113 2284 0
-2053 -2114 2285 0
-2053 -2115 2286 0
-2053 -2116 2287 0
-2053 -2117 2288 0
-2053 -2118 2289 0
-2053 -2119 2290 0
-2053 -2120 2291 0
-2053 -2121 2292 0
-2053 -2122 2293 0
-2053 -2123 2294 0
-2053 -2124 2295 0
-2053 -2125 2296 0
-2053 -2126 2297 0
-2053 -2127 2298 0
-2053 -2128 2299 0
-2053 -2129 2300 0
-2053 -2130 2301 0
-2053 -2131 2302 0
-2053 -2132 2303 0
-2053 -2133 2304 0
-2053 -2134 2305 0
-2053 -2135 2306 0
-2053 -2136 2307 0
-2053 -2137 2308 0
-2053 -2138 2309 0
-2053 -2139 2310 0
-2053 -2140 2311 0
-2053 -2141 2312 0
-2053 -2142 2313 0
-2053 -2143 2314 0
-2053 -2144 2315 0
-2053 -2145 2316 0
-2053 -2146 2317 0
-2053 -2147 2318 0
-2053 -2148 2319 0
-2053 -2149 2320 0
-2053 -2150 2321 0
-2053 -2151 2322 0
-2053 -2152 2323 0
-2053 -2153 2324 0
-2053 -2154 2325 0
-2053 -2155 2326 0
-2053 -2156 2327 0
-2053 -2157 2328 0
-2053 -2158 2329 0
-2053 -2159 2330 0
-2053 -2160 2331 0
-2053 -2161 2332 0
-2053 -2162 2333 0
-2053 -2163 2334 0
-2053 -2164 2335 0
-2053 -2165 2336 0
-2053 -2166 2337 0
-2053 -2167 2338 0
-2053 -2168 2339 0
-2053 -2169 2340 0
-2053 -2170 2341 0
-2053 -2171 2342 0
-2053 -2172 2343 0
-2053 -2173 2344 0
-2053 -2174 2345 0
-2053 -2175 2346 0
-2053 -2176 2347 0
-2053 -2177 2348 0
-2053 -2178 2349 0
-2053 -2179 2350 0
-2053 -2180 2351 0
-2053 -2181 2352 0
-2053 -2182 2353 0
-2053 -2183 2354 0
-2053 -2184 2355 0
-2053 -2185 2356 0
-2053 -2186 2357 0
-2053 -2187 2358 0
-2053 -2188 2359 0
-2053 -2189 2360 0
-2053 -2190 2361 0
-2053 -2191 2362 0
-2053 -2192 2363 0
-2053 -2193 2364 0
-2053 -2194 2365 0
-2054 -2099 2271 0
-2054 -2100 2272 0
-2054 -2101 2273 0
-2054 -2102 2274 0
-2054 -2103 2275 0
-2054 -2104 2276 0
-2054 -2105 2277 0
-2054 -2106 2278 0
-2054 -2107 2279 0
-2054 -2108 2280 0
-2054 -2109 2281 0
-2054 -2110 2282 0
-2054 -2111 2283 0
-2054 -2112 2284 0
-2054 -2113 2285 0
-2054 -2114 2286 0
-2054 -2115 2287 0
-2054 -2116 2288 0
-2054 -2117 2289 0
-2054 -2118 2290 0
-2054 -2119 2291 0
-2054 -2120 2292 0
-2054 -2121 2293 0
-2054 -2122 2294 0
-2054 -2123 2295 0
-2054 -2124 2296 0
-2054 -2125 2297 0
-2054 -2126 2298 0
-2054 -2127 2299 0
-2054 -2128 2300 0
-2054 -2129 2301 0
-2054 -2130 2302 0
-2054 -2131 2303 0
-2054 -2132 2304 0
-2054 -2133 2305 0
-2054 -2134 2306 0
-2054 -2135 2307 0
-2054 -2136 2308 0
-2054 -2137 2309 0
-2054 -2138 2310 0
-2054 -2139 2311 0
-2054 -2140 2312 0
-2054 -2141 2313 0
-2054 -2142 2314 0
-2054 -2143 2315 0
-2054 -2144 2316 0
-2054 -2145 2317 0
-2054 -2146 2318 0
-2054 -2147 2319 0
-2054 -2148 2320 0
-2054 -2149 2321 0
-2054 -2150 2322 0
-2054 -2151 2323 0
-2054 -2152 2324 0
-2054 -2153 2325 0
-2054 -2154 2326 0
-2054 -2155 2327 0
-2054 -2156 2328 0
-2054 -2157 2329 0
-2054 -2158 2330 0
-2054 -2159 2331 0
-2054 -2160 2332 0
-2054 -2161 2333 0
-2054 -2162 2334 0
-2054 -2163 2335 0
-2054 -2164 2336 0
-2054 -2165 2337 0
-2054 -2166 2338 0
-2054 -2167 2339 0
-2054 -2168 2340 0
-2054 -2169 2341 0
-2054 -2170 2342 0
-2054 -2171 2343 0
-2054 -2172 2344 0
-2054 -2173 2345 0
-2054 -2174 2346 0
-2054 -2175 2347 0
-2054 -2176 2348 0
-2054 -2177 2349 0
-2054 -2178 2350 0
-2054 -2179 2351 0
-2054 -2180 2352 0
-2054 -2181 2353 0
-2054 -2182 2354 0
-2054 -2183 2355 0
-2054 -2184 2356 0
-2054 -2185 2357 0
-2054 -2186 2358 0
-2054 -2187 2359 0
-2054 -2188 2360 0
-2054 -2189 2361 0
-2054 -2190 2362 0
-2054 -2191 2363 0
-2054 -2192 2364 0
-2054 -2193 2365 0
-2055 -2099 2272 0
-2055 -2100 2273 0
-2055 -2101 2274 0
-2055 -2102 2275 0
-2055 -2103 2276 0
-2055 -2104 2277 0
-2055 -2105 2278 0
-2055 -2106 2279 0
-2055 -2107 2280 0
-2055 -2108 2281 0
-2055 -2109 2282 0
-2055 -2110 2283 0
-2055 -2111 2284 0
-2055 -2112 2285 0
-2055 -2113 2286 0
-2055 -2114 2287 0
-2055 -2115 2288 0
-2055 -2116 2289 0
-2055 -2117 2290 0
-2055 -2118 2291 0
-2055 -2119 2292 0
-2055 -2120 2293 0
-2055 -2121 2294 0
-2055 -2122 2295 0
-2055 -2123 2296 0
-2055 -2124 2297 0
-2055 -2125 2298 0
-2055 -2126 2299 0
-2055 -2127 2300 0
-2055 -2128 2301 0
-2055 -2129 2302 0
-2055 -2130 2303 0
-2055 -2131 2304 0
-2055 -2132 2305 0
-2055 -2133 2306 0
-2055 -2134 2307 0
-2055 -2135 2308 0
-2055 -2136 2309 0
-2055 -2137 2310 0
-2055 -2138 2311 0
-2055 -2139 2312 0
-2055 -2140 2313 0
-2055 -2141 2314 0
-2055 -2142 2315 0
-2055 -2143 2316 0
-2055 -2144 2317 0
-2055 -2145 2318 0
-2055 -2146 2319 0
-2055 -2147 2320 0
-2055 -2148 2321 0
-2055 -2149 2322 0
-2055 -2150 2323 0
-2055 -2151 2324 0
-2055 -2152 2325 0
-2055 -2153 2326 0
-2055 -2154 2327 0
-2055 -2155 2328 0
-2055 -2156 2329 0
-2055 -2157 2330 0
-2055 -2158 2331 0
-2055 -2159 2332 0
-2055 -2160 2333 0
-2055 -2161 2334 0
-2055 -2162 2335 0
-2055 -2163 2336 0
-2055 -2164 2337 0
-2055 -2165 2338 0
-2055 -2166 2339 0
-2055 -2167 2340 0
-2055 -2168 2341 0
-2055 -2169 2342 0
-2055 -2170 2343 0
-2055 -2171 2344 0
-2055 -2172 2345 0
-2055 -2173 2346 0
-2055 -2174 2347 0
-2055 -2175 2348 0
-2055 -2176 2349 0
-2055 -2177 2350 0
-2055 -2178 2351 0
-2055 -2179 2352 0
-2055 -2180 2353 0
-2055 -2181 2354 0
-2055 -2182 2355 0
-2055 -2183 2356 0
-2055 -2184 2357 0
-2055 -2185 2358 0
-2055 -2186 2359 0
-2055 -2187 2360 0
-2055 -2188 2361 0
-2055 -2189 2362 0
-2055 -2190 2363 0
-2055 -2191 2364 0
-2055 -2192 2365 0
-2056 -2099 2273 0
-2056 -2100 2274 0
-2056 -2101 2275 0
-2056 -2102 2276 0
-2056 -2103 2277 0
-2056 -2104 2278 0
-2056 -2105 2279 0
-2056 -2106 2280 0
-2056 -2107 2281 0
-2056 -2108 2282 0
-2056 -2109 2283 0
-2056 -2110 2284 0
-2056 -2111 2285 0
-2056 -2112 2286 0
-2056 -2113 2287 0
-2056 -2114 2288 0
-2056 -2115 2289 0
-2056 -2116 2290 0
-2056 -2117 2291 0
-2056 -2118 2292 0
-2056 -2119 2293 0
-2056 -2120 2294 0
-2056 -2121 2295 0
-2056 -2122 2296 0
-2056 -2123 2297 0
-2056 -2124 2298 0
-2056 -2125 2299 0
-2056 -2126 2300 0
-2056 -2127 2301 0
-2056 -2128 2302 0
-2056 -2129 2303 0
-2056 -2130 2304 0
-2056 -2131 2305 0
-2056 -2132 2306 0
-2056 -2133 2307 0
-2056 -2134 2308 0
-2056 -2135 2309 0
-2056 -2136 2310 0
-2056 -2137 2311 0
-2056 -2138 2312 0
-2056 -2139 2313 0
-2056 -2140 2314 0
-2056 -2141 2315 0
-2056 -2142 2316 0
-2056 -2143 2317 0
-2056 -2144 2318 0
-2056 -2145 2319 0
-2056 -2146 2320 0
-2056 -2147 2321 0
-2056 -2148 2322 0
-2056 -2149 2323 0
-2056 -2150 2324 0
-2056 -2151 2325 0
-2056 -2152 2326 0
-2056 -2153 2327 0
-2056 -2154 2328 0
-2056 -2155 2329 0
-2056 -2156 2330 0
-2056 -2157 2331 0
-2056 -2158 2332 0
-2056 -2159 2333 0
-2056 -2160 2334 0
-2056 -2161 2335 0
-2056 -2162 2336 0
-2056 -2163 2337 0
-2056 -2164 2338 0
-2056 -2165 2339 0
-2056 -2166 2340 0
-2056 -2167 2341 0
-2056 -2168 2342 0
-2056 -2169 2343 0
-2056 -2170 2344 0
-2056 -2171 2345 0
-2056 -2172 2346 0
-2056 -2173 2347 0
-2056 -2174 2348 0
-2056 -2175 2349 0
-2056 -2176 2350 0
-2056 -2177 2351 0
-2056 -2178 2352 0
-2056 -2179 2353 0
-2056 -2180 2354 0
-2056 -2181 2355 0
-2056 -2182 2356 0
-2056 -2183 2357 0
-2056 -2184 2358 0
-2056 -2185 2359 0
-2056 -2186 2360 0
-2056 -2187 2361 0
-2056 -2188 2362 0
-2056 -2189 2363 0
-2056 -2190 2364 0
-2056 -2191 2365 0
-2057 -2099 2274 0
-2057 -2100 2275 0
-2057 -2101 2276 0
-2057 -2102 2277 0
-2057 -2103 2278 0
-2057 -2104 2279 0
-2057 -2105 2280 0
-2057 -2106 2281 0
-2057 -2107 2282 0
-2057 -2108 2283 0
-2057 -2109 2284 0
-2057 -2110 2285 0
-2057 -2111 2286 0
-2057 -2112 2287 0
-2057 -2113 2288 0
-2057 -2114 2289 0
-2057 -2115 2290 0
-2057 -2116 2291 0
-2057 -2117 2292 0
-2057 -2118 2293 0
-2057 -2119 2294 0
-2057 -2120 2295 0
-2057 -2121 2296 0
-2057 -2122 2297 0
-2057 -2123 2298 0
-2057 -2124 2299 0
-2057 -2125 2300 0
-2057 -2126 2301 0
-2057 -2127 2302 0
-2057 -2128 2303 0
-2057 -2129 2304 0
-2057 -2130 2305 0
-2057 -2131 2306 0
-2057 -2132 2307 0
-2057 -2133 2308 0
-2057 -2134 2309 0
-2057 -2135 2310 0
-2057 -2136 2311 0
-2057 -2137 2312 0
-2057 -2138 2313 0
-2057 -2139 2314 0
-2057 -2140 2315 0
-2057 -2141 2316 0
-2057 -2142 2317 0
-2057 -2143 2318 0
-2057 -2144 2319 0
-2057 -2145 2320 0
-2057 -2146 2321 0
-2057 -2147 2322 0
-2057 -2148 2323 0
-2057 -2149 2324 0
-2057 -2150 2325 0
-2057 -2151 2326 0
-2057 -2152 2327 0
-2057 -2153 2328 0
-2057 -2154 2329 0
-2057 -2155 2330 0
-2057 -2156 2331 0
-2057 -2157 2332 0
-2057 -2158 2333 0
-2057 -2159 2334 0
-2057 -2160 2335 0
-2057 -2161 2336 0
-2057 -2162 2337 0
-2057 -2163 2338 0
-2057 -2164 2339 0
-2057 -2165 2340 0
-2057 -2166 2341 0
-2057 -2167 2342 0
-2057 -2168 2343 0
-2057 -2169 2344 0
-2057 -2170 2345 0
-2057 -2171 2346 0
-2057 -2172 2347 0
-2057 -2173 2348 0
-2057 -2174 2349 0
-2057 -2175 2350 0
-2057 -2176 2351 0
-2057 -2177 2352 0
-2057 -2178 2353 0
-2057 -2179 2354 0
-2057 -2180 2355 0
-2057 -2181 2356 0
-2057 -2182 2357 0
-2057 -2183 2358 0
-2057 -2184 2359 0
-2057 -2185 2360 0
-2057 -2186 2361 0
-2057 -2187 2362 0
-2057 -2188 2363 0
-2057 -2189 2364 0
-2057 -2190 2365 0
-2058 -2099 2275 0
-2058 -2100 2276 0
-2058 -2101 2277 0
-2058 -2102 2278 0
-2058 -2103 2279 0
-2058 -2104 2280 0
-2058 -2105 2281 0
-2058 -2106 2282 0
-2058 -2107 2283 0
-2058 -2108 2284 0
-2058 -2109 2285 0
-2058 -2110 2286 0
-2058 -2111 2287 0
-2058 -2112 2288 0
-2058 -2113 2289 0
-2058 -2114 2290 0
-2058 -2115 2291 0
-2058 -2116 2292 0
-2058 -2117 2293 0
-2058 -2118 2294 0
-2058 -2119 2295 0
-2058 -2120 2296 0
-2058 -2121 2297 0
-2058 -2122 2298 0
-2058 -2123 2299 0
-2058 -2124 2300 0
-2058 -2125 2301 0
-2058 -2126 2302 0
-2058 -2127 2303 0
-2058 -2128 2304 0
-2058 -2129 2305 0
-2058 -2130 2306 0
-2058 -2131 2307 0
-2058 -2132 2308 0
-2058 -2133 2309 0
-2058 -2134 2310 0
-2058 -2135 2311 0
-2058 -2136 2312 0
-2058 -2137 2313 0
-2058 -2138 2314 0
-2058 -2139 2315 0
-2058 -2140 2316 0
-2058 -2141 2317 0
-2058 -2142 2318 0
-2058 -2143 2319 0
-2058 -2144 2320 0
-2058 -2145 2321 0
-2058 -2146 2322 0
-2058 -2147 2323 0
-2058 -2148 2324 0
-2058 -2149 2325 0
-2058 -2150 2326 0
-2058 -2151 2327 0
-2058 -2152 2328 0
-2058 -2153 2329 0
-2058 -2154 2330 0
-2058 -2155 2331 0
-2058 -2156 2332 0
-2058 -2157 2333 0
-2058 -2158 2334 0
-2058 -2159 2335 0
-2058 -2160 2336 0
-2058 -2161 2337 0
-2058 -2162 2338 0
-2058 -2163 2339 0
-2058 -2164 2340 0
-2058 -2165 2341 0
-2058 -2166 2342 0
-2058 -2167 2343 0
-2058 -2168 2344 0
-2058 -2169 2345 0
-2058 -2170 2346 0
-2058 -2171 2347 0
-2058 -2172 2348 0
-2058 -2173 2349 0
-2058 -2174 2350 0
-2058 -2175 2351 0
-2058 -2176 2352 0
-2058 -2177 2353 0
-2058 -2178 2354 0
-2058 -2179 2355 0
-2058 -2180 2356 0
-2058 -2181 2357 0
-2058 -2182 2358 0
-2058 -2183 2359 0
-2058 -2184 2360 0
-2058 -2185 2361 0
-2058 -2186 2362 0
-2058 -2187 2363 0
-2058 -2188 2364 0
-2058 -2189 2365 0
-2059 -2099 2276 0
-2059 -2100 2277 0
-2059 -2101 2278 0
-2059 -2102 2279 0
-2059 -2103 2280 0
-2059 -2104 2281 0
-2059 -2105 2282 0
-2059 -2106 2283 0
-2059 -2107 2284 0
-2059 -2108 2285 0
-2059 -2109 2286 0
-2059 -2110 2287 0
-2059 -2111 2288 0
-2059 -2112 2289 0
-2059 -2113 2290 0
-2059 -2114 2291 0
-2059 -2115 2292 0
-2059 -2116 2293 0
-2059 -2117 2294 0
-2059 -2118 2295 0
-2059 -2119 2296 0
-2059 -2120 2297 0
-2059 -2121 2298 0
-2059 -2122 2299 0
-2059 -2123 2300 0
-2059 -2124 2301 0
-2059 -2125 2302 0
-2059 -2126 2303 0
-2059 -2127 2304 0
-2059 -2128 2305 0
-2059 -2129 2306 0
-2059 -2130 2307 0
-2059 -2131 2308 0
-2059 -2132 2309 0
-2059 -2133 2310 0
-2059 -2134 2311 0
-2059 -2135 2312 0
-2059 -2136 2313 0
-2059 -2137 2314 0
-2059 -2138 2315 0
-2059 -2139 2316 0
-2059 -2140 2317 0
-2059 -2141 2318 0
-2059 -2142 2319 0
-2059 -2143 2320 0
-2059 -2144 2321 0
-2059 -2145 2322 0
-2059 -2146 2323 0
-2059 -2147 2324 0
-2059 -2148 2325 0
-2059 -2149 2326 0
-2059 -2150 2327 0
-2059 -2151 2328 0
-2059 -2152 2329 0
-2059 -2153 2330 0
-2059 -2154 2331 0
-2059 -2155 2332 0
-2059 -2156 2333 0
-2059 -2157 2334 0
-2059 -2158 2335 0
-2059 -2159 2336 0
-2059 -2160 2337 0
-2059 -2161 2338 0
-2059 -2162 2339 0
-2059 -2163 2340 0
-2059 -2164 2341 0
-2059 -2165 2342 0
-2059 -2166 2343 0
-2059 -2167 2344 0
-2059 -2168 2345 0
-2059 -2169 2346 0
-2059 -2170 2347 0
-2059 -2171 2348 0
-2059 -2172 2349 0
-2059 -2173 2350 0
-2059 -2174 2351 0
-2059 -2175 2352 0
-2059 -2176 2353 0
-2059 -2177 2354 0
-2059 -2178 2355 0
-2059 -2179 2356 0
-2059 -2180 2357 0
-2059 -2181 2358 0
-2059 -2182 2359 0
-2059 -2183 2360 0
-2059 -2184 2361 0
-2059 -2185 2362 0
-2059 -2186 2363 0
-2059 -2187 2364 0
-2059 -2188 2365 0
-2060 -2099 2277 0
-2060 -2100 2278 0
-2060 -2101 2279 0
-2060 -2102 2280 0
-2060 -2103 2281 0
-2060 -2104 2282 0
-2060 -2105 2283 0
-2060 -2106 2284 0
-2060 -2107 2285 0
-2060 -2108 2286 0
-2060 -2109 2287 0
-2060 -2110 2288 0
-2060 -2111 2289 0
-2060 -2112 2290 0
-2060 -2113 2291 0
-2060 -2114 2292 0
-2060 -2115 2293 0
-2060 -2116 2294 0
-2060 -2117 2295 0
-2060 -2118 2296 0
-2060 -2119 2297 0
-2060 -2120 2298 0
-2060 -2121 2299 0
-2060 -2122 2300 0
-2060 -2123 2301 0
-2060 -2124 2302 0
-2060 -2125 2303 0
-2060 -2126 2304 0
-2060 -2127 2305 0
-2060 -2128 2306 0
-2060 -2129 2307 0
-2060 -2130 2308 0
-2060 -2131 2309 0
-2060 -2132 2310 0
-2060 -2133 2311 0
-2060 -2134 2312 0
-2060 -2135 2313 0
-2060 -2136 2314 0
-2060 -2137 2315 0
-2060 -2138 2316 0
-2060 -2139 2317 0
-2060 -2140 2318 0
-2060 -2141 2319 0
-2060 -2142 2320 0
-2060 -2143 2321 0
-2060 -2144 2322 0
-2060 -2145 2323 0
-2060 -2146 2324 0
-2060 -2147 2325 0
-2060 -2148 2326 0
-2060 -2149 2327 0
-2060 -2150 2328 0
-2060 -2151 2329 0
-2060 -2152 2330 0
-2060 -2153 2331 0
-2060 -2154 2332 0
-2060 -2155 2333 0
-2060 -2156 2334 0
-2060 -2157 2335 0
-2060 -2158 2336 0
-2060 -2159 2337 0
-2060 -2160 2338 0
-2060 -2161 2339 0
-2060 -2162 2340 0
-2060 -2163 2341 0
-2060 -2164 2342 0
-2060 -2165 2343 0
-2060 -2166 2344 0
-2060 -2167 2345 0
-2060 -2168 2346 0
-2060 -2169 2347 0
-2060 -2170 2348 0
-2060 -2171 2349 0
-2060 -2172 2350 0
-2060 -2173 2351 0
-2060 -2174 2352 0
-2060 -2175 2353 0
-2060 -2176 2354 0
-2060 -2177 2355 0
-2060 -2178 2356 0
-2060 -2179 2357 0
-2060 -2180 2358 0
-2060 -2181 2359 0
-2060 -2182 2360 0
-2060 -2183 2361 0
-2060 -2184 2362 0
-2060 -2185 2363 0
-2060 -2186 2364 0
-2060 -2187 2365 0
-2061 -2099 2278 0
-2061 -2100 2279 0
-2061 -2101 2280 0
-2061 -2102 2281 0
-2061 -2103 2282 0
-2061 -2104 2283 0
-2061 -2105 2284 0
-2061 -2106 2285 0
-2061 -2107 2286 0
-2061 -2108 2287 0
-2061 -2109 2288 0
-2061 -2110 2289 0
-2061 -2111 2290 0
-2061 -2112 2291 0
-2061 -2113 2292 0
-2061 -2114 2293 0
-2061 -2115 2294 0
-2061 -2116 2295 0
-2061 -2117 2296 0
-2061 -2118 2297 0
-2061 -2119 2298 0
-2061 -2120 2299 0
-2061 -2121 2300 0
-2061 -2122 2301 0
-2061 -2123 2302 0
-2061 -2124 2303 0
-2061 -2125 2304 0
-2061 -2126 2305 0
-2061 -2127 2306 0
-2061 -2128 2307 0
-2061 -2129 2308 0
-2061 -2130 2309 0
-2061 -2131 2310 0
-2061 -2132 2311 0
-2061 -2133 2312 0
-2061 -2134 2313 0
-2061 -2135 2314 0
-2061 -2136 2315 0
-2061 -2137 2316 0
-2061 -2138 2317 0
-2061 -2139 2318 0
-2061 -2140 2319 0
-2061 -2141 2320 0
-2061 -2142 2321 0
-2061 -2143 2322 0
-2061 -2144 2323 0
-2061 -2145 2324 0
-2061 -2146 2325 0
-2061 -2147 2326 0
-2061 -2148 2327 0
-2061 -2149 2328 0
-2061 -2150 2329 0
-2061 -2151 2330 0
-2061 -2152 2331 0
-2061 -2153 2332 0
-2061 -2154 2333 0
-2061 -2155 2334 0
-2061 -2156 2335 0
-2061 -2157 2336 0
-2061 -2158 2337 0
-2061 -2159 2338 0
-2061 -2160 2339 0
-2061 -2161 2340 0
-2061 -2162 2341 0
-2061 -2163 2342 0
-2061 -2164 2343 0
-2061 -2165 2344 0
-2061 -2166 2345 0
-2061 -2167 2346 0
-2061 -2168 2347 0
-2061 -2169 2348 0
-2061 -2170 2349 0
-2061 -2171 2350 0
-2061 -2172 2351 0
-2061 -2173 2352 0
-2061 -2174 2353 0
-2061 -2175 2354 0
-2061 -2176 2355 0
-2061 -2177 2356 0
-2061 -2178 2357 0
-2061 -2179 2358 0
-2061 -2180 2359 0
-2061 -2181 2360 0
-2061 -2182 2361 0
-2061 -2183 2362 0
-2061 -2184 2363 0
-2061 -2185 2364 0
-2061 -2186 2365 0
-2062 -2099 2279 0
-2062 -2100 2280 0
-2062 -2101 2281 0
-2062 -2102 2282 0
-2062 -2103 2283 0
-2062 -2104 2284 0
-2062 -2105 2285 0
-2062 -2106 2286 0
-2062 -2107 2287 0
-2062 -2108 2288 0
-2062 -2109 2289 0
-2062 -2110 2290 0
-2062 -2111 2291 0
-2062 -2112 2292 0
-2062 -2113 2293 0
-2062 -2114 2294 0
-2062 -2115 2295 0
-2062 -2116 2296 0
-2062 -2117 2297 0
-2062 -2118 2298 0
-2062 -2119 2299 0
-2062 -2120 2300 0
-2062 -2121 2301 0
-2062 -2122 2302 0
-2062 -2123 2303 0
-2062 -2124 2304 0
-2062 -2125 2305 0
-2062 -2126 2306 0
-2062 -2127 2307 0
-2062 -2128 2308 0
-2062 -2129 2309 0
-2062 -2130 2310 0
-2062 -2131 2311 0
-2062 -2132 2312 0
-2062 -2133 2313 0
-2062 -2134 2314 0
-2062 -2135 2315 0
-2062 -2136 2316 0
-2062 -2137 2317 0
-2062 -2138 2318 0
-2062 -2139 2319 0
-2062 -2140 2320 0
-2062 -2141 2321 0
-2062 -2142 2322 0
-2062 -2143 2323 0
-2062 -2144 2324 0
-2062 -2145 2325 0
-2062 -2146 2326 0
-2062 -2147 2327 0
-2062 -2148 2328 0
-2062 -2149 2329 0
-2062 -2150 2330 0
-2062 -2151 2331 0
-2062 -2152 2332 0
-2062 -2153 2333 0
-2062 -2154 2334 0
-2062 -2155 2335 0
-2062 -2156 2336 0
-2062 -2157 2337 0
-2062 -2158 2338 0
-2062 -2159 2339 0
-2062 -2160 2340 0
-2062 -2161 2341 0
-2062 -2162 2342 0
-2062 -2163 2343 0
-2062 -2164 2344 0
-2062 -2165 2345 0
-2062 -2166 2346 0
-2062 -2167 2347 0
-2062 -2168 2348 0
-2062 -2169 2349 0
-2062 -2170 2350 0
-2062 -2171 2351 0
-2062 -2172 2352 0
-2062 -2173 2353 0
-2062 -2174 2354 0
-2062 -2175 2355 0
-2062 -2176 2356 0
-2062 -2177 2357 0
-2062 -2178 2358 0
-2062 -2179 2359 0
-2062 -2180 2360 0
-2062 -2181 2361 0
-2062 -2182 2362 0
-2062 -2183 2363 0
-2062 -2184 2364 0
-2062 -2185 2365 0
-2063 -2099 2280 0
-2063 -2100 2281 0
-2063 -2101 2282 0
-2063 -2102 2283 0
-2063 -2103 2284 0
-2063 -2104 2285 0
-2063 -2105 2286 0
-2063 -2106 2287 0
-2063 -2107 2288 0
-2063 -2108 2289 0
-2063 -2109 2290 0
-2063 -2110 2291 0
-2063 -2111 2292 0
-2063 -2112 2293 0
-2063 -2113 2294 0
-2063 -2114 2295 0
-2063 -2115 2296 0
-2063 -2116 2297 0
-2063 -2117 2298 0
-2063 -2118 2299 0
-2063 -2119 2300 0
-2063 -2120 2301 0
-2063 -2121 2302 0
-2063 -2122 2303 0
-2063 -2123 2304 0
-2063 -2124 2305 0
-2063 -2125 2306 0
-2063 -2126 2307 0
-2063 -2127 2308 0
-2063 -2128 2309 0
-2063 -2129 2310 0
-2063 -2130 2311 0
-2063 -2131 2312 0
-2063 -2132 2313 0
-2063 -2133 2314 0
-2063 -2134 2315 0
-2063 -2135 2316 0
-2063 -2136 2317 0
-2063 -2137 2318 0
-2063 -2138 2319 0
-2063 -2139 2320 0
-2063 -2140 2321 0
-2063 -2141 2322 0
-2063 -2142 2323 0
-2063 -2143 2324 0
-2063 -2144 2325 0
-2063 -2145 2326 0
-2063 -2146 2327 0
-2063 -2147 2328 0
-2063 -2148 2329 0
-2063 -2149 2330 0
-2063 -2150 2331 0
-2063 -2151 2332 0
-2063 -2152 2333 0
-2063 -2153 2334 0
-2063 -2154 2335 0
-2063 -2155 2336 0
-2063 -2156 2337 0
-2063 -2157 2338 0
-2063 -2158 2339 0
-2063 -2159 2340 0
-2063 -2160 2341 0
-2063 -2161 2342 0
-2063 -2162 2343 0
-2063 -2163 2344 0
-2063 -2164 2345 0
-2063 -2165 2346 0
-2063 -2166 2347 0
-2063 -2167 2348 0
-2063 -2168 2349 0
-2063 -2169 2350 0
-2063 -2170 2351 0
-2063 -2171 2352 0
-2063 -2172 2353 0
-2063 -2173 2354 0
-2063 -2174 2355 0
-2063 -2175 2356 0
-2063 -2176 2357 0
-2063 -2177 2358 0
-2063 -2178 2359 0
-2063 -2179 2360 0
-2063 -2180 2361 0
-2063 -2181 2362 0
-2063 -2182 2363 0
-2063 -2183 2364 0
-2063 -2184 2365 0
-2064 -2099 2281 0
-2064 -2100 2282 0
-2064 -2101 2283 0
-2064 -2102 2284 0
-2064 -2103 2285 0
-2064 -2104 2286 0
-2064 -2105 2287 0
-2064 -2106 2288 0
-2064 -2107 2289 0
-2064 -2108 2290 0
-2064 -2109 2291 0
-2064 -2110 2292 0
-2064 -2111 2293 0
-2064 -2112 2294 0
-2064 -2113 2295 0
-2064 -2114 2296 0
-2064 -2115 2297 0
-2064 -2116 2298 0
-2064 -2117 2299 0
-2064 -2118 2300 0
-2064 -2119 2301 0
-2064 -2120 2302 0
-2064 -2121 2303 0
-2064 -2122 2304 0
-2064 -2123 2305 0
-2064 -2124 2306 0
-2064 -2125 2307 0
-2064 -2126 2308 0
-2064 -2127 2309 0
-2064 -2128 2310 0
-2064 -2129 2311 0
-2064 -2130 2312 0
-2064 -2131 2313 0
-2064 -2132 2314 0
-2064 -2133 2315 0
-2064 -2134 2316 0
-2064 -2135 2317 0
-2064 -2136 2318 0
-2064 -2137 2319 0
-2064 -2138 2320 0
-2064 -2139 2321 0
-2064 -2140 2322 0
-2064 -2141 2323 0
-2064 -2142 2324 0
-2064 -2143 2325 0
-2064 -2144 2326 0
-2064 -2145 2327 0
-2064 -2146 2328 0
-2064 -2147 2329 0
-2064 -2148 2330 0
-2064 -2149 2331 0
-2064 -2150 2332 0
-2064 -2151 2333 0
-2064 -2152 2334 0
-2064 -2153 2335 0
-2064 -2154 2336 0
-2064 -2155 2337 0
-2064 -2156 2338 0
-2064 -2157 2339 0
-2064 -2158 2340 0
-2064 -2159 2341 0
-2064 -2160 2342 0
-2064 -2161 2343 0
-2064 -2162 2344 0
-2064 -2163 2345 0
-2064 -2164 2346 0
-2064 -2165 2347 0
-2064 -2166 2348 0
-2064 -2167 2349 0
-2064 -2168 2350 0
-2064 -2169 2351 0
-2064 -2170 2352 0
-2064 -2171 2353 0
-2064 -2172 2354 0
-2064 -2173 2355 0
-2064 -2174 2356 0
-2064 -2175 2357 0
-2064 -2176 2358 0
-2064 -2177 2359 0
-2064 -2178 2360 0
-2064 -2179 2361 0
-2064 -2180 2362 0
-2064 -2181 2363 0
-2064 -2182 2364 0
-2064 -2183 2365 0
-2065 -2099 2282 0
-2065 -2100 2283 0
-2065 -2101 2284 0
-2065 -2102 2285 0
-2065 -2103 2286 0
-2065 -2104 2287 0
-2065 -2105 2288 0
-2065 -2106 2289 0
-2065 -2107 2290 0
-2065 -2108 2291 0
-2065 -2109 2292 0
-2065 -2110 2293 0
-2065 -2111 2294 0
-2065 -2112 2295 0
-2065 -2113 2296 0
-2065 -2114 2297 0
-2065 -2115 2298 0
-2065 -2116 2299 0
-2065 -2117 2300 0
-2065 -2118 2301 0
-2065 -2119 2302 0
-2065 -2120 2303 0
-2065 -2121 2304 0
-2065 -2122 2305 0
-2065 -2123 2306 0
-2065 -2124 2307 0
-2065 -2125 2308 0
-2065 -2126 2309 0
-2065 -2127 2310 0
-2065 -2128 2311 0
-2065 -2129 2312 0
-2065 -2130 2313 0
-2065 -2131 2314 0
-2065 -2132 2315 0
-2065 -2133 2316 0
-2065 -2134 2317 0
-2065 -2135 2318 0
-2065 -2136 2319 0
-2065 -2137 2320 0
-2065 -2138 2321 0
-2065 -2139 2322 0
-2065 -2140 2323 0
-2065 -2141 2324 0
-2065 -2142 2325 0
-2065 -2143 2326 0
-2065 -2144 2327 0
-2065 -2145 2328 0
-2065 -2146 2329 0
-2065 -2147 2330 0
-2065 -2148 2331 0
-2065 -2149 2332 0
-2065 -2150 2333 0
-2065 -2151 2334 0
-2065 -2152 2335 0
-2065 -2153 2336 0
-2065 -2154 2337 0
-2065 -2155 2338 0
-2065 -2156 2339 0
-2065 -2157 2340 0
-2065 -2158 2341 0
-2065 -2159 2342 0
-2065 -2160 2343 0
-2065 -2161 2344 0
-2065 -2162 2345 0
-2065 -2163 2346 0
-2065 -2164 2347 0
-2065 -2165 2348 0
-2065 -2166 2349 0
-2065 -2167 2350 0
-2065 -2168 2351 0
-2065 -2169 2352 0
-2065 -2170 2353 0
-2065 -2171 2354 0
-2065 -2172 2355 0
-2065 -2173 2356 0
-2065 -2174 2357 0
-2065 -2175 2358 0
-2065 -2176 2359 0
-2065 -2177 2360 0
-2065 -2178 2361 0
-2065 -2179 2362 0
-2065 -2180 2363 0
-2065 -2181 2364 0
-2065 -2182 2365 0
-2066 -2099 2283 0
-2066 -2100 2284 0
-2066 -2101 2285 0
-2066 -2102 2286 0
-2066 -2103 2287 0
-2066 -2104 2288 0
-2066 -2105 2289 0
-2066 -2106 2290 0
-2066 -2107 2291 0
-2066 -2108 2292 0
-2066 -2109 2293 0
-2066 -2110 2294 0
-2066 -2111 2295 0
-2066 -2112 2296 0
-2066 -2113 2297 0
-2066 -2114 2298 0
-2066 -2115 2299 0
-2066 -2116 2300 0
-2066 -2117 2301 0
-2066 -2118 2302 0
-2066 -2119 2303 0
-2066 -2120 2304 0
-2066 -2121 2305 0
-2066 -2122 2306 0
-2066 -2123 2307 0
-2066 -2124 2308 0
-2066 -2125 2309 0
-2066 -2126 2310 0
-2066 -2127 2311 0
-2066 -2128 2312 0
-2066 -2129 2313 0
-2066 -2130 2314 0
-2066 -2131 2315 0
-2066 -2132 2316 0
-2066 -2133 2317 0
-2066 -2134 2318 0
-2066 -2135 2319 0
-2066 -2136 2320 0
-2066 -2137 2321 0
-2066 -2138 2322 0
-2066 -2139 2323 0
-2066 -2140 2324 0
-2066 -2141 2325 0
-2066 -2142 2326 0
-2066 -2143 2327 0
-2066 -2144 2328 0
-2066 -2145 2329 0
-2066 -2146 2330 0
-2066 -2147 2331 0
-2066 -2148 2332 0
-2066 -2149 2333 0
-2066 -2150 2334 0
-2066 -2151 2335 0
-2066 -2152 2336 0
-2066 -2153 2337 0
-2066 -2154 2338 0
-2066 -2155 2339 0
-2066 -2156 2340 0
-2066 -2157 2341 0
-2066 -2158 2342 0
-2066 -2159 2343 0
-2066 -2160 2344 0
-2066 -2161 2345 0
-2066 -2162 2346 0
-2066 -2163 2347 0
-2066 -2164 2348 0
-2066 -2165 2349 0
-2066 -2166 2350 0
-2066 -2167 2351 0
-2066 -2168 2352 0
-2066 -2169 2353 0
-2066 -2170 2354 0
-2066 -2171 2355 0
-2066 -2172 2356 0
-2066 -2173 2357 0
-2066 -2174 2358 0
-2066 -2175 2359 0
-2066 -2176 2360 0
-2066 -2177 2361 0
-2066 -2178 2362 0
-2066 -2179 2363 0
-2066 -2180 2364 0
-2066 -2181 2365 0
-2067 -2099 2284 0
-2067 -2100 2285 0
-2067 -2101 2286 0
-2067 -2102 2287 0
-2067 -2103 2288 0
-2067 -2104 2289 0
-2067 -2105 2290 0
-2067 -2106 2291 0
-2067 -2107 2292 0
-2067 -2108 2293 0
-2067 -2109 2294 0
-2067 -2110 2295 0
-2067 -2111 2296 0
-2067 -2112 2297 0
-2067 -2113 2298 0
-2067 -2114 2299 0
-2067 -2115 2300 0
-2067 -2116 2301 0
-2067 -2117 2302 0
-2067 -2118 2303 0
-2067 -2119 2304 0
-2067 -2120 2305 0
-2067 -2121 2306 0
-2067 -2122 2307 0
-2067 -2123 2308 0
-2067 -2124 2309 0
-2067 -2125 2310 0
-2067 -2126 2311 0
-2067 -2127 2312 0
-2067 -2128 2313 0
-2067 -2129 2314 0
-2067 -2130 2315 0
-2067 -2131 2316 0
-2067 -2132 2317 0
-2067 -2133 2318 0
-2067 -2134 2319 0
-2067 -2135 2320 0
-2067 -2136 2321 0
-2067 -2137 2322 0
-2067 -2138 2323 0
-2067 -2139 2324 0
-2067 -2140 2325 0
-2067 -2141 2326 0
-2067 -2142 2327 0
-2067 -2143 2328 0
-2067 -2144 2329 0
-2067 -2145 2330 0
-2067 -2146 2331 0
-2067 -2147 2332 0
-2067 -2148 2333 0
-2067 -2149 2334 0
-2067 -2150 2335 0
-2067 -2151 2336 0
-2067 -2152 2337 0
-2067 -2153 2338 0
-2067 -2154 2339 0
-2067 -2155 2340 0
-2067 -2156 2341 0
-2067 -2157 2342 0
-2067 -2158 2343 0
-2067 -2159 2344 0
-2067 -2160 2345 0
-2067 -2161 2346 0
-2067 -2162 2347 0
-2067 -2163 2348 0
-2067 -2164 2349 0
-2067 -2165 2350 0
-2067 -2166 2351 0
-2067 -2167 2352 0
-2067 -2168 2353 0
-2067 -2169 2354 0
-2067 -2170 2355 0
-2067 -2171 2356 0
-2067 -2172 2357 0
-2067 -2173 2358 0
-2067 -2174 2359 0
-2067 -2175 2360 0
-2067 -2176 2361 0
-2067 -2177 2362 0
-2067 -2178 2363 0
-2067 -2179 2364 0
-2067 -2180 2365 0
-2068 -2099 2285 0
-2068 -2100 2286 0
-2068 -2101 2287 0
-2068 -2102 2288 0
-2068 -2103 2289 0
-2068 -2104 2290 0
-2068 -2105 2291 0
-2068 -2106 2292 0
-2068 -2107 2293 0
-2068 -2108 2294 0
-2068 -2109 2295 0
-2068 -2110 2296 0
-2068 -2111 2297 0
-2068 -2112 2298 0
-2068 -2113 2299 0
-2068 -2114 2300 0
-2068 -2115 2301 0
-2068 -2116 2302 0
-2068 -2117 2303 0
-2068 -2118 2304 0
-2068 -2119 2305 0
-2068 -2120 2306 0
-2068 -2121 2307 0
-2068 -2122 2308 0
-2068 -2123 2309 0
-2068 -2124 2310 0
-2068 -2125 2311 0
-2068 -2126 2312 0
-2068 -2127 2313 0
-2068 -2128 2314 0
-2068 -2129 2315 0
-2068 -2130 2316 0
-2068 -2131 2317 0
-2068 -2132 2318 0
-2068 -2133 2319 0
-2068 -2134 2320 0
-2068 -2135 2321 0
-2068 -2136 2322 0
-2068 -2137 2323 0
-2068 -2138 2324 0
-2068 -2139 2325 0
-2068 -2140 2326 0
-2068 -2141 2327 0
-2068 -2142 2328 0
-2068 -2143 2329 0
-2068 -2144 2330 0
-2068 -2145 2331 0
-2068 -2146 2332 0
-2068 -2147 2333 0
-2068 -2148 2334 0
-2068 -2149 2335 0
-2068 -2150 2336 0
-2068 -2151 2337 0
-2068 -2152 2338 0
-2068 -2153 2339 0
-2068 -2154 2340 0
-2068 -2155 2341 0
-2068 -2156 2342 0
-2068 -2157 2343 0
-2068 -2158 2344 0
-2068 -2159 2345 0
-2068 -2160 2346 0
-2068 -2161 2347 0
-2068 -2162 2348 0
-2068 -2163 2349 0
-2068 -2164 2350 0
-2068 -2165 2351 0
-2068 -2166 2352 0
-2068 -2167 2353 0
-2068 -2168 2354 0
-2068 -2169 2355 0
-2068 -2170 2356 0
-2068 -2171 2357 0
-2068 -2172 2358 0
-2068 -2173 2359 0
-2068 -2174 2360 0
-2068 -2175 2361 0
-2068 -2176 2362 0
-2068 -2177 2363 0
-2068 -2178 2364 0
-2068 -2179 2365 0
-2069 -2099 2286 0
-2069 -2100 2287 0
-2069 -2101 2288 0
-2069 -2102 2289 0
-2069 -2103 2290 0
-2069 -2104 2291 0
-2069 -2105 2292 0
-2069 -2106 2293 0
-2069 -2107 2294 0
-2069 -2108 2295 0
-2069 -2109 2296 0
-2069 -2110 2297 0
-2069 -2111 2298 0
-2069 -2112 2299 0
-2069 -2113 2300 0
-2069 -2114 2301 0
-2069 -2115 2302 0
-2069 -2116 2303 0
-2069 -2117 2304 0
-2069 -2118 2305 0
-2069 -2119 2306 0
-2069 -2120 2307 0
-2069 -2121 2308 0
-2069 -2122 2309 0
-2069 -2123 2310 0
-2069 -2124 2311 0
-2069 -2125 2312 0
-2069 -2126 2313 0
-2069 -2127 2314 0
-2069 -2128 2315 0
-2069 -2129 2316 0
-2069 -2130 2317 0
-2069 -2131 2318 0
-2069 -2132 2319 0
-2069 -2133 2320 0
-2069 -2134 2321 0
-2069 -2135 2322 0
-2069 -2136 2323 0
-2069 -2137 2324 0
-2069 -2138 2325 0
-2069 -2139 2326 0
-2069 -2140 2327 0
-2069 -2141 2328 0
-2069 -2142 2329 0
-2069 -2143 2330 0
-2069 -2144 2331 0
-2069 -2145 2332 0
-2069 -2146 2333 0
-2069 -2147 2334 0
-2069 -2148 2335 0
-2069 -2149 2336 0
-2069 -2150 2337 0
-2069 -2151 2338 0
-2069 -2152 2339 0
-2069 -2153 2340 0
-2069 -2154 2341 0
-2069 -2155 2342 0
-2069 -2156 2343 0
-2069 -2157 2344 0
-2069 -2158 2345 0
-2069 -2159 2346 0
-2069 -2160 2347 0
-2069 -2161 2348 0
-2069 -2162 2349 0
-2069 -2163 2350 0
-2069 -2164 2351 0
-2069 -2165 2352 0
-2069 -2166 2353 0
-2069 -2167 2354 0
-2069 -2168 2355 0
-2069 -2169 2356 0
-2069 -2170 2357 0
-2069 -2171 2358 0
-2069 -2172 2359 0
-2069 -2173 2360 0
-2069 -2174 2361 0
-2069 -2175 2362 0
-2069 -2176 2363 0
-2069 -2177 2364 0
-2069 -2178 2365 0
-2070 -2099 2287 0
-2070 -2100 2288 0
-2070 -2101 2289 0
-2070 -2102 2290 0
-2070 -2103 2291 0
-2070 -2104 2292 0
-2070 -2105 2293 0
-2070 -2106 2294 0
-2070 -2107 2295 0
-2070 -2108 2296 0
-2070 -2109 2297 0
-2070 -2110 2298 0
-2070 -2111 2299 0
-2070 -2112 2300 0
-2070 -2113 2301 0
-2070 -2114 2302 0
-2070 -2115 2303 0
-2070 -2116 2304 0
-2070 -2117 2305 0
-2070 -2118 2306 0
-2070 -2119 2307 0
-2070 -2120 2308 0
-2070 -2121 2309 0
-2070 -2122 2310 0
-2070 -2123 2311 0
-2070 -2124 2312 0
-2070 -2125 2313 0
-2070 -2126 2314 0
-2070 -2127 2315 0
-2070 -2128 2316 0
-2070 -2129 2317 0
-2070 -2130 2318 0
-2070 -2131 2319 0
-2070 -2132 2320 0
-2070 -2133 2321 0
-2070 -2134 2322 0
-2070 -2135 2323 0
-2070 -2136 2324 0
-2070 -2137 2325 0
-2070 -2138 2326 0
-2070 -2139 2327 0
-2070 -2140 2328 0
-2070 -2141 2329 0
-2070 -2142 2330 0
-2070 -2143 2331 0
-2070 -2144 2332 0
-2070 -2145 2333 0
-2070 -2146 2334 0
-2070 -2147 2335 0
-2070 -2148 2336 0
-2070 -2149 2337 0
-2070 -2150 2338 0
-2070 -2151 2339 0
-2070 -2152 2340 0
-2070 -2153 2341 0
-2070 -2154 2342 0
-2070 -2155 2343 0
-2070 -2156 2344 0
-2070 -2157 2345 0
-2070 -2158 2346 0
-2070 -2159 2347 0
-2070 -2160 2348 0
-2070 -2161 2349 0
-2070 -2162 2350 0
-2070 -2163 2351 0
-2070 -2164 2352 0
-2070 -2165 2353 0
-2070 -2166 2354 0
-2070 -2167 2355 0
-2070 -2168 2356 0
-2070 -2169 2357 0
-2070 -2170 2358 0
-2070 -2171 2359 0
-2070 -2172 2360 0
-2070 -2173 2361 0
-2070 -2174 2362 0
-2070 -2175 2363 0
-2070 -2176 2364 0
-2070 -2177 2365 0
-2071 -2099 2288 0
-2071 -2100 2289 0
-2071 -2101 2290 0
-2071 -2102 2291 0
-2071 -2103 2292 0
-2071 -2104 2293 0
-2071 -2105 2294 0
-2071 -2106 2295 0
-2071 -2107 2296 0
-2071 -2108 2297 0
-2071 -2109 2298 0
-2071 -2110 2299 0
-2071 -2111 2300 0
-2071 -2112 2301 0
-2071 -2113 2302 0
-2071 -2114 2303 0
-2071 -2115 2304 0
-2071 -2116 2305 0
-2071 -2117 2306 0
-2071 -2118 2307 0
-2071 -2119 2308 0
-2071 -2120 2309 0
-2071 -2121 2310 0
-2071 -2122 2311 0
-2071 -2123 2312 0
-2071 -2124 2313 0
-2071 -2125 2314 0
-2071 -2126 2315 0
-2071 -2127 2316 0
-2071 -2128 2317 0
-2071 -2129 2318 0
-2071 -2130 2319 0
-2071 -2131 2320 0
-2071 -2132 2321 0
-2071 -2133 2322 0
-2071 -2134 2323 0
-2071 -2135 2324 0
-2071 -2136 2325 0
-2071 -2137 2326 0
-2071 -2138 2327 0
-2071 -2139 2328 0
-2071 -2140 2329 0
-2071 -2141 2330 0
-2071 -2142 2331 0
-2071 -2143 2332 0
-2071 -2144 2333 0
-2071 -2145 2334 0
-2071 -2146 2335 0
-2071 -2147 2336 0
-2071 -2148 2337 0
-2071 -2149 2338 0
-2071 -2150 2339 0
-2071 -2151 2340 0
-2071 -2152 2341 0
-2071 -2153 2342 0
-2071 -2154 2343 0
-2071 -2155 2344 0
-2071 -2156 2345 0
-2071 -2157 2346 0
-2071 -2158 2347 0
-2071 -2159 2348 0
-2071 -2160 2349 0
-2071 -2161 2350 0
-2071 -2162 2351 0
-2071 -2163 2352 0
-2071 -2164 2353 0
-2071 -2165 2354 0
-2071 -2166 2355 0
-2071 -2167 2356 0
-2071 -2168 2357 0
-2071 -2169 2358 0
-2071 -2170 2359 0
-2071 -2171 2360 0
-2071 -2172 2361 0
-2071 -2173 2362 0
-2071 -2174 2363 0
-2071 -2175 2364 0
-2071 -2176 2365 0
-2072 -2099 2289 0
-2072 -2100 2290 0
-2072 -2101 2291 0
-2072 -2102 2292 0
-2072 -2103 2293 0
-2072 -2104 2294 0
-2072 -2105 2295 0
-2072 -2106 2296 0
-2072 -2107 2297 0
-2072 -2108 2298 0
-2072 -2109 2299 0
-2072 -2110 2300 0
-2072 -2111 2301 0
-2072 -2112 2302 0
-2072 -2113 2303 0
-2072 -2114 2304 0
-2072 -2115 2305 0
-2072 -2116 2306 0
-2072 -2117 2307 0
-2072 -2118 2308 0
-2072 -2119 2309 0
-2072 -2120 2310 0
-2072 -2121 2311 0
-2072 -2122 2312 0
-2072 -2123 2313 0
-2072 -2124 2314 0
-2072 -2125 2315 0
-2072 -2126 2316 0
-2072 -2127 2317 0
-2072 -2128 2318 0
-2072 -2129 2319 0
-2072 -2130 2320 0
-2072 -2131 2321 0
-2072 -2132 2322 0
-2072 -2133 2323 0
-2072 -2134 2324 0
-2072 -2135 2325 0
-2072 -2136 2326 0
-2072 -2137 2327 0
-2072 -2138 2328 0
-2072 -2139 2329 0
-2072 -2140 2330 0
-2072 -2141 2331 0
-2072 -2142 2332 0
-2072 -2143 2333 0
-2072 -2144 2334 0
-2072 -2145 2335 0
-2072 -2146 2336 0
-2072 -2147 2337 0
-2072 -2148 2338 0
-2072 -2149 2339 0
-2072 -2150 2340 0
-2072 -2151 2341 0
-2072 -2152 2342 0
-2072 -2153 2343 0
-2072 -2154 2344 0
-2072 -2155 2345 0
-2072 -2156 2346 0
-2072 -2157 2347 0
-2072 -2158 2348 0
-2072 -2159 2349 0
-2072 -2160 2350 0
-2072 -2161 2351 0
-2072 -2162 2352 0
-2072 -2163 2353 0
-2072 -2164 2354 0
-2072 -2165 2355 0
-2072 -2166 2356 0
-2072 -2167 2357 0
-2072 -2168 2358 0
-2072 -2169 2359 0
-2072 -2170 2360 0
-2072 -2171 2361 0
-2072 -2172 2362 0
-2072 -2173 2363 0
-2072 -2174 2364 0
-2072 -2175 2365 0
-2073 -2099 2290 0
-2073 -2100 2291 0
-2073 -2101 2292 0
-2073 -2102 2293 0
-2073 -2103 2294 0
-2073 -2104 2295 0
-2073 -2105 2296 0
-2073 -2106 2297 0
-2073 -2107 2298 0
-2073 -2108 2299 0
-2073 -2109 2300 0
-2073 -2110 2301 0
-2073 -2111 2302 0
-2073 -2112 2303 0
-2073 -2113 2304 0
-2073 -2114 2305 0
-2073 -2115 2306 0
-2073 -2116 2307 0
-2073 -2117 2308 0
-2073 -2118 2309 0
-2073 -2119 2310 0
-2073 -2120 2311 0
-2073 -2121 2312 0
-2073 -2122 2313 0
-2073 -2123 2314 0
-2073 -2124 2315 0
-2073 -2125 2316 0
-2073 -2126 2317 0
-2073 -2127 2318 0
-2073 -2128 2319 0
-2073 -2129 2320 0
-2073 -2130 2321 0
-2073 -2131 2322 0
-2073 -2132 2323 0
-2073 -2133 2324 0
-2073 -2134 2325 0
-2073 -2135 2326 0
-2073 -2136 2327 0
-2073 -2137 2328 0
-2073 -2138 2329 0
-2073 -2139 2330 0
-2073 -2140 2331 0
-2073 -2141 2332 0
-2073 -2142 2333 0
-2073 -2143 2334 0
-2073 -2144 2335 0
-2073 -2145 2336 0
-2073 -2146 2337 0
-2073 -2147 2338 0
-2073 -2148 2339 0
-2073 -2149 2340 0
-2073 -2150 2341 0
-2073 -2151 2342 0
-2073 -2152 2343 0
-2073 -2153 2344 0
-2073 -2154 2345 0
-2073 -2155 2346 0
-2073 -2156 2347 0
-2073 -2157 2348 0
-2073 -2158 2349 0
-2073 -2159 2350 0
-2073 -2160 2351 0
-2073 -2161 2352 0
-2073 -2162 2353 0
-2073 -2163 2354 0
-2073 -2164 2355 0
-2073 -2165 2356 0
-2073 -2166 2357 0
-2073 -2167 2358 0
-2073 -2168 2359 0
-2073 -2169 2360 0
-2073 -2170 2361 0
-2073 -2171 2362 0
-2073 -2172 2363 0
-2073 -2173 2364 0
-2073 -2174 2365 0
-2074 -2099 2291 0
-2074 -2100 2292 0
-2074 -2101 2293 0
-2074 -2102 2294 0
-2074 -2103 2295 0
-2074 -2104 2296 0
-2074 -2105 2297 0
-2074 -2106 2298 0
-2074 -2107 2299 0
-2074 -2108 2300 0
-2074 -2109 2301 0
-2074 -2110 2302 0
-2074 -2111 2303 0
-2074 -2112 2304 0
-2074 -2113 2305 0
-2074 -2114 2306 0
-2074 -2115 2307 0
-2074 -2116 2308 0
-2074 -2117 2309 0
-2074 -2118 2310 0
-2074 -2119 2311 0
-2074 -2120 2312 0
-2074 -2121 2313 0
-2074 -2122 2314 0
-2074 -2123 2315 0
-2074 -2124 2316 0
-2074 -2125 2317 0
-2074 -2126 2318 0
-2074 -2127 2319 0
-2074 -2128 2320 0
-2074 -2129 2321 0
-2074 -2130 2322 0
-2074 -2131 2323 0
-2074 -2132 2324 0
-2074 -2133 2325 0
-2074 -2134 2326 0
-2074 -2135 2327 0
-2074 -2136 2328 0
-2074 -2137 2329 0
-2074 -2138 2330 0
-2074 -2139 2331 0
-2074 -2140 2332 0
-2074 -2141 2333 0
-2074 -2142 2334 0
-2074 -2143 2335 0
-2074 -2144 2336 0
-2074 -2145 2337 0
-2074 -2146 2338 0
-2074 -2147 2339 0
-2074 -2148 2340 0
-2074 -2149 2341 0
-2074 -2150 2342 0
-2074 -2151 2343 0
-2074 -2152 2344 0
-2074 -2153 2345 0
-2074 -2154 2346 0
-2074 -2155 2347 0
-2074 -2156 2348 0
-2074 -2157 2349 0
-2074 -2158 2350 0
-2074 -2159 2351 0
-2074 -2160 2352 0
-2074 -2161 2353 0
-2074 -2162 2354 0
-2074 -2163 2355 0
-2074 -2164 2356 0
-2074 -2165 2357 0
-2074 -2166 2358 0
-2074 -2167 2359 0
-2074 -2168 2360 0
-2074 -2169 2361 0
-2074 -2170 2362 0
-2074 -2171 2363 0
-2074 -2172 2364 0
-2074 -2173 2365 0
-2075 -2099 2292 0
-2075 -2100 2293 0
-2075 -2101 2294 0
-2075 -2102 2295 0
-2075 -2103 2296 0
-2075 -2104 2297 0
-2075 -2105 2298 0
-2075 -2106 2299 0
-2075 -2107 2300 0
-2075 -2108 2301 0
-2075 -2109 2302 0
-2075 -2110 2303 0
-2075 -2111 2304 0
-2075 -2112 2305 0
-2075 -2113 2306 0
-2075 -2114 2307 0
-2075 -2115 2308 0
-2075 -2116 2309 0
-2075 -2117 2310 0
-2075 -2118 2311 0
-2075 -2119 2312 0
-2075 -2120 2313 0
-2075 -2121 2314 0
-2075 -2122 2315 0
-2075 -2123 2316 0
-2075 -2124 2317 0
-2075 -2125 2318 0
-2075 -2126 2319 0
-2075 -2127 2320 0
-2075 -2128 2321 0
-2075 -2129 2322 0
-2075 -2130 2323 0
-2075 -2131 2324 0
-2075 -2132 2325 0
-2075 -2133 2326 0
-2075 -2134 2327 0
-2075 -2135 2328 0
-2075 -2136 2329 0
-2075 -2137 2330 0
-2075 -2138 2331 0
-2075 -2139 2332 0
-2075 -2140 2333 0
-2075 -2141 2334 0
-2075 -2142 2335 0
-2075 -2143 2336 0
-2075 -2144 2337 0
-2075 -2145 2338 0
-2075 -2146 2339 0
-2075 -2147 2340 0
-2075 -2148 2341 0
-2075 -2149 2342 0
-2075 -2150 2343 0
-2075 -2151 2344 0
-2075 -2152 2345 0
-2075 -2153 2346 0
-2075 -2154 2347 0
-2075 -2155 2348 0
-2075 -2156 2349 0
-2075 -2157 2350 0
-2075 -2158 2351 0
-2075 -2159 2352 0
-2075 -2160 2353 0
-2075 -2161 2354 0
-2075 -2162 2355 0
-2075 -2163 2356 0
-2075 -2164 2357 0
-2075 -2165 2358 0
-2075 -2166 2359 0
-2075 -2167 2360 0
-2075 -2168 2361 0
-2075 -2169 2362 0
-2075 -2170 2363 0
-2075 -2171 2364 0
-2075 -2172 2365 0
-2076 -2099 2293 0
-2076 -2100 2294 0
-2076 -2101 2295 0
-2076 -2102 2296 0
-2076 -2103 2297 0
-2076 -2104 2298 0
-2076 -2105 2299 0
-2076 -2106 2300 0
-2076 -2107 2301 0
-2076 -2108 2302 0
-2076 -2109 2303 0
-2076 -2110 2304 0
-2076 -2111 2305 0
-2076 -2112 2306 0
-2076 -2113 2307 0
-2076 -2114 2308 0
-2076 -2115 2309 0
-2076 -2116 2310 0
-2076 -2117 2311 0
-2076 -2118 2312 0
-2076 -2119 2313 0
-2076 -2120 2314 0
-2076 -2121 2315 0
-2076 -2122 2316 0
-2076 -2123 2317 0
-2076 -2124 2318 0
-2076 -2125 2319 0
-2076 -2126 2320 0
-2076 -2127 2321 0
-2076 -2128 2322 0
-2076 -2129 2323 0
-2076 -2130 2324 0
-2076 -2131 2325 0
-2076 -2132 2326 0
-2076 -2133 2327 0
-2076 -2134 2328 0
-2076 -2135 2329 0
-2076 -2136 2330 0
-2076 -2137 2331 0
-2076 -2138 2332 0
-2076 -2139 2333 0
-2076 -2140 2334 0
-2076 -2141 2335 0
-2076 -2142 2336 0
-2076 -2143 2337 0
-2076 -2144 2338 0
-2076 -2145 2339 0
-2076 -2146 2340 0
-2076 -2147 2341 0
-2076 -2148 2342 0
-2076 -2149 2343 0
-2076 -2150 2344 0
-2076 -2151 2345 0
-2076 -2152 2346 0
-2076 -2153 2347 0
-2076 -2154 2348 0
-2076 -2155 2349 0
-2076 -2156 2350 0
-2076 -2157 2351 0
-2076 -2158 2352 0
-2076 -2159 2353 0
-2076 -2160 2354 0
-2076 -2161 2355 0
-2076 -2162 2356 0
-2076 -2163 2357 0
-2076 -2164 2358 0
-2076 -2165 2359 0
-2076 -2166 2360 0
-2076 -2167 2361 0
-2076 -2168 2362 0
-2076 -2169 2363 0
-2076 -2170 2364 0
-2076 -2171 2365 0
-2077 -2099 2294 0
-2077 -2100 2295 0
-2077 -2101 2296 0
-2077 -2102 2297 0
-2077 -2103 2298 0
-2077 -2104 2299 0
-2077 -2105 2300 0
-2077 -2106 2301 0
-2077 -2107 2302 0
-2077 -2108 2303 0
-2077 -2109 2304 0
-2077 -2110 2305 0
-2077 -2111 2306 0
-2077 -2112 2307 0
-2077 -2113 2308 0
-2077 -2114 2309 0
-2077 -2115 2310 0
-2077 -2116 2311 0
-2077 -2117 2312 0
-2077 -2118 2313 0
-2077 -2119 2314 0
-2077 -2120 2315 0
-2077 -2121 2316 0
-2077 -2122 2317 0
-2077 -2123 2318 0
-2077 -2124 2319 0
-2077 -2125 2320 0
-2077 -2126 2321 0
-2077 -2127 2322 0
-2077 -2128 2323 0
-2077 -2129 2324 0
-2077 -2130 2325 0
-2077 -2131 2326 0
-2077 -2132 2327 0
-2077 -2133 2328 0
-2077 -2134 2329 0
-2077 -2135 2330 0
-2077 -2136 2331 0
-2077 -2137 2332 0
-2077 -2138 2333 0
-2077 -2139 2334 0
-2077 -2140 2335 0
-2077 -2141 2336 0
-2077 -2142 2337 0
-2077 -2143 2338 0
-2077 -2144 2339 0
-2077 -2145 2340 0
-2077 -2146 2341 0
-2077 -2147 2342 0
-2077 -2148 2343 0
-2077 -2149 2344 0
-2077 -2150 2345 0
-2077 -2151 2346 0
-2077 -2152 2347 0
-2077 -2153 2348 0
-2077 -2154 2349 0
-2077 -2155 2350 0
-2077 -2156 2351 0
-2077 -2157 2352 0
-2077 -2158 2353 0
-2077 -2159 2354 0
-2077 -2160 2355 0
-2077 -2161 2356 0
-2077 -2162 2357 0
-2077 -2163 2358 0
-2077 -2164 2359 0
-2077 -2165 2360 0
-2077 -2166 2361 0
-2077 -2167 2362 0
-2077 -2168 2363 0
-2077 -2169 2364 0
-2077 -2170 2365 0
-2078 -2099 2295 0
-2078 -2100 2296 0
-2078 -2101 2297 0
-2078 -2102 2298 0
-2078 -2103 2299 0
-2078 -2104 2300 0
-2078 -2105 2301 0
-2078 -2106 2302 0
-2078 -2107 2303 0
-2078 -2108 2304 0
-2078 -2109 2305 0
-2078 -2110 2306 0
-2078 -2111 2307 0
-2078 -2112 2308 0
-2078 -2113 2309 0
-2078 -2114 2310 0
-2078 -2115 2311 0
-2078 -2116 2312 0
-2078 -2117 2313 0
-2078 -2118 2314 0
-2078 -2119 2315 0
-2078 -2120 2316 0
-2078 -2121 2317 0
-2078 -2122 2318 0
-2078 -2123 2319 0
-2078 -2124 2320 0
-2078 -2125 2321 0
-2078 -2126 2322 0
-2078 -2127 2323 0
-2078 -2128 2324 0
-2078 -2129 2325 0
-2078 -2130 2326 0
-2078 -2131 2327 0
-2078 -2132 2328 0
-2078 -2133 2329 0
-2078 -2134 2330 0
-2078 -2135 2331 0
-2078 -2136 2332 0
-2078 -2137 2333 0
-2078 -2138 2334 0
-2078 -2139 2335 0
-2078 -2140 2336 0
-2078 -2141 2337 0
-2078 -2142 2338 0
-2078 -2143 2339 0
-2078 -2144 2340 0
-2078 -2145 2341 0
-2078 -2146 2342 0
-2078 -2147 2343 0
-2078 -2148 2344 0
-2078 -2149 2345 0
-2078 -2150 2346 0
-2078 -2151 2347 0
-2078 -2152 2348 0
-2078 -2153 2349 0
-2078 -2154 2350 0
-2078 -2155 2351 0
-2078 -2156 2352 0
-2078 -2157 2353 0
-2078 -2158 2354 0
-2078 -2159 2355 0
-2078 -2160 2356 0
-2078 -2161 2357 0
-2078 -2162 2358 0
-2078 -2163 2359 0
-2078 -2164 2360 0
-2078 -2165 2361 0
-2078 -2166 2362 0
-2078 -2167 2363 0
-2078 -2168 2364 0
-2078 -2169 2365 0
-2079 -2099 2296 0
-2079 -2100 2297 0
-2079 -2101 2298 0
-2079 -2102 2299 0
-2079 -2103 2300 0
-2079 -2104 2301 0
-2079 -2105 2302 0
-2079 -2106 2303 0
-2079 -2107 2304 0
-2079 -2108 2305 0
-2079 -2109 2306 0
-2079 -2110 2307 0
-2079 -2111 2308 0
-2079 -2112 2309 0
-2079 -2113 2310 0
-2079 -2114 2311 0
-2079 -2115 2312 0
-2079 -2116 2313 0
-2079 -2117 2314 0
-2079 -2118 2315 0
-2079 -2119 2316 0
-2079 -2120 2317 0
-2079 -2121 2318 0
-2079 -2122 2319 0
-2079 -2123 2320 0
-2079 -2124 2321 0
-2079 -2125 2322 0
-2079 -2126 2323 0
-2079 -2127 2324 0
-2079 -2128 2325 0
-2079 -2129 2326 0
-2079 -2130 2327 0
-2079 -2131 2328 0
-2079 -2132 2329 0
-2079 -2133 2330 0
-2079 -2134 2331 0
-2079 -2135 2332 0
-2079 -2136 2333 0
-2079 -2137 2334 0
-2079 -2138 2335 0
-2079 -2139 2336 0
-2079 -2140 2337 0
-2079 -2141 2338 0
-2079 -2142 2339 0
-2079 -2143 2340 0
-2079 -2144 2341 0
-2079 -2145 2342 0
-2079 -2146 2343 0
-2079 -2147 2344 0
-2079 -2148 2345 0
-2079 -2149 2346 0
-2079 -2150 2347 0
-2079 -2151 2348 0
-2079 -2152 2349 0
-2079 -2153 2350 0
-2079 -2154 2351 0
-2079 -2155 2352 0
-2079 -2156 2353 0
-2079 -2157 2354 0
-2079 -2158 2355 0
-2079 -2159 2356 0
-2079 -2160 2357 0
-2079 -2161 2358 0
-2079 -2162 2359 0
-2079 -2163 2360 0
-2079 -2164 2361 0
-2079 -2165 2362 0
-2079 -2166 2363 0
-2079 -2167 2364 0
-2079 -2168 2365 0
-2080 -2099 2297 0
-2080 -2100 2298 0
-2080 -2101 2299 0
-2080 -2102 2300 0
-2080 -2103 2301 0
-2080 -2104 2302 0
-2080 -2105 2303 0
-2080 -2106 2304 0
-2080 -2107 2305 0
-2080 -2108 2306 0
-2080 -2109 2307 0
-2080 -2110 2308 0
-2080 -2111 2309 0
-2080 -2112 2310 0
-2080 -2113 2311 0
-2080 -2114 2312 0
-2080 -2115 2313 0
-2080 -2116 2314 0
-2080 -2117 2315 0
-2080 -2118 2316 0
-2080 -2119 2317 0
-2080 -2120 2318 0
-2080 -2121 2319 0
-2080 -2122 2320 0
-2080 -2123 2321 0
-2080 -2124 2322 0
-2080 -2125 2323 0
-2080 -2126 2324 0
-2080 -2127 2325 0
-2080 -2128 2326 0
-2080 -2129 2327 0
-2080 -2130 2328 0
-2080 -2131 2329 0
-2080 -2132 2330 0
-2080 -2133 2331 0
-2080 -2134 2332 0
-2080 -2135 2333 0
-2080 -2136 2334 0
-2080 -2137 2335 0
-2080 -2138 2336 0
-2080 -2139 2337 0
-2080 -2140 2338 0
-2080 -2141 2339 0
-2080 -2142 2340 0
-2080 -2143 2341 0
-2080 -2144 2342 0
-2080 -2145 2343 0
-2080 -2146 2344 0
-2080 -2147 2345 0
-2080 -2148 2346 0
-2080 -2149 2347 0
-2080 -2150 2348 0
-2080 -2151 2349 0
-2080 -2152 2350 0
-2080 -2153 2351 0
-2080 -2154 2352 0
-2080 -2155 2353 0
-2080 -2156 2354 0
-2080 -2157 2355 0
-2080 -2158 2356 0
-2080 -2159 2357 0
-2080 -2160 2358 0
-2080 -2161 2359 0
-2080 -2162 2360 0
-2080 -2163 2361 0
-2080 -2164 2362 0
-2080 -2165 2363 0
-2080 -2166 2364 0
-2080 -2167 2365 0
-2081 -2099 2298 0
-2081 -2100 2299 0
-2081 -2101 2300 0
-2081 -2102 2301 0
-2081 -2103 2302 0
-2081 -2104 2303 0
-2081 -2105 2304 0
-2081 -2106 2305 0
-2081 -2107 2306 0
-2081 -2108 2307 0
-2081 -2109 2308 0
-2081 -2110 2309 0
-2081 -2111 2310 0
-2081 -2112 2311 0
-2081 -2113 2312 0
-2081 -2114 2313 0
-2081 -2115 2314 0
-2081 -2116 2315 0
-2081 -2117 2316 0
-2081 -2118 2317 0
-2081 -2119 2318 0
-2081 -2120 2319 0
-2081 -2121 2320 0
-2081 -2122 2321 0
-2081 -2123 2322 0
-2081 -2124 2323 0
-2081 -2125 2324 0
-2081 -2126 2325 0
-2081 -2127 2326 0
-2081 -2128 2327 0
-2081 -2129 2328 0
-2081 -2130 2329 0
-2081 -2131 2330 0
-2081 -2132 2331 0
-2081 -2133 2332 0
-2081 -2134 2333 0
-2081 -2135 2334 0
-2081 -2136 2335 0
-2081 -2137 2336 0
-2081 -2138 2337 0
-2081 -2139 2338 0
-2081 -2140 2339 0
-2081 -2141 2340 0
-2081 -2142 2341 0
-2081 -2143 2342 0
-2081 -2144 2343 0
-2081 -2145 2344 0
-2081 -2146 2345 0
-2081 -2147 2346 0
-2081 -2148 2347 0
-2081 -2149 2348 0
-2081 -2150 2349 0
-2081 -2151 2350 0
-2081 -2152 2351 0
-2081 -2153 2352 0
-2081 -2154 2353 0
-2081 -2155 2354 0
-2081 -2156 2355 0
-2081 -2157 2356 0
-2081 -2158 2357 0
-2081 -2159 2358 0
-2081 -2160 2359 0
-2081 -2161 2360 0
-2081 -2162 2361 0
-2081 -2163 2362 0
-2081 -2164 2363 0
-2081 -2165 2364 0
-2081 -2166 2365 0
-2082 -2099 2299 0
-2082 -2100 2300 0
-2082 -2101 2301 0
-2082 -2102 2302 0
-2082 -2103 2303 0
-2082 -2104 2304 0
-2082 -2105 2305 0
-2082 -2106 2306 0
-2082 -2107 2307 0
-2082 -2108 2308 0
-2082 -2109 2309 0
-2082 -2110 2310 0
-2082 -2111 2311 0
-2082 -2112 2312 0
-2082 -2113 2313 0
-2082 -2114 2314 0
-2082 -2115 2315 0
-2082 -2116 2316 0
-2082 -2117 2317 0
-2082 -2118 2318 0
-2082 -2119 2319 0
-2082 -2120 2320 0
-2082 -2121 2321 0
-2082 -2122 2322 0
-2082 -2123 2323 0
-2082 -2124 2324 0
-2082 -2125 2325 0
-2082 -2126 2326 0
-2082 -2127 2327 0
-2082 -2128 2328 0
-2082 -2129 2329 0
-2082 -2130 2330 0
-2082 -2131 2331 0
-2082 -2132 2332 0
-2082 -2133 2333 0
-2082 -2134 2334 0
-2082 -2135 2335 0
-2082 -2136 2336 0
-2082 -2137 2337 0
-2082 -2138 2338 0
-2082 -2139 2339 0
-2082 -2140 2340 0
-2082 -2141 2341 0
-2082 -2142 2342 0
-2082 -2143 2343 0
-2082 -2144 2344 0
-2082 -2145 2345 0
-2082 -2146 2346 0
-2082 -2147 2347 0
-2082 -2148 2348 0
-2082 -2149 2349 0
-2082 -2150 2350 0
-2082 -2151 2351 0
-2082 -2152 2352 0
-2082 -2153 2353 0
-2082 -2154 2354 0
-2082 -2155 2355 0
-2082 -2156 2356 0
-2082 -2157 2357 0
-2082 -2158 2358 0
-2082 -2159 2359 0
-2082 -2160 2360 0
-2082 -2161 2361 0
-2082 -2162 2362 0
-2082 -2163 2363 0
-2082 -2164 2364 0
-2082 -2165 2365 0
-2083 -2099 2300 0
-2083 -2100 2301 0
-2083 -2101 2302 0
-2083 -2102 2303 0
-2083 -2103 2304 0
-2083 -2104 2305 0
-2083 -2105 2306 0
-2083 -2106 2307 0
-2083 -2107 2308 0
-2083 -2108 2309 0
-2083 -2109 2310 0
-2083 -2110 2311 0
-2083 -2111 2312 0
-2083 -2112 2313 0
-2083 -2113 2314 0
-2083 -2114 2315 0
-2083 -2115 2316 0
-2083 -2116 2317 0
-2083 -2117 2318 0
-2083 -2118 2319 0
-2083 -2119 2320 0
-2083 -2120 2321 0
-2083 -2121 2322 0
-2083 -2122 2323 0
-2083 -2123 2324 0
-2083 -2124 2325 0
-2083 -2125 2326 0
-2083 -2126 2327 0
-2083 -2127 2328 0
-2083 -2128 2329 0
-2083 -2129 2330 0
-2083 -2130 2331 0
-2083 -2131 2332 0
-2083 -2132 2333 0
-2083 -2133 2334 0
-2083 -2134 2335 0
-2083 -2135 2336 0
-2083 -2136 2337 0
-2083 -2137 2338 0
-2083 -2138 2339 0
-2083 -2139 2340 0
-2083 -2140 2341 0
-2083 -2141 2342 0
-2083 -2142 2343 0
-2083 -2143 2344 0
-2083 -2144 2345 0
-2083 -2145 2346 0
-2083 -2146 2347 0
-2083 -2147 2348 0
-2083 -2148 2349 0
-2083 -2149 2350 0
-2083 -2150 2351 0
-2083 -2151 2352 0
-2083 -2152 2353 0
-2083 -2153 2354 0
-2083 -2154 2355 0
-2083 -2155 2356 0
-2083 -2156 2357 0
-2083 -2157 2358 0
-2083 -2158 2359 0
-2083 -2159 2360 0
-2083 -2160 2361 0
-2083 -2161 2362 0
-2083 -2162 2363 0
-2083 -2163 2364 0
-2083 -2164 2365 0
-2084 -2099 2301 0
-2084 -2100 2302 0
-2084 -2101 2303 0
-2084 -2102 2304 0
-2084 -2103 2305 0
-2084 -2104 2306 0
-2084 -2105 2307 0
-2084 -2106 2308 0
-2084 -2107 2309 0
-2084 -2108 2310 0
-2084 -2109 2311 0
-2084 -2110 2312 0
-2084 -2111 2313 0
-2084 -2112 2314 0
-2084 -2113 2315 0
-2084 -2114 2316 0
-2084 -2115 2317 0
-2084 -2116 2318 0
-2084 -2117 2319 0
-2084 -2118 2320 0
-2084 -2119 2321 0
-2084 -2120 2322 0
-2084 -2121 2323 0
-2084 -2122 2324 0
-2084 -2123 2325 0
-2084 -2124 2326 0
-2084 -2125 2327 0
-2084 -2126 2328 0
-2084 -2127 2329 0
-2084 -2128 2330 0
-2084 -2129 2331 0
-2084 -2130 2332 0
-2084 -2131 2333 0
-2084 -2132 2334 0
-2084 -2133 2335 0
-2084 -2134 2336 0
-2084 -2135 2337 0
-2084 -2136 2338 0
-2084 -2137 2339 0
-2084 -2138 2340 0
-2084 -2139 2341 0
-2084 -2140 2342 0
-2084 -2141 2343 0
-2084 -2142 2344 0
-2084 -2143 2345 0
-2084 -2144 2346 0
-2084 -2145 2347 0
-2084 -2146 2348 0
-2084 -2147 2349 0
-2084 -2148 2350 0
-2084 -2149 2351 0
-2084 -2150 2352 0
-2084 -2151 2353 0
-2084 -2152 2354 0
-2084 -2153 2355 0
-2084 -2154 2356 0
-2084 -2155 2357 0
-2084 -2156 2358 0
-2084 -2157 2359 0
-2084 -2158 2360 0
-2084 -2159 2361 0
-2084 -2160 2362 0
-2084 -2161 2363 0
-2084 -2162 2364 0
-2084 -2163 2365 0
-2085 -2099 2302 0
-2085 -2100 2303 0
-2085 -2101 2304 0
-2085 -2102 2305 0
-2085 -2103 2306 0
-2085 -2104 2307 0
-2085 -2105 2308 0
-2085 -2106 2309 0
-2085 -2107 2310 0
-2085 -2108 2311 0
-2085 -2109 2312 0
-2085 -2110 2313 0
-2085 -2111 2314 0
-2085 -2112 2315 0
-2085 -2113 2316 0
-2085 -2114 2317 0
-2085 -2115 2318 0
-2085 -2116 2319 0
-2085 -2117 2320 0
-2085 -2118 2321 0
-2085 -2119 2322 0
-2085 -2120 2323 0
-2085 -2121 2324 0
-2085 -2122 2325 0
-2085 -2123 2326 0
-2085 -2124 2327 0
-2085 -2125 2328 0
-2085 -2126 2329 0
-2085 -2127 2330 0
-2085 -2128 2331 0
-2085 -2129 2332 0
-2085 -2130 2333 0
-2085 -2131 2334 0
-2085 -2132 2335 0
-2085 -2133 2336 0
-2085 -2134 2337 0
-2085 -2135 2338 0
-2085 -2136 2339 0
-2085 -2137 2340 0
-2085 -2138 2341 0
-2085 -2139 2342 0
-2085 -2140 2343 0
-2085 -2141 2344 0
-2085 -2142 2345 0
-2085 -2143 2346 0
-2085 -2144 2347 0
-2085 -2145 2348 0
-2085 -2146 2349 0
-2085 -2147 2350 0
-2085 -2148 2351 0
-2085 -2149 2352 0
-2085 -2150 2353 0
-2085 -2151 2354 0
-2085 -2152 2355 0
-2085 -2153 2356 0
-2085 -2154 2357 0
-2085 -2155 2358 0
-2085 -2156 2359 0
-2085 -2157 2360 0
-2085 -2158 2361 0
-2085 -2159 2362 0
-2085 -2160 2363 0
-2085 -2161 2364 0
-2085 -2162 2365 0
-2086 -2099 2303 0
-2086 -2100 2304 0
-2086 -2101 2305 0
-2086 -2102 2306 0
-2086 -2103 2307 0
-2086 -2104 2308 0
-2086 -2105 2309 0
-2086 -2106 2310 0
-2086 -2107 2311 0
-2086 -2108 2312 0
-2086 -2109 2313 0
-2086 -2110 2314 0
-2086 -2111 2315 0
-2086 -2112 2316 0
-2086 -2113 2317 0
-2086 -2114 2318 0
-2086 -2115 2319 0
-2086 -2116 2320 0
-2086 -2117 2321 0
-2086 -2118 2322 0
-2086 -2119 2323 0
-2086 -2120 2324 0
-2086 -2121 2325 0
-2086 -2122 2326 0
-2086 -2123 2327 0
-2086 -2124 2328 0
-2086 -2125 2329 0
-2086 -2126 2330 0
-2086 -2127 2331 0
-2086 -2128 2332 0
-2086 -2129 2333 0
-2086 -2130 2334 0
-2086 -2131 2335 0
-2086 -2132 2336 0
-2086 -2133 2337 0
-2086 -2134 2338 0
-2086 -2135 2339 0
-2086 -2136 2340 0
-2086 -2137 2341 0
-2086 -2138 2342 0
-2086 -2139 2343 0
-2086 -2140 2344 0
-2086 -2141 2345 0
-2086 -2142 2346 0
-2086 -2143 2347 0
-2086 -2144 2348 0
-2086 -2145 2349 0
-2086 -2146 2350 0
-2086 -2147 2351 0
-2086 -2148 2352 0
-2086 -2149 2353 0
-2086 -2150 2354 0
-2086 -2151 2355 0
-2086 -2152 2356 0
-2086 -2153 2357 0
-2086 -2154 2358 0
-2086 -2155 2359 0
-2086 -2156 2360 0
-2086 -2157 2361 0
-2086 -2158 2362 0
-2086 -2159 2363 0
-2086 -2160 2364 0
-2086 -2161 2365 0
-2087 -2099 2304 0
-2087 -2100 2305 0
-2087 -2101 2306 0
-2087 -2102 2307 0
-2087 -2103 2308 0
-2087 -2104 2309 0
-2087 -2105 2310 0
-2087 -2106 2311 0
-2087 -2107 2312 0
-2087 -2108 2313 0
-2087 -2109 2314 0
-2087 -2110 2315 0
-2087 -2111 2316 0
-2087 -2112 2317 0
-2087 -2113 2318 0
-2087 -2114 2319 0
-2087 -2115 2320 0
-2087 -2116 2321 0
-2087 -2117 2322 0
-2087 -2118 2323 0
-2087 -2119 2324 0
-2087 -2120 2325 0
-2087 -2121 2326 0
-2087 -2122 2327 0
-2087 -2123 2328 0
-2087 -2124 2329 0
-2087 -2125 2330 0
-2087 -2126 2331 0
-2087 -2127 2332 0
-2087 -2128 2333 0
-2087 -2129 2334 0
-2087 -2130 2335 0
-2087 -2131 2336 0
-2087 -2132 2337 0
-2087 -2133 2338 0
-2087 -2134 2339 0
-2087 -2135 2340 0
-2087 -2136 2341 0
-2087 -2137 2342 0
-2087 -2138 2343 0
-2087 -2139 2344 0
-2087 -2140 2345 0
-2087 -2141 2346 0
-2087 -2142 2347 0
-2087 -2143 2348 0
-2087 -2144 2349 0
-2087 -2145 2350 0
-2087 -2146 2351 0
-2087 -2147 2352 0
-2087 -2148 2353 0
-2087 -2149 2354 0
-2087 -2150 2355 0
-2087 -2151 2356 0
-2087 -2152 2357 0
-2087 -2153 2358 0
-2087 -2154 2359 0
-2087 -2155 2360 0
-2087 -2156 2361 0
-2087 -2157 2362 0
-2087 -2158 2363 0
-2087 -2159 2364 0
-2087 -2160 2365 0
-2088 -2099 2305 0
-2088 -2100 2306 0
-2088 -2101 2307 0
-2088 -2102 2308 0
-2088 -2103 2309 0
-2088 -2104 2310 0
-2088 -2105 2311 0
-2088 -2106 2312 0
-2088 -2107 2313 0
-2088 -2108 2314 0
-2088 -2109 2315 0
-2088 -2110 2316 0
-2088 -2111 2317 0
-2088 -2112 2318 0
-2088 -2113 2319 0
-2088 -2114 2320 0
-2088 -2115 2321 0
-2088 -2116 2322 0
-2088 -2117 2323 0
-2088 -2118 2324 0
-2088 -2119 2325 0
-2088 -2120 2326 0
-2088 -2121 2327 0
-2088 -2122 2328 0
-2088 -2123 2329 0
-2088 -2124 2330 0
-2088 -2125 2331 0
-2088 -2126 2332 0
-2088 -2127 2333 0
-2088 -2128 2334 0
-2088 -2129 2335 0
-2088 -2130 2336 0
-2088 -2131 2337 0
-2088 -2132 2338 0
-2088 -2133 2339 0
-2088 -2134 2340 0
-2088 -2135 2341 0
-2088 -2136 2342 0
-2088 -2137 2343 0
-2088 -2138 2344 0
-2088 -2139 2345 0
-2088 -2140 2346 0
-2088 -2141 2347 0
-2088 -2142 2348 0
-2088 -2143 2349 0
-2088 -2144 2350 0
-2088 -2145 2351 0
-2088 -2146 2352 0
-2088 -2147 2353 0
-2088 -2148 2354 0
-2088 -2149 2355 0
-2088 -2150 2356 0
-2088 -2151 2357 0
-2088 -2152 2358 0
-2088 -2153 2359 0
-2088 -2154 2360 0
-2088 -2155 2361 0
-2088 -2156 2362 0
-2088 -2157 2363 0
-2088 -2158 2364 0
-2088 -2159 2365 0
-2089 -2099 2306 0
-2089 -2100 2307 0
-2089 -2101 2308 0
-2089 -2102 2309 0
-2089 -2103 2310 0
-2089 -2104 2311 0
-2089 -2105 2312 0
-2089 -2106 2313 0
-2089 -2107 2314 0
-2089 -2108 2315 0
-2089 -2109 2316 0
-2089 -2110 2317 0
-2089 -2111 2318 0
-2089 -2112 2319 0
-2089 -2113 2320 0
-2089 -2114 2321 0
-2089 -2115 2322 0
-2089 -2116 2323 0
-2089 -2117 2324 0
-2089 -2118 2325 0
-2089 -2119 2326 0
-2089 -2120 2327 0
-2089 -2121 2328 0
-2089 -2122 2329 0
-2089 -2123 2330 0
-2089 -2124 2331 0
-2089 -2125 2332 0
-2089 -2126 2333 0
-2089 -2127 2334 0
-2089 -2128 2335 0
-2089 -2129 2336 0
-2089 -2130 2337 0
-2089 -2131 2338 0
-2089 -2132 2339 0
-2089 -2133 2340 0
-2089 -2134 2341 0
-2089 -2135 2342 0
-2089 -2136 2343 0
-2089 -2137 2344 0
-2089 -2138 2345 0
-2089 -2139 2346 0
-2089 -2140 2347 0
-2089 -2141 2348 0
-2089 -2142 2349 0
-2089 -2143 2350 0
-2089 -2144 2351 0
-2089 -2145 2352 0
-2089 -2146 2353 0
-2089 -2147 2354 0
-2089 -2148 2355 0
-2089 -2149 2356 0
-2089 -2150 2357 0
-2089 -2151 2358 0
-2089 -2152 2359 0
-2089 -2153 2360 0
-2089 -2154 2361 0
-2089 -2155 2362 0
-2089 -2156 2363 0
-2089 -2157 2364 0
-2089 -2158 2365 0
-2090 -2099 2307 0
-2090 -2100 2308 0
-2090 -2101 2309 0
-2090 -2102 2310 0
-2090 -2103 2311 0
-2090 -2104 2312 0
-2090 -2105 2313 0
-2090 -2106 2314 0
-2090 -2107 2315 0
-2090 -2108 2316 0
-2090 -2109 2317 0
-2090 -2110 2318 0
-2090 -2111 2319 0
-2090 -2112 2320 0
-2090 -2113 2321 0
-2090 -2114 2322 0
-2090 -2115 2323 0
-2090 -2116 2324 0
-2090 -2117 2325 0
-2090 -2118 2326 0
-2090 -2119 2327 0
-2090 -2120 2328 0
-2090 -2121 2329 0
-2090 -2122 2330 0
-2090 -2123 2331 0
-2090 -2124 2332 0
-2090 -2125 2333 0
-2090 -2126 2334 0
-2090 -2127 2335 0
-2090 -2128 2336 0
-2090 -2129 2337 0
-2090 -2130 2338 0
-2090 -2131 2339 0
-2090 -2132 2340 0
-2090 -2133 2341 0
-2090 -2134 2342 0
-2090 -2135 2343 0
-2090 -2136 2344 0
-2090 -2137 2345 0
-2090 -2138 2346 0
-2090 -2139 2347 0
-2090 -2140 2348 0
-2090 -2141 2349 0
-2090 -2142 2350 0
-2090 -2143 2351 0
-2090 -2144 2352 0
-2090 -2145 2353 0
-2090 -2146 2354 0
-2090 -2147 2355 0
-2090 -2148 2356 0
-2090 -2149 2357 0
-2090 -2150 2358 0
-2090 -2151 2359 0
-2090 -2152 2360 0
-2090 -2153 2361 0
-2090 -2154 2362 0
-2090 -2155 2363 0
-2090 -2156 2364 0
-2090 -2157 2365 0
-2091 -2099 2308 0
-2091 -2100 2309 0
-2091 -2101 2310 0
-2091 -2102 2311 0
-2091 -2103 2312 0
-2091 -2104 2313 0
-2091 -2105 2314 0
-2091 -2106 2315 0
-2091 -2107 2316 0
-2091 -2108 2317 0
-2091 -2109 2318 0
-2091 -2110 2319 0
-2091 -2111 2320 0
-2091 -2112 2321 0
-2091 -2113 2322 0
-2091 -2114 2323 0
-2091 -2115 2324 0
-2091 -2116 2325 0
-2091 -2117 2326 0
-2091 -2118 2327 0
-2091 -2119 2328 0
-2091 -2120 2329 0
-2091 -2121 2330 0
-2091 -2122 2331 0
-2091 -2123 2332 0
-2091 -2124 2333 0
-2091 -2125 2334 0
-2091 -2126 2335 0
-2091 -2127 2336 0
-2091 -2128 2337 0
-2091 -2129 2338 0
-2091 -2130 2339 0
-2091 -2131 2340 0
-2091 -2132 2341 0
-2091 -2133 2342 0
-2091 -2134 2343 0
-2091 -2135 2344 0
-2091 -2136 2345 0
-2091 -2137 2346 0
-2091 -2138 2347 0
-2091 -2139 2348 0
-2091 -2140 2349 0
-2091 -2141 2350 0
-2091 -2142 2351 0
-2091 -2143 2352 0
-2091 -2144 2353 0
-2091 -2145 2354 0
-2091 -2146 2355 0
-2091 -2147 2356 0
-2091 -2148 2357 0
-2091 -2149 2358 0
-2091 -2150 2359 0
-2091 -2151 2360 0
-2091 -2152 2361 0
-2091 -2153 2362 0
-2091 -2154 2363 0
-2091 -2155 2364 0
-2091 -2156 2365 0
-2092 -2099 2309 0
-2092 -2100 2310 0
-2092 -2101 2311 0
-2092 -2102 2312 0
-2092 -2103 2313 0
-2092 -2104 2314 0
-2092 -2105 2315 0
-2092 -2106 2316 0
-2092 -2107 2317 0
-2092 -2108 2318 0
-2092 -2109 2319 0
-2092 -2110 2320 0
-2092 -2111 2321 0
-2092 -2112 2322 0
-2092 -2113 2323 0
-2092 -2114 2324 0
-2092 -2115 2325 0
-2092 -2116 2326 0
-2092 -2117 2327 0
-2092 -2118 2328 0
-2092 -2119 2329 0
-2092 -2120 2330 0
-2092 -2121 2331 0
-2092 -2122 2332 0
-2092 -2123 2333 0
-2092 -2124 2334 0
-2092 -2125 2335 0
-2092 -2126 2336 0
-2092 -2127 2337 0
-2092 -2128 2338 0
-2092 -2129 2339 0
-2092 -2130 2340 0
-2092 -2131 2341 0
-2092 -2132 2342 0
-2092 -2133 2343 0
-2092 -2134 2344 0
-2092 -2135 2345 0
-2092 -2136 2346 0
-2092 -2137 2347 0
-2092 -2138 2348 0
-2092 -2139 2349 0
-2092 -2140 2350 0
-2092 -2141 2351 0
-2092 -2142 2352 0
-2092 -2143 2353 0
-2092 -2144 2354 0
-2092 -2145 2355 0
-2092 -2146 2356 0
-2092 -2147 2357 0
-2092 -2148 2358 0
-2092 -2149 2359 0
-2092 -2150 2360 0
-2092 -2151 2361 0
-2092 -2152 2362 0
-2092 -2153 2363 0
-2092 -2154 2364 0
-2092 -2155 2365 0
-2093 -2099 2310 0
-2093 -2100 2311 0
-2093 -2101 2312 0
-2093 -2102 2313 0
-2093 -2103 2314 0
-2093 -2104 2315 0
-2093 -2105 2316 0
-2093 -2106 2317 0
-2093 -2107 2318 0
-2093 -2108 2319 0
-2093 -2109 2320 0
-2093 -2110 2321 0
-2093 -2111 2322 0
-2093 -2112 2323 0
-2093 -2113 2324 0
-2093 -2114 2325 0
-2093 -2115 2326 0
-2093 -2116 2327 0
-2093 -2117 2328 0
-2093 -2118 2329 0
-2093 -2119 2330 0
-2093 -2120 2331 0
-2093 -2121 2332 0
-2093 -2122 2333 0
-2093 -2123 2334 0
-2093 -2124 2335 0
-2093 -2125 2336 0
-2093 -2126 2337 0
-2093 -2127 2338 0
-2093 -2128 2339 0
-2093 -2129 2340 0
-2093 -2130 2341 0
-2093 -2131 2342 0
-2093 -2132 2343 0
-2093 -2133 2344 0
-2093 -2134 2345 0
-2093 -2135 2346 0
-2093 -2136 2347 0
-2093 -2137 2348 0
-2093 -2138 2349 0
-2093 -2139 2350 0
-2093 -2140 2351 0
-2093 -2141 2352 0
-2093 -2142 2353 0
-2093 -2143 2354 0
-2093 -2144 2355 0
-2093 -2145 2356 0
-2093 -2146 2357 0
-2093 -2147 2358 0
-2093 -2148 2359 0
-2093 -2149 2360 0
-2093 -2150 2361 0
-2093 -2151 2362 0
-2093 -2152 2363 0
-2093 -2153 2364 0
-2093 -2154 2365 0
-2094 -2099 2311 0
-2094 -2100 2312 0
-2094 -2101 2313 0
-2094 -2102 2314 0
-2094 -2103 2315 0
-2094 -2104 2316 0
-2094 -2105 2317 0
-2094 -2106 2318 0
-2094 -2107 2319 0
-2094 -2108 2320 0
-2094 -2109 2321 0
-2094 -2110 2322 0
-2094 -2111 2323 0
-2094 -2112 2324 0
-2094 -2113 2325 0
-2094 -2114 2326 0
-2094 -2115 2327 0
-2094 -2116 2328 0
-2094 -2117 2329 0
-2094 -2118 2330 0
-2094 -2119 2331 0
-2094 -2120 2332 0
-2094 -2121 2333 0
-2094 -2122 2334 0
-2094 -2123 2335 0
-2094 -2124 2336 0
-2094 -2125 2337 0
-2094 -2126 2338 0
-2094 -2127 2339 0
-2094 -2128 2340 0
-2094 -2129 2341 0
-2094 -2130 2342 0
-2094 -2131 2343 0
-2094 -2132 2344 0
-2094 -2133 2345 0
-2094 -2134 2346 0
-2094 -2135 2347 0
-2094 -2136 2348 0
-2094 -2137 2349 0
-2094 -2138 2350 0
-2094 -2139 2351 0
-2094 -2140 2352 0
-2094 -2141 2353 0
-2094 -2142 2354 0
-2094 -2143 2355 0
-2094 -2144 2356 0
-2094 -2145 2357 0
-2094 -2146 2358 0
-2094 -2147 2359 0
-2094 -2148 2360 0
-2094 -2149 2361 0
-2094 -2150 2362 0
-2094 -2151 2363 0
-2094 -2152 2364 0
-2094 -2153 2365 0
-2095 -2099 2312 0
-2095 -2100 2313 0
-2095 -2101 2314 0
-2095 -2102 2315 0
-2095 -2103 2316 0
-2095 -2104 2317 0
-2095 -2105 2318 0
-2095 -2106 2319 0
-2095 -2107 2320 0
-2095 -2108 2321 0
-2095 -2109 2322 0
-2095 -2110 2323 0
-2095 -2111 2324 0
-2095 -2112 2325 0
-2095 -2113 2326 0
-2095 -2114 2327 0
-2095 -2115 2328 0
-2095 -2116 2329 0
-2095 -2117 2330 0
-2095 -2118 2331 0
-2095 -2119 2332 0
-2095 -2120 2333 0
-2095 -2121 2334 0
-2095 -2122 2335 0
-2095 -2123 2336 0
-2095 -2124 2337 0
-2095 -2125 2338 0
-2095 -2126 2339 0
-2095 -2127 2340 0
-2095 -2128 2341 0
-2095 -2129 2342 0
-2095 -2130 2343 0
-2095 -2131 2344 0
-2095 -2132 2345 0
-2095 -2133 2346 0
-2095 -2134 2347 0
-2095 -2135 2348 0
-2095 -2136 2349 0
-2095 -2137 2350 0
-2095 -2138 2351 0
-2095 -2139 2352 0
-2095 -2140 2353 0
-2095 -2141 2354 0
-2095 -2142 2355 0
-2095 -2143 2356 0
-2095 -2144 2357 0
-2095 -2145 2358 0
-2095 -2146 2359 0
-2095 -2147 2360 0
-2095 -2148 2361 0
-2095 -2149 2362 0
-2095 -2150 2363 0
-2095 -2151 2364 0
-2095 -2152 2365 0
-2096 -2099 2313 0
-2096 -2100 2314 0
-2096 -2101 2315 0
-2096 -2102 2316 0
-2096 -2103 2317 0
-2096 -2104 2318 0
-2096 -2105 2319 0
-2096 -2106 2320 0
-2096 -2107 2321 0
-2096 -2108 2322 0
-2096 -2109 2323 0
-2096 -2110 2324 0
-2096 -2111 2325 0
-2096 -2112 2326 0
-2096 -2113 2327 0
-2096 -2114 2328 0
-2096 -2115 2329 0
-2096 -2116 2330 0
-2096 -2117 2331 0
-2096 -2118 2332 0
-2096 -2119 2333 0
-2096 -2120 2334 0
-2096 -2121 2335 0
-2096 -2122 2336 0
-2096 -2123 2337 0
-2096 -2124 2338 0
-2096 -2125 2339 0
-2096 -2126 2340 0
-2096 -2127 2341 0
-2096 -2128 2342 0
-2096 -2129 2343 0
-2096 -2130 2344 0
-2096 -2131 2345 0
-2096 -2132 2346 0
-2096 -2133 2347 0
-2096 -2134 2348 0
-2096 -2135 2349 0
-2096 -2136 2350 0
-2096 -2137 2351 0
-2096 -2138 2352 0
-2096 -2139 2353 0
-2096 -2140 2354 0
-2096 -2141 2355 0
-2096 -2142 2356 0
-2096 -2143 2357 0
-2096 -2144 2358 0
-2096 -2145 2359 0
-2096 -2146 2360 0
-2096 -2147 2361 0
-2096 -2148 2362 0
-2096 -2149 2363 0
-2096 -2150 2364 0
-2096 -2151 2365 0
-2097 -2099 2314 0
-2097 -2100 2315 0
-2097 -2101 2316 0
-2097 -2102 2317 0
-2097 -2103 2318 0
-2097 -2104 2319 0
-2097 -2105 2320 0
-2097 -2106 2321 0
-2097 -2107 2322 0
-2097 -2108 2323 0
-2097 -2109 2324 0
-2097 -2110 2325 0
-2097 -2111 2326 0
-2097 -2112 2327 0
-2097 -2113 2328 0
-2097 -2114 2329 0
-2097 -2115 2330 0
-2097 -2116 2331 0
-2097 -2117 2332 0
-2097 -2118 2333 0
-2097 -2119 2334 0
-2097 -2120 2335 0
-2097 -2121 2336 0
-2097 -2122 2337 0
-2097 -2123 2338 0
-2097 -2124 2339 0
-2097 -2125 2340 0
-2097 -2126 2341 0
-2097 -2127 2342 0
-2097 -2128 2343 0
-2097 -2129 2344 0
-2097 -2130 2345 0
-2097 -2131 2346 0
-2097 -2132 2347 0
-2097 -2133 2348 0
-2097 -2134 2349 0
-2097 -2135 2350 0
-2097 -2136 2351 0
-2097 -2137 2352 0
-2097 -2138 2353 0
-2097 -2139 2354 0
-2097 -2140 2355 0
-2097 -2141 2356 0
-2097 -2142 2357 0
-2097 -2143 2358 0
-2097 -2144 2359 0
-2097 -2145 2360 0
-2097 -2146 2361 0
-2097 -2147 2362 0
-2097 -2148 2363 0
-2097 -2149 2364 0
-2097 -2150 2365 0
-2098 -2099 2315 0
-2098 -2100 2316 0
-2098 -2101 2317 0
-2098 -2102 2318 0
-2098 -2103 2319 0
-2098 -2104 2320 0
-2098 -2105 2321 0
-2098 -2106 2322 0
-2098 -2107 2323 0
-2098 -2108 2324 0
-2098 -2109 2325 0
-2098 -2110 2326 0
-2098 -2111 2327 0
-2098 -2112 2328 0
-2098 -2113 2329 0
-2098 -2114 2330 0
-2098 -2115 2331 0
-2098 -2116 2332 0
-2098 -2117 2333 0
-2098 -2118 2334 0
-2098 -2119 2335 0
-2098 -2120 2336 0
-2098 -2121 2337 0
-2098 -2122 2338 0
-2098 -2123 2339 0
-2098 -2124 2340 0
-2098 -2125 2341 0
-2098 -2126 2342 0
-2098 -2127 2343 0
-2098 -2128 2344 0
-2098 -2129 2345 0
-2098 -2130 2346 0
-2098 -2131 2347 0
-2098 -2132 2348 0
-2098 -2133 2349 0
-2098 -2134 2350 0
-2098 -2135 2351 0
-2098 -2136 2352 0
-2098 -2137 2353 0
-2098 -2138 2354 0
-2098 -2139 2355 0
-2098 -2140 2356 0
-2098 -2141 2357 0
-2098 -2142 2358 0
-2098 -2143 2359 0
-2098 -2144 2360 0
-2098 -2145 2361 0
-2098 -2146 2362 0
-2098 -2147 2363 0
-2098 -2148 2364 0
-2098 -2149 2365 0
-2366 103 0
-2366 272 0
-2367 119 0
-2367 435 0
-2368 123 0
-2368 262 0
-2369 256 0
-2369 359 0
-2370 272 0
-2370 340 0
-2371 392 0
-2371 399 0
2366 2367 2368 2369 2370 2371 0
-2372 5 0
-2372 359 0
2366 2368 2370 2372 0
-2373 73 0
-2373 244 0
-2374 79 0
-2374 237 0
-2375 79 0
-2375 239 0
-2376 163 0
-2376 252 0
-2377 182 0
-2377 431 0
-2378 237 0
-2378 360 0
2373 2374 2375 2376 2377 2378 0
-2379 341 0
-2379 425 0
2374 2375 2379 0
244 0
-2380 31 0
-2380 292 0
-2381 161 0
-2381 254 0
-2382 166 0
-2382 241 0
-2383 269 0
-2383 350 0
-2384 379 0
-2384 395 0
-2385 439 0
-2385 512 0
2380 2381 2382 2383 2384 2385 0
-2386 32 0
-2386 292 0
-2387 181 0
-2387 439 0
2382 2386 2387 0
-2388 68 0
-2388 249 0
-2389 129 0
-2389 275 0
-2390 149 0
-2390 248 0
-2391 191 0
-2391 284 0
-2392 197 0
-2392 259 0
-2393 258 0
-2393 377 0
-2394 271 0
-2394 352 0
-2395 303 0
-2395 424 0
-2396 352 0
-2396 427 0
2388 2389 2390 2391 2392 2393 2394 2395 2396 0
-2397 11 0
-2397 352 0
2388 2389 2390 2391 2392 2393 2395 2397 0
427 0
-2398 20 0
-2398 287 0
-2399 96 0
-2399 314 0
-2400 120 0
-2400 436 0
-2401 187 0
-2401 289 0
-2402 312 0
-2402 368 0
2398 2399 2400 2401 2402 0
-2403 33 0
-2403 287 0
-2404 291 0
-2404 368 0
2399 2401 2403 2404 0
-2405 25 0
-2405 316 0
-2406 51 0
-2406 273 0
-2407 178 0
-2407 286 0
-2408 190 0
-2408 283 0
-2409 243 0
-2409 450 0
-2410 257 0
-2410 275 0
-2411 365 0
-2411 421 0
-2412 427 0
-2412 433 0
-2413 427 0
-2413 447 0
-2414 428 0
-2414 434 0
2405 2406 2407 2408 2409 2410 2411 2412 2413 2414 0
2405 2406 2407 2408 2409 2411 2414 0
283 0
-2415 61 0
-2415 308 0
-2416 91 0
-2416 308 0
-2417 126 0
-2417 313 0
-2418 240 0
-2418 292 0
-2419 240 0
-2419 436 0
-2420 253 0
-2420 361 0
-2421 311 0
-2421 422 0
2415 2416 2417 2418 2419 2420 2421 0
2415 2416 2417 2419 2421 0
-2422 130 0
-2422 299 0
-2423 156 0
-2423 245 0
-2424 200 0
-2424 245 0
-2425 391 0
-2425 396 0
2422 2423 2424 2425 0
299 0
-2426 437 0
-2426 508 0
2426 0
-2427 27 0
-2427 318 0
-2428 29 0
-2428 295 0
-2429 66 0
-2429 251 0
-2430 96 0
-2430 309 0
-2431 103 0
-2431 270 0
-2432 123 0
-2432 440 0
-2433 260 0
-2433 402 0
-2434 260 0
-2434 442 0
-2435 281 0
-2435 418 0
-2436 285 0
-2436 373 0
-2437 322 0
-2437 373 0
2427 2428 2429 2430 2431 2432 2433 2434 2435 2436 2437 0
-2438 26 0
-2438 260 0
-2439 66 0
-2439 325 0
-2440 78 0
-2440 318 0
-2441 79 0
-2441 270 0
-2442 209 0
-2442 407 0
-2443 241 0
-2443 381 0
2428 2429 2430 2438 2439 2440 2441 2442 2443 0
322 270 0
-2444 131 0
-2444 334 0
2444 0
-2445 63 0
-2445 302 0
-2446 247 0
-2446 434 0
-2447 326 0
-2447 335 0
-2448 329 0
-2448 380 0
-2449 329 0
-2449 400 0
-2450 332 0
-2450 383 0
-2451 333 0
-2451 335 0
-2452 389 0
-2452 432 0
2445 2446 2447 2448 2449 2450 2451 2452 0
-2453 316 0
-2453 333 0
-2454 329 0
-2454 366 0
2445 2447 2453 2454 0
247 0
-2455 23 0
-2455 297 0
-2456 88 0
-2456 348 0
-2457 100 0
-2457 346 0
-2458 162 0
-2458 282 0
-2459 236 0
-2459 290 0
-2460 303 0
-2460 346 0
-2461 412 0
-2461 445 0
-2462 417 0
-2462 439 0
2455 2456 2457 2458 2459 2460 2461 2462 0
-2463 239 0
-2463 297 0
-2464 346 0
-2464 401 0
-2465 393 0
-2465 445 0
2456 2458 2459 2462 2463 2464 2465 0
-2466 6 0
-2466 362 0
-2467 31 0
-2467 342 0
-2468 238 0
-2468 432 0
-2469 284 0
-2469 416 0
-2470 320 0
-2470 339 0
-2471 331 0
-2471 403 0
-2472 438 0
-2472 510 0
2466 2467 2468 2469 2470 2471 2472 0
2456 2466 2467 2471 2472 0
438 0
-2473 123 0
-2473 330 0
2473 0
-2474 343 0
-2474 402 0
-2475 363 0
-2475 402 0
2474 2475 0
343 0
-2476 63 0
-2476 305 0
-2477 101 0
-2477 429 0
-2478 177 0
-2478 300 0
-2479 250 0
-2479 431 0
-2480 375 0
-2480 431 0
2476 2477 2478 2479 2480 0
-2481 93 0
-2481 431 0
2476 2477 2478 2481 0
-2482 89 0
-2482 310 0
-2483 109 0
-2483 386 0
-2484 388 0
-2484 558 0
2482 2483 2484 0
388 0
-2485 115 0
-2485 387 0
-2486 184 0
-2486 294 0
2485 2486 0
-2487 9 0
-2487 274 0
-2488 49 0
-2488 337 0
-2489 131 0
-2489 394 0
-2490 194 0
-2490 277 0
-2491 294 0
-2491 420 0
-2492 321 0
-2492 335 0
-2493 348 0
-2493 415 0
2487 2488 2489 2490 2491 2492 2493 0
337 0
-2494 212 0
-2494 336 0
2494 0
-2495 5 0
-2495 369 0
-2496 12 0
-2496 301 0
-2497 70 0
-2497 317 0
-2498 80 0
-2498 349 0
-2499 82 0
-2499 278 0
-2500 89 0
-2500 307 0
-2501 241 0
-2501 374 0
-2502 405 0
-2502 428 0
-2503 406 0
-2503 425 0
-2504 425 0
-2504 451 0
2495 2496 2497 2498 2499 2500 2501 2502 2503 2504 0
2495 2496 2497 2498 2499 2500 0
405 0
-2505 20 0
-2505 276 0
-2506 28 0
-2506 280 0
-2507 58 0
-2507 414 0
-2508 173 0
-2508 256 0
2505 2506 2507 2508 0
-2509 3 0
-2509 354 0
-2510 215 0
-2510 410 0
-2511 273 0
-2511 371 0
-2512 273 0
-2512 397 0
-2513 395 0
-2513 419 0
2509 2510 2511 2512 2513 0
-2514 272 0
-2514 419 0
2510 2514 0
410 0
-2515 215 0
-2515 409 0
2515 0
-2516 87 0
-2516 320 0
-2517 137 0
-2517 415 0
2516 2517 0
415 320 0
-2518 4 0
-2518 353 0
-2519 65 0
-2519 324 0
-2520 83 0
-2520 348 0
-2521 141 0
-2521 364 0
-2522 298 0
-2522 430 0
2518 2519 2520 2521 2522 0
-2523 52 0
-2523 304 0
-2524 52 0
-2524 331 0
-2525 56 0
-2525 357 0
-2526 62 0
-2526 323 0
-2527 70 0
-2527 258 0
-2528 142 0
-2528 367 0
2481 2523 2524 2525 2526 2527 2528 0
-2529 128 0
-2529 304 0
2393 2524 2526 2528 2529 0
331 0
-2530 314 0
-2530 331 0
-2531 331 0
-2531 339 0
2530 2531 0
-2532 61 0
-2532 403 0
2532 0
403 0
-2533 238 0
-2533 296 0
-2534 326 0
-2534 346 0
-2535 335 0
-2535 380 0
-2536 362 0
-2536 408 0
-2537 366 0
-2537 424 0
2533 2534 2535 2536 2537 0
2533 2534 2535 2537 0
-2538 387 0
-2538 556 0
2538 0
387 0
-2539 29 0
-2539 315 0
-2540 57 0
-2540 401 0
-2541 127 0
-2541 289 0
-2542 289 0
-2542 414 0
-2543 322 0
-2543 348 0
-2544 327 0
-2544 336 0
2468 2539 2540 2541 2542 2543 2544 0
-2545 84 0
-2545 289 0
2539 2540 2543 2545 0
-2546 386 0
-2546 554 0
2546 0
386 0
-2547 25 0
-2547 312 0
-2548 49 0
-2548 382 0
-2549 73 0
-2549 242 0
-2550 97 0
-2550 264 0
-2551 101 0
-2551 279 0
-2552 195 0
-2552 250 0
-2553 197 0
-2553 319 0
-2554 246 0
-2554 301 0
-2555 336 0
-2555 381 0
-2556 365 0
-2556 409 0
-2557 383 0
-2557 409 0
-2558 390 0
-2558 431 0
2479 2547 2548 2549 2550 2551 2552 2553 2554 2555 2556 2557 2558 0
-2559 165 0
-2559 250 0
-2560 336 0
-2560 409 0
2547 2548 2549 2550 2551 2553 2555 2558 2559 2560 0
-2561 66 0
-2561 418 0
-2562 105 0
-2562 375 0
-2563 142 0
-2563 281 0
-2564 142 0
-2564 392 0
-2565 156 0
-2565 442 0
-2566 200 0
-2566 260 0
-2567 323 0
-2567 338 0
-2568 325 0
-2568 363 0
-2569 334 0
-2569 338 0
-2570 345 0
-2570 379 0
2561 2562 2563 2564 2565 2566 2567 2568 2569 2570 0
338 0
-2571 100 0
-2571 311 0
-2572 157 0
-2572 318 0
-2573 203 0
-2573 252 0
-2574 203 0
-2574 255 0
-2575 308 0
-2575 355 0
-2576 324 0
-2576 344 0
2571 2572 2573 2574 2575 2576 0
-2577 190 0
-2577 435 0
-2578 218 0
-2578 339 0
2416 2572 2577 2578 0
-2579 64 0
-2579 253 0
-2580 74 0
-2580 254 0
-2581 247 0
-2581 448 0
-2582 253 0
-2582 380 0
-2583 302 0
-2583 400 0
2395 2430 2448 2458 2579 2580 2581 2582 2583 0
-2584 14 0
-2584 380 0
-2585 54 0
-2585 282 0
-2586 198 0
-2586 247 0
-2587 209 0
-2587 408 0
2430 2579 2580 2584 2585 2586 2587 0
400 0
-2588 124 0
-2588 389 0
2588 0
-2589 50 0
-2589 393 0
-2590 142 0
-2590 416 0
-2591 166 0
-2591 236 0
-2592 176 0
-2592 291 0
-2593 179 0
-2593 313 0
-2594 238 0
-2594 446 0
-2595 249 0
-2595 357 0
-2596 384 0
-2596 412 0
2468 2589 2590 2591 2592 2593 2594 2595 2596 0
2589 2590 2591 2592 2593 2595 2596 0
384 0
-2597 67 0
-2597 293 0
-2598 67 0
-2598 303 0
-2599 76 0
-2599 329 0
-2600 299 0
-2600 351 0
2460 2597 2598 2599 2600 0
-2601 111 0
-2601 433 0
-2602 186 0
-2602 447 0
2601 2602 0
433 447 0
-2603 99 0
-2603 284 0
-2604 110 0
-2604 421 0
-2605 206 0
-2605 340 0
-2606 322 0
-2606 372 0
-2607 373 0
-2607 388 0
-2608 377 0
-2608 433 0
-2609 404 0
-2609 411 0
-2610 411 0
-2610 444 0
2603 2604 2605 2606 2607 2608 2609 2610 0
-2611 116 0
-2611 388 0
-2612 289 0
-2612 421 0
2603 2608 2611 2612 0
-2613 64 0
-2613 278 0
-2614 114 0
-2614 434 0
-2615 204 0
-2615 240 0
-2616 204 0
-2616 243 0
-2617 295 0
-2617 370 0
-2618 393 0
-2618 450 0
-2619 394 0
-2619 451 0
2613 2614 2615 2616 2617 2618 2619 0
2613 2614 2615 2616 2617 2618 0
243 0
-2620 243 0
-2620 385 0
2620 0
-2621 124 0
-2621 294 0
-2622 171 0
-2622 429 0
2430 2621 2622 0
-2623 62 0
-2623 404 0
2430 2623 0
429 0
-2624 132 0
-2624 293 0
-2625 133 0
-2625 271 0
-2626 157 0
-2626 382 0
-2627 186 0
-2627 288 0
-2628 324 0
-2628 339 0
2442 2452 2531 2624 2625 2626 2627 2628 0
-2629 40 0
-2629 314 0
-2630 85 0
-2630 293 0
2627 2629 2630 0
-2631 60 0
-2631 274 0
-2632 100 0
-2632 316 0
-2633 127 0
-2633 259 0
-2634 320 0
-2634 369 0
-2635 333 0
-2635 398 0
2390 2451 2452 2631 2632 2633 2634 2635 0
-2636 30 0
-2636 274 0
-2637 132 0
-2637 333 0
2390 2632 2633 2636 2637 0
248 0
-2638 13 0
-2638 273 0
-2639 13 0
-2639 352 0
-2640 24 0
-2640 266 0
-2641 28 0
-2641 262 0
-2642 94 0
-2642 432 0
-2643 95 0
-2643 269 0
-2644 205 0
-2644 317 0
-2645 254 0
-2645 379 0
-2646 320 0
-2646 368 0
-2647 332 0
-2647 399 0
-2648 349 0
-2648 417 0
-2649 373 0
-2649 407 0
2459 2638 2639 2640 2641 2642 2643 2644 2645 2646 2647 2648 2649 0
-2650 88 0
-2650 320 0
-2651 95 0
-2651 273 0
-2652 127 0
-2652 266 0
-2653 141 0
-2653 417 0
2639 2641 2643 2644 2647 2649 2650 2651 2652 2653 0
-2654 112 0
-2654 442 0
-2655 120 0
-2655 378 0
-2656 189 0
-2656 286 0
-2657 202 0
-2657 245 0
-2658 309 0
-2658 415 0
-2659 346 0
-2659 424 0
-2660 394 0
-2660 395 0
2378 2654 2655 2656 2657 2658 2659 2660 0
-2661 127 0
-2661 442 0
-2662 129 0
-2662 286 0
-2663 192 0
-2663 360 0
-2664 192 0
-2664 378 0
-2665 247 0
-2665 309 0
2661 2662 2663 2664 2665 0
346 0
-2666 346 0
-2666 430 0
2666 0
-2667 10 0
-2667 364 0
-2668 183 0
-2668 375 0
-2669 343 0
-2669 357 0
2667 2668 2669 0
357 375 0
-2670 119 0
-2670 439 0
-2671 243 0
-2671 298 0
-2672 243 0
-2672 436 0
2670 2671 2672 0
2670 0
-2673 70 0
-2673 256 0
-2674 342 0
-2674 403 0
-2675 344 0
-2675 428 0
2527 2673 2674 2675 0
342 0
-2676 57 0
-2676 413 0
-2677 99 0
-2677 285 0
-2678 144 0
-2678 423 0
2540 2676 2677 2678 0
-2679 367 0
-2679 423 0
2540 2677 2679 0
2540 0
401 0
-2680 64 0
-2680 361 0
-2681 257 0
-2681 382 0
-2682 275 0
-2682 416 0
-2683 288 0
-2683 354 0
-2684 336 0
-2684 414 0
-2685 337 0
-2685 408 0
-2686 347 0
-2686 407 0
-2687 381 0
-2687 407 0
2475 2544 2556 2680 2681 2682 2683 2684 2685 2686 2687 0
-2688 39 0
-2688 336 0
2556 2682 2683 2688 0
-2689 45 0
-2689 383 0
-2690 188 0
-2690 376 0
-2691 325 0
-2691 340 0
-2692 368 0
-2692 412 0
2404 2513 2564 2689 2690 2691 2692 0
-2693 17 0
-2693 383 0
-2694 332 0
-2694 392 0
2690 2693 2694 0
392 0
-2695 340 0
-2695 363 0
-2696 363 0
-2696 419 0
2695 2696 0
-2697 183 0
-2697 272 0
2480 2697 0
272 0
-2698 2 0
-2698 366 0
-2699 124 0
-2699 290 0
-2700 124 0
-2700 329 0
-2701 160 0
-2701 258 0
-2702 160 0
-2702 315 0
2445 2480 2698 2699 2700 2701 2702 0
-2703 25 0
-2703 391 0
-2704 102 0
-2704 292 0
-2705 206 0
-2705 335 0
-2706 270 0
-2706 406 0
-2707 299 0
-2707 391 0
-2708 302 0
-2708 372 0
-2709 314 0
-2709 324 0
2703 2704 2705 2706 2707 2708 2709 0
-2710 21 0
-2710 314 0
-2711 114 0
-2711 331 0
2704 2705 2710 2711 0
406 0
-2712 257 0
-2712 433 0
-2713 303 0
-2713 413 0
-2714 345 0
-2714 429 0
2712 2713 2714 0
2714 0
-2715 95 0
-2715 260 0
-2716 249 0
-2716 377 0
-2717 330 0
-2717 365 0
-2718 330 0
-2718 397 0
2715 2716 2717 2718 0
2473 2715 0
249 0
-2719 249 0
-2719 382 0
2719 0
-2720 116 0
-2720 328 0
-2721 331 0
-2721 362 0
2402 2720 2721 0
312 0
-2722 128 0
-2722 305 0
-2723 311 0
-2723 339 0
-2724 353 0
-2724 428 0
2571 2722 2723 2724 0
2571 2722 2723 0
-2725 356 0
-2725 400 0
-2726 374 0
-2726 400 0
2725 2726 0
-2727 389 0
-2727 400 0
2727 0
374 356 0
-2728 7 0
-2728 350 0
-2729 314 0
-2729 441 0
-2730 380 0
-2730 408 0
2728 2729 2730 0
-2731 389 0
-2731 441 0
2730 2731 0
-2732 237 0
-2732 383 0
2498 2732 0
383 0
-2733 108 0
-2733 432 0
-2734 391 0
-2734 448 0
2498 2733 2734 0
-2735 77 0
-2735 239 0
-2736 77 0
-2736 241 0
-2737 123 0
-2737 390 0
-2738 148 0
-2738 250 0
-2739 248 0
-2739 431 0
-2740 271 0
-2740 373 0
-2741 348 0
-2741 409 0
-2742 390 0
-2742 447 0
-2743 426 0
-2743 432 0
2511 2552 2735 2736 2737 2738 2739 2740 2741 2742 2743 0
-2744 93 0
-2744 390 0
-2745 123 0
-2745 250 0
2559 2625 2735 2736 2744 2745 0
426 0
-2746 162 0
-2746 242 0
-2747 312 0
-2747 412 0
-2748 333 0
-2748 393 0
-2749 396 0
-2749 420 0
2458 2582 2601 2746 2747 2748 2749 0
2582 0
253 0
-2750 119 0
-2750 445 0
-2751 203 0
-2751 315 0
-2752 252 0
-2752 384 0
2750 2751 2752 0
-2753 221 0
-2753 412 0
2752 2753 0
-2754 45 0
-2754 275 0
-2755 61 0
-2755 313 0
-2756 188 0
-2756 358 0
-2757 246 0
-2757 378 0
-2758 339 0
-2758 364 0
-2759 352 0
-2759 363 0
-2760 365 0
-2760 442 0
2575 2632 2635 2754 2755 2756 2757 2758 2759 2760 0
-2761 26 0
-2761 275 0
-2762 71 0
-2762 260 0
-2763 85 0
-2763 313 0
-2764 333 0
-2764 364 0
2397 2632 2664 2761 2762 2763 2764 0
398 0
-2765 69 0
-2765 261 0
-2766 179 0
-2766 306 0
-2767 344 0
-2767 376 0
-2768 344 0
-2768 405 0
-2769 371 0
-2769 411 0
-2770 410 0
-2770 443 0
-2771 425 0
-2771 431 0
2765 2766 2767 2768 2769 2770 2771 0
-2772 6 0
-2772 370 0
-2773 45 0
-2773 274 0
-2774 430 0
-2774 436 0
2427 2575 2772 2773 2774 0
318 274 436 370 355 0
-2775 57 0
-2775 300 0
-2776 119 0
-2776 354 0
2608 2682 2775 2776 0
-2777 196 0
-2777 236 0
-2778 196 0
-2778 238 0
-2779 322 0
-2779 347 0
-2780 341 0
-2780 375 0
2585 2694 2777 2778 2779 2780 0
2585 2694 2777 2778 2779 0
332 0
-2781 22 0
-2781 273 0
-2782 143 0
-2782 304 0
-2783 308 0
-2783 370 0
-2784 316 0
-2784 443 0
-2785 321 0
-2785 371 0
2411 2501 2605 2781 2782 2783 2784 2785 0
-2786 245 0
-2786 304 0
2605 2786 0
-2787 140 0
-2787 421 0
2501 2537 2605 2787 0
2537 2605 0
241 0
2443 0
-2788 75 0
-2788 282 0
-2789 121 0
-2789 327 0
2717 2788 2789 0
2443 2494 0
365 0
-2790 2 0
-2790 368 0
-2791 9 0
-2791 367 0
-2792 111 0
-2792 259 0
-2793 112 0
-2793 353 0
-2794 123 0
-2794 373 0
-2795 144 0
-2795 276 0
2414 2430 2432 2506 2790 2791 2792 2793 2794 2795 0
-2796 55 0
-2796 317 0
-2797 78 0
-2797 251 0
-2798 194 0
-2798 240 0
-2799 242 0
-2799 306 0
-2800 328 0
-2800 337 0
-2801 329 0
-2801 337 0
2442 2667 2796 2797 2798 2799 2800 2801 0
-2802 212 0
-2802 337 0
2442 2667 2796 2797 2798 2802 0
407 0
-2803 245 0
-2803 434 0
-2804 269 0
-2804 414 0
-2805 358 0
-2805 396 0
2368 2650 2667 2803 2804 2805 0
2368 2650 2667 2803 0
2368 2470 2667 0
-2806 56 0
-2806 262 0
-2807 188 0
-2807 311 0
2806 2807 0
364 0
-2808 185 0
-2808 448 0
2395 2543 2637 2808 0
2543 2637 0
-2809 6 0
-2809 355 0
2395 2637 2809 0
-2810 118 0
-2810 355 0
2637 2810 0
333 0
-2811 378 0
-2811 398 0
2470 2543 2811 0
2543 2637 0
-2812 13 0
-2812 348 0
-2813 13 0
-2813 357 0
-2814 38 0
-2814 394 0
-2815 107 0
-2815 350 0
-2816 131 0
-2816 278 0
-2817 187 0
-2817 377 0
-2818 191 0
-2818 361 0
-2819 335 0
-2819 413 0
2513 2590 2718 2812 2813 2814 2815 2816 2817 2818 2819 0
-2820 111 0
-2820 377 0
-2821 413 0
-2821 437 0
2472 2489 2517 2718 2816 2820 2821 0
394 0
-2822 101 0
-2822 268 0
2396 2498 2634 2822 0
-2823 10 0
-2823 372 0
-2824 42 0
-2824 280 0
-2825 117 0
-2825 404 0
-2826 250 0
-2826 276 0
-2827 251 0
-2827 265 0
-2828 282 0
-2828 404 0
-2829 282 0
-2829 444 0
-2830 418 0
-2830 439 0
2823 2824 2825 2826 2827 2828 2829 2830 0
-2831 99 0
-2831 282 0
2823 2824 2825 2827 2830 2831 0
404 0
-2832 221 0
-2832 411 0
-2833 328 0
-2833 362 0
2413 2493 2543 2577 2779 2832 2833 0
-2834 255 0
-2834 435 0
2585 2751 2779 2834 0
-2835 53 0
-2835 341 0
-2836 104 0
-2836 419 0
-2837 142 0
-2837 322 0
-2838 281 0
-2838 429 0
2551 2600 2625 2740 2835 2836 2837 2838 0
-2839 10 0
-2839 351 0
-2840 66 0
-2840 341 0
-2841 134 0
-2841 419 0
2551 2625 2823 2838 2839 2840 2841 0
271 0
-2842 141 0
-2842 422 0
-2843 145 0
-2843 446 0
-2844 193 0
-2844 436 0
-2845 298 0
-2845 417 0
-2846 347 0
-2846 408 0
2842 2843 2844 2845 2846 0
-2847 115 0
-2847 422 0
2540 2847 0
-2848 156 0
-2848 246 0
-2849 156 0
-2849 260 0
-2850 256 0
-2850 384 0
-2851 302 0
-2851 424 0
2395 2481 2725 2848 2849 2850 2851 0
-2852 143 0
-2852 424 0
2481 2848 2849 2850 2852 0
303 0
-2853 27 0
-2853 301 0
-2854 191 0
-2854 379 0
-2855 353 0
-2855 366 0
-2856 360 0
-2856 398 0
2537 2676 2748 2749 2853 2854 2855 2856 0
-2857 57 0
-2857 301 0
-2858 296 0
-2858 413 0
2491 2748 2854 2857 2858 0
2491 2748 0
393 0
-2859 10 0
-2859 291 0
-2860 128 0
-2860 391 0
2553 2753 2859 2860 0
-2861 94 0
-2861 297 0
-2862 115 0
-2862 325 0
-2863 139 0
-2863 290 0
-2864 150 0
-2864 270 0
-2865 334 0
-2865 395 0
2561 2740 2753 2861 2862 2863 2864 2865 0
-2866 42 0
-2866 270 0
-2867 65 0
-2867 297 0
2561 2569 2753 2862 2863 2866 2867 0
412 0
-2868 32 0
-2868 288 0
-2869 93 0
-2869 263 0
-2870 98 0
-2870 428 0
-2871 127 0
-2871 369 0
-2872 147 0
-2872 238 0
-2873 184 0
-2873 356 0
-2874 258 0
-2874 280 0
-2875 362 0
-2875 420 0
2470 2868 2869 2870 2871 2872 2873 2874 2875 0
-2876 109 0
-2876 420 0
-2877 176 0
-2877 263 0
2468 2627 2876 2877 0
-2878 236 0
-2878 432 0
2486 2618 2878 0
2491 2878 0
294 0
2481 2525 2526 2528 2716 0
2526 2528 0
-2879 416 0
-2879 438 0
-2880 429 0
-2880 449 0
2430 2493 2577 2879 2880 0
2430 2623 0
449 435 0
-2881 274 0
-2881 395 0
-2882 361 0
-2882 395 0
2415 2416 2417 2658 2682 2881 2882 0
-2883 126 0
-2883 308 0
-2884 308 0
-2884 389 0
2417 2883 2884 0
-2885 2 0
-2885 295 0
-2886 2 0
-2886 344 0
-2887 62 0
-2887 254 0
-2888 154 0
-2888 316 0
-2889 189 0
-2889 450 0
-2890 253 0
-2890 273 0
2402 2573 2575 2578 2681 2834 2885 2886 2887 2888 2889 2890 0
-2891 368 0
-2891 386 0
2406 2416 2577 2578 2580 2888 2891 0
344 0
2575 2578 0
-2892 189 0
-2892 434 0
2578 2892 0
2578 0
339 0
-2893 131 0
-2893 444 0
-2894 138 0
-2894 414 0
-2895 392 0
-2895 433 0
2393 2394 2742 2791 2893 2894 2895 0
-2896 177 0
-2896 289 0
2716 2791 2893 2896 0
-2897 125 0
-2897 269 0
-2898 347 0
-2898 414 0
2393 2396 2610 2742 2791 2829 2897 2898 0
2716 2791 2893 2896 0
411 0
-2899 13 0
-2899 373 0
-2900 198 0
-2900 261 0
-2901 311 0
-2901 417 0
2639 2682 2737 2801 2899 2900 2901 0
-2902 24 0
-2902 261 0
2639 2653 2737 2899 2902 0
-2903 274 0
-2903 369 0
-2904 379 0
-2904 435 0
2396 2522 2679 2845 2903 2904 0
2679 2903 2904 0
367 0
-2905 190 0
-2905 307 0
2391 2905 0
2391 0
284 0
-2906 182 0
-2906 451 0
-2907 284 0
-2907 423 0
2377 2396 2834 2906 2907 0
-2908 172 0
-2908 428 0
-2909 331 0
-2909 391 0
-2910 337 0
-2910 415 0
2561 2566 2803 2908 2909 2910 0
-2911 65 0
-2911 405 0
2568 2803 2911 0
428 0
-2912 133 0
-2912 279 0
-2913 257 0
-2913 449 0
-2914 400 0
-2914 424 0
2403 2912 2913 2914 0
2403 2912 2914 0
-2915 49 0
-2915 366 0
-2916 60 0
-2916 287 0
-2917 366 0
-2917 445 0
2915 2916 2917 0
366 0
-2918 25 0
-2918 291 0
-2919 102 0
-2919 436 0
-2920 109 0
-2920 376 0
2433 2558 2658 2661 2720 2801 2876 2918 2919 2920 0
-2921 10 0
-2921 342 0
-2922 118 0
-2922 436 0
2517 2802 2918 2920 2921 2922 0
-2923 56 0
-2923 285 0
-2924 139 0
-2924 422 0
-2925 166 0
-2925 396 0
-2926 241 0
-2926 358 0
-2927 426 0
-2927 448 0
2369 2820 2923 2924 2925 2926 2927 0
-2928 187 0
-2928 359 0
2817 2923 2924 2928 0
377 359 0
2371 0
-2929 24 0
-2929 265 0
-2930 32 0
-2930 293 0
-2931 145 0
-2931 413 0
-2932 252 0
-2932 281 0
-2933 320 0
-2933 348 0
2498 2509 2612 2763 2929 2930 2931 2932 2933 0
-2934 3 0
-2934 265 0
-2935 23 0
-2935 293 0
2401 2417 2509 2931 2932 2934 2935 0
397 0
-2936 58 0
-2936 258 0
-2937 158 0
-2937 256 0
-2938 315 0
-2938 329 0
2801 2936 2937 2938 0
-2939 108 0
-2939 374 0
-2940 351 0
-2940 364 0
-2941 355 0
-2941 430 0
2587 2728 2939 2940 2941 0
-2942 184 0
-2942 374 0
-2943 189 0
-2943 299 0
2587 2942 2943 0
408 0
-2944 330 0
-2944 390 0
2397 2645 2742 2865 2944 0
-2945 138 0
-2945 390 0
2645 2945 0
-2946 122 0
-2946 296 0
-2947 259 0
-2947 433 0
-2948 260 0
-2948 325 0
-2949 260 0
-2949 330 0
-2950 321 0
-2950 349 0
-2951 326 0
-2951 366 0
2946 2947 2948 2949 2950 2951 0
260 349 0
-2952 131 0
-2952 255 0
-2953 131 0
-2953 371 0
-2954 173 0
-2954 255 0
-2955 283 0
-2955 350 0
2660 2952 2953 2954 2955 0
-2956 129 0
-2956 283 0
2660 2952 2954 2956 0
-2957 376 0
-2957 434 0
-2958 391 0
-2958 434 0
2655 2663 2957 2958 0
2655 2663 0
391 0
2425 0
-2959 39 0
-2959 277 0
-2960 46 0
-2960 316 0
-2961 132 0
-2961 445 0
-2962 312 0
-2962 353 0
2404 2527 2845 2959 2960 2961 2962 0
-2963 132 0
-2963 368 0
-2964 147 0
-2964 277 0
2527 2960 2961 2963 2964 0
353 445 0
-2965 24 0
-2965 278 0
-2966 82 0
-2966 263 0
-2967 93 0
-2967 276 0
-2968 150 0
-2968 236 0
-2969 196 0
-2969 270 0
2737 2965 2966 2967 2968 2969 0
-2970 64 0
-2970 273 0
2417 2744 2787 2970 0
390 0
-2971 96 0
-2971 291 0
-2972 115 0
-2972 378 0
-2973 148 0
-2973 254 0
-2974 202 0
-2974 264 0
-2975 237 0
-2975 376 0
-2976 272 0
-2976 418 0
-2977 328 0
-2977 342 0
2394 2514 2575 2617 2671 2899 2906 2971 2972 2973 2974 2975 2976 2977 0
-2978 28 0
-2978 264 0
2394 2671 2899 2971 2972 2973 2978 0
-2979 28 0
-2979 268 0
-2980 36 0
-2980 281 0
-2981 195 0
-2981 314 0
2552 2559 2653 2733 2842 2979 2980 2981 0
-2982 106 0
-2982 432 0
-2983 148 0
-2983 314 0
2552 2559 2653 2842 2979 2982 2983 0
432 422 417 0
-2984 33 0
-2984 266 0
-2985 394 0
-2985 444 0
2490 2712 2769 2823 2826 2872 2984 2985 0
2490 2769 2823 2872 2984 2985 0
-2986 26 0
-2986 285 0
-2987 49 0
-2987 309 0
-2988 101 0
-2988 277 0
-2989 165 0
-2989 395 0
2396 2438 2514 2826 2934 2986 2987 2988 2989 0
2438 2514 2934 2986 2987 2988 2989 0
395 0
-2990 34 0
-2990 310 0
-2991 113 0
-2991 352 0
-2992 251 0
-2992 375 0
-2993 399 0
-2993 423 0
2990 2991 2992 2993 0
2394 2990 2992 0
-2994 55 0
-2994 298 0
-2995 68 0
-2995 315 0
-2996 121 0
-2996 374 0
-2997 160 0
-2997 255 0
2629 2780 2783 2994 2995 2996 2997 0
2629 2753 2780 2994 2996 2997 0
341 0
2377 2906 0
2379 0
-2998 125 0
-2998 263 0
-2999 125 0
-2999 288 0
-3000 288 0
-3000 392 0
2804 2998 2999 3000 0
-3001 30 0
-3001 288 0
-3002 288 0
-3002 409 0
2998 3001 3002 0
288 0
2393 2544 2602 2680 2684 2776 0
2393 2627 0
-3003 94 0
-3003 300 0
-3004 237 0
-3004 291 0
-3005 335 0
-3005 412 0
-3006 354 0
-3006 429 0
2476 2535 3003 3004 3005 3006 0
-3007 81 0
-3007 305 0
2477 2705 3003 3007 0
237 0
-3008 364 0
-3008 422 0
2681 2713 2863 2892 2941 3008 0
2681 2713 2863 2892 3008 0
2681 2892 2931 2941 0
2681 2892 2931 0
257 0
-3009 91 0
-3009 321 0
2392 2439 2561 2889 2892 3009 0
2568 2803 2911 3009 0
2392 2439 2561 2889 2892 0
2566 2803 2911 0
450 434 0
-3010 20 0
-3010 277 0
-3011 92 0
-3011 302 0
-3012 92 0
-3012 315 0
-3013 98 0
-3013 301 0
-3014 98 0
-3014 304 0
-3015 128 0
-3015 372 0
-3016 128 0
-3016 443 0
-3017 253 0
-3017 375 0
2380 2631 2632 2805 3010 3011 3012 3013 3014 3015 3016 3017 0
2380 2631 2632 2805 3010 3011 3012 3013 3014 3015 3016 0
-3018 37 0
-3018 262 0
2456 2612 2636 2643 2841 3018 0
-3019 136 0
-3019 419 0
-3020 348 0
-3020 410 0
2487 2643 3018 3019 3020 0
419 274 262 269 0
-3021 185 0
-3021 432 0
2403 2449 2912 3021 0
-3022 90 0
-3022 279 0
-3023 192 0
-3023 303 0
2398 3022 3023 0
-3024 48 0
-3024 260 0
-3025 103 0
-3025 274 0
-3026 133 0
-3026 281 0
-3027 150 0
-3027 239 0
2830 3024 3025 3026 3027 0
274 281 0
-3028 83 0
-3028 322 0
-3029 370 0
-3029 408 0
2700 2922 3028 3029 0
2700 3028 0
-3030 124 0
-3030 441 0
2466 2617 2672 3030 0
2466 3030 0
362 0
-3031 7 0
-3031 280 0
-3032 51 0
-3032 264 0
2428 2507 2612 2690 2701 2702 2765 2797 2817 2842 2997 3031 3032 0
-3033 111 0
-3033 258 0
-3034 119 0
-3034 258 0
2428 2507 2612 2690 2765 2842 2995 2997 3033 3034 0
376 422 0
-3035 4 0
-3035 306 0
-3036 29 0
-3036 298 0
2704 2767 2858 3035 3036 0
-3037 102 0
-3037 306 0
2704 2858 3036 3037 0
-3038 141 0
-3038 309 0
-3039 341 0
-3039 361 0
2458 2615 3011 3038 3039 0
302 240 361 0
-3040 30 0
-3040 282 0
-3041 58 0
-3041 327 0
-3042 98 0
-3042 319 0
-3043 162 0
-3043 240 0
-3044 167 0
-3044 251 0
2428 2491 2507 2509 2539 2760 3040 3041 3042 3043 3044 0
-3045 74 0
-3045 319 0
2428 2491 2507 2702 3040 3041 3043 3044 3045 0
-3046 9 0
-3046 350 0
-3047 9 0
-3047 371 0
-3048 57 0
-3048 326 0
-3049 116 0
-3049 377 0
-3050 295 0
-3050 398 0
2453 2456 2975 3046 3047 3048 3049 3050 0
2456 3046 3047 3049 0
377 371 350 0
-3051 134 0
-3051 451 0
-3052 340 0
-3052 418 0
-3053 390 0
-3053 440 0
2691 2713 2759 2880 2990 3051 3052 3053 0
-3054 407 0
-3054 440 0
2759 2990 3054 0
-3055 347 0
-3055 413 0
2480 2991 3055 0
2480 2991 0
375 352 0
-3056 72 0
-3056 254 0
-3057 72 0
-3057 256 0
-3058 151 0
-3058 319 0
-3059 299 0
-3059 372 0
2600 2690 2805 3056 3057 3058 3059 0
2422 2425 3056 3057 3058 0
2690 2805 0
2425 0
358 376 0
-3060 142 0
-3060 449 0
-3061 397 0
-3061 421 0
2526 2590 2602 2645 2648 2955 2985 3060 3061 0
-3062 350 0
-3062 367 0
2645 3062 0
2437 2456 2482 2652 2677 2852 0
-3063 2 0
-3063 348 0
-3064 124 0
-3064 310 0
-3065 145 0
-3065 322 0
2652 2923 3063 3064 3065 0
373 348 0
-3066 62 0
-3066 416 0
-3067 109 0
-3067 323 0
3066 3067 0
-3068 20 0
-3068 379 0
-3069 39 0
-3069 269 0
2511 2600 3068 3069 0
2511 3068 3069 0
269 273 0
-3070 2 0
-3070 360 0
-3071 126 0
-3071 448 0
2419 2537 2636 2756 3070 3071 0
-3072 121 0
-3072 424 0
2419 2636 3072 0
-3073 21 0
-3073 296 0
-3074 94 0
-3074 290 0
-3075 285 0
-3075 399 0
2369 2658 2861 3073 3074 3075 0
2658 2861 3073 3074 0
290 297 415 296 0
-3076 180 0
-3076 311 0
3015 3016 3076 0
-3077 52 0
-3077 405 0
3076 3077 0
-3078 49 0
-3078 302 0
-3079 309 0
-3079 428 0
2424 2446 2448 2517 2558 2922 3078 3079 0
2502 2910 2919 2958 3011 0
415 302 434 0
-3080 42 0
-3080 266 0
-3081 170 0
-3081 245 0
2400 2517 2558 2701 2958 2961 2963 3012 3080 3081 0
2400 2640 2701 2958 2961 2963 3012 3081 0
2517 2558 2701 2902 2922 2961 2963 3012 0
2400 2517 2701 2751 2902 2961 2963 0
368 445 0
-3082 69 0
-3082 246 0
-3083 335 0
-3083 366 0
-3084 398 0
-3084 422 0
2454 2600 2644 2651 2743 2787 3015 3082 3083 3084 0
2406 2468 2600 2644 2823 3082 0
-3085 31 0
-3085 317 0
2406 2600 2612 2743 3059 3085 0
2406 2600 2743 3059 3085 0
317 432 351 372 273 0
-3086 180 0
-3086 279 0
-3087 351 0
-3087 426 0
-3088 378 0
-3088 436 0
2395 3086 3087 3088 0
-3089 159 0
-3089 243 0
-3090 193 0
-3090 279 0
3023 3089 3090 0
2419 2927 3072 0
2419 3072 0
240 424 0
-3091 354 0
-3091 392 0
-3092 408 0
-3092 441 0
2367 2431 2436 2495 2772 3091 3092 0
-3093 369 0
-3093 409 0
-3094 429 0
-3094 435 0
2436 2731 2772 2776 3093 3094 0
-3095 12 0
-3095 351 0
-3096 178 0
-3096 295 0
-3097 345 0
-3097 359 0
2734 3081 3095 3096 3097 0
-3098 100 0
-3098 295 0
2369 3081 3095 3098 0
295 245 359 0
-3099 61 0
-3099 306 0
-3100 329 0
-3100 389 0
2493 2728 3099 3100 0
-3101 61 0
-3101 415 0
3037 3100 3101 0
2808 3021 0
-3102 342 0
-3102 426 0
3102 0
432 448 0
-3103 36 0
-3103 305 0
-3104 392 0
-3104 442 0
2683 2879 3103 3104 0
-3105 130 0
-3105 298 0
-3106 154 0
-3106 259 0
-3107 414 0
-3107 437 0
2628 2807 2830 2866 2933 3049 3061 3076 3105 3106 3107 0
-3108 100 0
-3108 298 0
-3109 128 0
-3109 311 0
2470 2866 3106 3108 3109 0
421 377 0
2407 2575 2806 0
-3110 31 0
-3110 374 0
-3111 67 0
-3111 291 0
-3112 248 0
-3112 447 0
-3113 275 0
-3113 427 0
2781 2782 2853 3019 3098 3110 3111 3112 3113 0
-3114 27 0
-3114 304 0
2514 2853 3098 3110 3111 3114 0
301 291 304 295 0
2393 2583 2775 2776 3039 0
-3115 81 0
-3115 300 0
2393 2776 3115 0
2393 2583 2776 3039 0
2393 2627 0
258 354 0
-3116 61 0
-3116 328 0
-3117 355 0
-3117 362 0
2517 2542 2731 3018 3116 3117 0
-3118 55 0
-3118 362 0
-3119 184 0
-3119 262 0
2833 3118 3119 0
-3120 185 0
-3120 308 0
2542 3092 3120 0
3092 3120 0
308 0
-3121 339 0
-3121 417 0
-3122 391 0
-3122 443 0
2612 2628 2658 2914 2940 3121 3122 0
2658 2940 3122 0
-3123 66 0
-3123 279 0
2384 2612 2650 2680 2864 2976 2984 3123 0
2366 2650 2864 2984 3123 0
289 0
-3124 97 0
-3124 433 0
2369 2411 2544 2593 2950 3079 3124 0
-3125 186 0
-3125 313 0
2411 2947 3125 0
2372 2411 2544 2950 3079 0
-3126 327 0
-3126 343 0
2411 3126 0
327 421 0
-3127 136 0
-3127 266 0
2369 2436 2651 2929 3068 3127 0
-3128 52 0
-3128 315 0
-3129 80 0
-3129 321 0
-3130 107 0
-3130 335 0
2782 2858 2930 3068 3128 3129 3130 0
2782 2930 2931 3083 3128 3129 0
335 0
2818 2854 0
2660 0
-3131 92 0
-3131 296 0
2438 2439 2446 2497 2561 2738 2804 2806 2934 2983 3131 0
2438 2439 2497 2561 2738 2806 2934 2983 3131 0
325 418 0
-3132 118 0
-3132 444 0
2679 2953 3132 0
2893 2953 0
2423 2446 2641 2662 2849 3084 0
2423 2641 2662 2849 3084 0
245 422 0
2803 2847 0
-3133 11 0
-3133 267 0
-3134 22 0
-3134 269 0
-3135 142 0
-3135 423 0
2435 2935 2947 2967 3133 3134 3135 0
269 267 276 418 0
2543 2960 0
-3136 283 0
-3136 371 0
2395 2447 2838 2864 2916 3027 3136 0
2395 2447 2864 2916 3027 0
326 424 0
-3137 320 0
-3137 338 0
2585 2950 3137 0
2585 2609 0
-3138 9 0
-3138 361 0
-3139 116 0
-3139 423 0
2904 3138 3139 0
2904 2907 0
435 423 0
-3140 97 0
-3140 266 0
-3141 110 0
-3141 375 0
2761 2804 2934 3140 3141 0
2761 2804 2934 3140 0
2446 2752 2755 2808 3009 0
-3142 98 0
-3142 313 0
2752 3009 3142 0
252 0
-3143 270 0
-3143 440 0
-3144 362 0
-3144 441 0
2645 2706 2779 2849 3143 3144 0
-3145 72 0
-3145 314 0
2645 2706 2779 3024 3143 3145 0
314 347 0
-3146 93 0
-3146 267 0
2783 2939 2997 3036 3146 0
2783 2939 2997 3036 0
374 298 370 0
-3147 30 0
-3147 281 0
2751 2936 2977 2997 3101 3144 3147 0
2517 2751 2936 2977 2997 3147 0
2731 2751 2977 2997 3101 0
-3148 201 0
-3148 255 0
2753 3101 3116 3148 0
328 415 0
-3149 21 0
-3149 302 0
2495 2644 2661 2715 3149 0
-3150 105 0
-3150 250 0
-3151 135 0
-3151 420 0
-3152 154 0
-3152 251 0
2384 2458 2533 2655 2702 2836 2859 2872 2888 2934 2964 3150 3151 3152 0
238 0
-3153 97 0
-3153 286 0
2458 2634 2746 2807 2891 3153 0
-3154 33 0
-3154 386 0
2458 2656 2746 2807 3154 0
2404 2458 2634 2746 2807 2941 0
2458 2483 2746 2807 0
242 355 0
-3155 324 0
-3155 364 0
2479 2866 2901 3052 3109 3155 0
-3156 24 0
-3156 375 0
-3157 164 0
-3157 242 0
-3158 259 0
-3158 266 0
2513 2988 3075 3106 3111 3156 3157 3158 0
2392 2513 2668 2918 2988 3157 0
375 419 0
2369 2436 2646 2817 2831 3093 0
-3159 127 0
-3159 332 0
2585 3159 0
2585 2950 3093 3111 0
-3160 345 0
-3160 404 0
2585 2918 3160 0
349 369 0
-3161 325 0
-3161 341 0
2696 3161 0
-3162 182 0
-3162 300 0
2479 2696 3162 0
419 250 0
-3163 25 0
-3163 309 0
-3164 99 0
-3164 275 0
-3165 244 0
-3165 378 0
-3166 346 0
-3166 356 0
2594 2845 3013 3014 3163 3164 3165 3166 0
-3167 193 0
-3167 446 0
2496 2845 3014 3163 3167 0
2551 2864 2916 3027 3087 0
351 239 0
2436 2651 2928 2929 3127 0
-3168 102 0
-3168 318 0
-3169 171 0
-3169 258 0
-3170 239 0
-3170 376 0
2421 2469 2901 2907 2970 3168 3169 3170 0
2421 2901 2970 3168 3169 3170 0
239 273 417 422 258 318 0
-3171 22 0
-3171 270 0
-3172 65 0
-3172 417 0
-3173 198 0
-3173 236 0
2377 2519 2880 3171 3172 3173 0
-3174 349 0
-3174 411 0
2377 2709 3171 3174 0
-3175 169 0
-3175 259 0
2414 2651 2756 3175 0
259 358 273 0
2651 2923 2929 3065 3127 0
2543 2651 2899 2929 3127 0
266 273 265 373 0
2496 2500 2658 2678 2682 2800 2801 2848 2849 2931 2950 2965 2976 3114 0
-3176 177 0
-3176 301 0
2488 2499 2500 2682 2685 2830 2848 2849 2950 3114 3135 3176 0
-3177 59 0
-3177 310 0
2389 2423 2553 2554 2559 2746 2849 2866 3129 3177 0
2389 2423 2553 2559 2746 2849 2866 3129 3177 0
260 321 0
-3178 190 0
-3178 449 0
-3179 270 0
-3179 334 0
2398 2479 2519 2567 2648 2650 3051 3111 3137 3151 3178 3179 0
-3180 55 0
-3180 291 0
-3181 90 0
-3181 287 0
-3182 175 0
-3182 425 0
2479 2875 2933 3155 3174 3180 3181 3182 0
-3183 107 0
-3183 431 0
2498 2646 2817 2818 2831 3183 0
2498 2831 3159 0
349 282 0
2962 3088 0
2399 2441 2668 2690 2740 2923 0
440 373 0
-3184 288 0
-3184 369 0
2767 2820 3024 3042 3044 3050 3147 3184 0
-3185 28 0
-3185 377 0
-3186 51 0
-3186 281 0
2553 3024 3044 3185 3186 0
2491 2636 2798 3036 3044 3045 3096 0
2491 2553 2636 3043 3044 3096 0
295 298 0
-3187 320 0
-3187 349 0
3056 3057 3128 3187 0
2700 3128 0
329 0
2417 2931 2932 2935 3061 0
-3188 249 0
-3188 285 0
-3189 350 0
-3189 425 0
2593 2630 2772 3188 3189 0
313 350 293 0
-3190 321 0
-3190 370 0
2431 2854 3190 0
2431 2444 0
2898 2929 2940 2993 3129 0
-3191 10 0
-3191 347 0
-3192 97 0
-3192 265 0
2907 3129 3191 3192 0
414 321 0
-3193 186 0
-3193 433 0
-3194 321 0
-3194 347 0
2907 2946 2950 2951 3055 3193 3194 0
-3195 199 0
-3195 316 0
2686 2950 3131 3193 3195 0
-3196 137 0
-3196 296 0
-3197 181 0
-3197 307 0
-3198 351 0
-3198 391 0
2738 2966 2983 3004 3196 3197 3198 0
296 351 307 291 0
-3199 39 0
-3199 285 0
-3200 248 0
-3200 269 0
2414 2699 2746 2790 2866 2907 2962 3199 3200 0
2446 2699 2746 2866 2962 2963 3199 3200 0
2423 2498 2562 2754 2866 2867 0
270 275 375 0
2702 2746 2866 3086 3141 3199 0
-3201 37 0
-3201 276 0
2508 3136 3201 0
2508 3201 0
256 0
-3202 181 0
-3202 285 0
2417 2441 2456 2463 2511 2903 2955 2968 3069 3165 3199 3202 0
-3203 8 0
-3203 297 0
2436 2441 2456 2677 2763 2968 3134 3203 0
-3204 369 0
-3204 386 0
2463 2630 2654 2786 2848 2933 2968 2969 3126 3204 0
2597 2654 2786 2848 2933 2968 2969 3204 0
270 320 0
-3205 353 0
-3205 393 0
2428 2738 2981 3031 3038 3205 0
-3206 45 0
-3206 261 0
-3207 48 0
-3207 268 0
-3208 124 0
-3208 370 0
-3209 428 0
-3209 450 0
2506 3030 3206 3207 3208 3209 0
2506 3030 3206 3207 3208 0
441 370 0
2377 2880 2901 2933 3187 0
-3210 66 0
-3210 406 0
2933 3210 0
-3211 323 0
-3211 345 0
2888 2891 2903 2907 3138 3152 3177 3211 0
-3212 104 0
-3212 386 0
2391 2482 2567 2888 3152 3212 0
423 323 0
-3213 8 0
-3213 355 0
-3214 33 0
-3214 296 0
2629 2644 2751 2912 2997 3007 3106 3108 3115 3195 3213 3214 0
-3215 86 0
-3215 286 0
2520 2629 2683 2767 2903 2994 3103 3148 3158 3215 0
2520 2629 2767 2994 3103 3148 3215 0
255 376 298 0
2593 2632 2658 3015 3032 3122 3152 3192 0
2593 2632 3015 3032 3122 3152 3192 0
-3216 93 0
-3216 261 0
-3217 255 0
-3217 268 0
2520 2790 2795 3031 3215 3216 3217 0
368 348 0
-3218 153 0
-3218 261 0
2430 2506 2838 2971 2973 3106 3128 3151 3195 3218 0
2430 2506 2971 2973 3106 3128 3151 3195 3218 0
-3219 91 0
-3219 347 0
2823 2934 2966 3106 3202 3219 0
2823 2934 2998 3106 3219 0
372 347 0
2519 3172 0
2920 2960 3073 3145 0
-3220 43 0
-3220 296 0
2920 2960 3220 0
296 316 376 0
-3221 104 0
-3221 324 0
-3222 118 0
-3222 340 0
2392 2755 2771 2888 2935 2966 2973 2982 3128 3180 3221 3222 0
2417 2624 2733 2973 2998 3106 3128 3180 3195 3222 0
-3223 23 0
-3223 319 0
-3224 40 0
-3224 292 0
-3225 146 0
-3225 240 0
-3226 285 0
-3226 423 0
2392 2554 2669 2716 2770 3015 3052 3223 3224 3225 3226 0
-3227 41 0
-3227 343 0
-3228 405 0
-3228 410 0
2392 2853 2907 3223 3224 3225 3227 3228 0
372 443 0
-3229 10 0
-3229 358 0
2530 2605 2628 2724 2728 2785 2873 2888 3084 3128 3134 3229 0
-3230 364 0
-3230 403 0
2605 2674 3062 3128 3134 3194 3230 0
2530 2709 2793 2873 2926 3128 3194 0
-3231 314 0
-3231 403 0
2702 2729 3194 3231 0
314 321 0
-3232 132 0
-3232 292 0
2899 2968 3037 3076 3134 3203 3232 0
-3233 46 0
-3233 306 0
-3234 68 0
-3234 258 0
-3235 113 0
-3235 433 0
2649 2968 3075 3134 3170 3232 3233 3234 3235 0
2649 2968 3075 3134 3170 3232 3233 3235 0
433 239 373 269 0
-3236 135 0
-3236 292 0
2482 2699 2790 3129 3164 3199 3236 0
-3237 101 0
-3237 280 0
-3238 138 0
-3238 447 0
2671 2682 2822 3147 3237 3238 0
2682 2822 3147 3237 3238 0
280 416 281 268 0
-3239 58 0
-3239 263 0
-3240 102 0
-3240 307 0
-3241 122 0
-3241 446 0
-3242 296 0
-3242 426 0
2380 2447 2453 2499 2509 2539 2612 2617 2624 2903 2928 2942 3024 3043 3047 3147 3183 3218 3239 3240 3241 3242 0
-3243 35 0
-3243 278 0
-3244 65 0
-3244 307 0
2372 2380 2604 2624 2702 2765 2868 2998 3024 3043 3110 3183 3186 3243 3244 0
-3245 106 0
-3245 351 0
2914 2957 3245 0
2958 3245 0
376 351 0
-3246 31 0
-3246 306 0
-3247 59 0
-3247 295 0
2986 3011 3236 3246 3247 0
3011 3236 3246 3247 0
2643 2808 2821 2843 2844 2898 0
2540 2897 0
446 436 0
2604 2928 2947 0
2401 2947 0
2604 2947 0
259 421 0
-3248 20 0
-3248 267 0
-3249 162 0
-3249 444 0
-3250 394 0
-3250 435 0
2511 2595 2619 2742 2795 2817 2918 3025 3248 3249 3250 0
2505 2813 2817 2970 3025 3248 0
2561 2866 2892 2933 0
2866 2892 2933 0
348 270 0
-3251 27 0
-3251 310 0
-3252 359 0
-3252 399 0
2500 2631 2993 3156 3251 3252 0
-3253 28 0
-3253 399 0
2500 3156 3251 3253 0
2396 3177 3197 0
307 310 352 0
-3254 322 0
-3254 337 0
-3255 375 0
-3255 397 0
2690 3194 3254 3255 0
-3256 128 0
-3256 331 0
2399 3256 0
-3257 342 0
-3257 374 0
2800 2938 3187 3257 0
-3258 362 0
-3258 401 0
2464 3258 0
320 315 0
-3259 168 0
-3259 239 0
-3260 392 0
-3260 449 0
3214 3259 3260 0
-3261 349 0
-3261 418 0
2430 2699 2823 2839 2859 3261 0
309 291 0
2393 2613 2716 2724 2772 2877 3188 0
2613 2677 2817 2869 2870 0
-3262 23 0
-3262 290 0
-3263 343 0
-3263 377 0
2403 2585 2899 2968 3069 3223 3262 3263 0
-3264 43 0
-3264 319 0
2398 2533 2585 3134 3173 3263 3264 0
377 269 373 0
-3265 327 0
-3265 365 0
2554 2661 2715 2848 2871 3153 3264 3265 0
2407 2661 2715 2757 2871 3058 3082 0
2406 2452 2585 2601 2848 2954 2968 2969 3075 3085 0
2406 2452 2585 2601 2848 2954 2968 2969 3085 0
273 433 282 0
-3266 244 0
-3266 356 0
2455 2468 2636 2708 2863 2971 3266 0
2455 2708 2971 3262 3266 0
-3267 34 0
-3267 275 0
-3268 76 0
-3268 251 0
-3269 134 0
-3269 418 0
2630 2804 2888 2970 3111 3167 3267 3268 3269 0
2651 2888 2930 3111 3167 3267 3268 0
251 275 446 0
2436 2651 2927 2929 3127 3242 0
2436 2651 2929 3127 0
-3270 110 0
-3270 326 0
-3271 409 0
-3271 442 0
2384 2396 2433 2436 2458 2746 2864 2866 2964 3011 3092 3094 3149 3176 3195 3270 3271 0
-3272 5 0
-3272 345 0
-3273 6 0
-3273 302 0
-3274 6 0
-3274 346 0
2458 2515 2731 2746 2923 2964 3093 3176 3195 3272 3273 3274 0
373 352 379 0
-3275 43 0
-3275 295 0
-3276 71 0
-3276 246 0
-3277 107 0
-3277 441 0
-3278 346 0
-3278 378 0
2550 2725 2757 2810 2858 2920 2973 2981 3172 3263 3275 3276 3277 3278 0
-3279 23 0
-3279 376 0
-3280 73 0
-3280 264 0
-3281 172 0
-3281 246 0
2571 2810 2973 2981 3073 3263 3266 3275 3277 3278 3279 3280 3281 0
-3282 340 0
-3282 385 0
2566 2644 2918 2946 3282 0
340 0
-3283 32 0
-3283 269 0
-3284 117 0
-3284 435 0
-3285 175 0
-3285 254 0
2618 3097 3283 3284 3285 0
2409 3283 3285 0
2600 2942 2953 3012 3029 0
2700 3012 0
371 315 374 0
-3286 183 0
-3286 357 0
2511 2742 2795 3004 3025 3248 3286 0
2511 2795 3025 3248 3286 0
-3287 348 0
-3287 416 0
2710 3021 3164 3287 0
2389 2532 2710 0
314 432 416 0
2377 2648 2804 3052 3171 0
2866 3210 0
-3288 204 0
-3288 282 0
2430 2544 2894 2960 3045 3106 3288 0
414 327 0
2389 2423 2499 2679 2702 2746 2755 2849 2866 2966 3086 3199 3218 3242 0
2389 2423 2499 2679 2702 2746 2755 2849 2866 2966 3086 3199 3218 0
2389 2397 2423 2530 2572 2628 2866 2986 3243 0
-3289 49 0
-3289 318 0
2389 2397 2657 2866 2965 2986 3289 0
285 275 0
2511 2795 2942 3025 3115 3185 3248 0
-3290 275 0
-3290 352 0
2552 2873 2897 2983 3025 3290 0
356 250 274 0
-3291 273 0
-3291 421 0
2428 2506 2638 2690 2789 2817 2881 2888 2983 3054 3152 3288 3291 0
-3292 13 0
-3292 343 0
-3293 76 0
-3293 316 0
-3294 176 0
-3294 280 0
2638 2690 2817 2983 3053 3152 3247 3288 3292 3293 3294 0
-3295 125 0
-3295 447 0
2420 2428 2834 3139 3286 3295 0
2391 2428 2834 0
255 423 0
2864 2871 2906 2960 3010 3127 3149 3271 0
2871 2959 2960 2969 3140 3149 3271 0
-3296 104 0
-3296 379 0
2406 2683 2892 2903 2916 3058 3082 3086 3099 3224 3269 3296 0
2380 2406 2892 2916 3052 3058 3082 3086 3099 3296 0
273 379 246 0
-3297 46 0
-3297 290 0
-3298 269 0
-3298 425 0
2423 2455 2549 2552 2677 2739 2849 2903 3066 3168 3288 3297 3298 0
2423 2503 2549 2558 2566 3199 3203 3288 3289 3297 0
2367 2446 2469 2677 2684 2746 2866 3134 3236 3288 0
-3299 101 0
-3299 435 0
-3300 153 0
-3300 247 0
2418 2494 2746 2866 3134 3199 3299 3300 0
285 435 270 0
-3301 103 0
-3301 281 0
2458 2534 2746 2851 2853 2889 2986 3092 3195 3273 3301 0
2554 2731 2746 2788 2986 3195 3273 3274 3301 0
2495 2614 2702 2858 2996 2997 3010 3127 3152 3275 3283 0
-3302 98 0
-3302 434 0
2490 2652 2751 2858 2997 3152 3184 3275 3283 3302 0
251 374 295 0
2765 2780 2790 2793 2881 2996 0
2765 2790 2793 2939 0
-3303 374 0
-3303 432 0
2384 2491 2613 2708 2881 3303 0
2491 2613 2708 3303 0
420 374 0
-3304 393 0
-3304 436 0
2708 2733 2895 2973 3106 3128 3180 3195 3304 0
2888 2973 2982 3106 3128 3180 3304 0
2465 2583 2726 2931 2973 2990 3048 3106 3145 3158 3218 3293 0
2392 2761 2931 2973 2990 3048 3145 3218 3293 0
326 413 0
2701 2845 2922 2960 3078 3080 0
2701 2922 2960 3078 3080 0
2701 2845 2929 2957 2960 3078 3080 3197 0
2701 2929 2957 2960 3078 3080 3197 0
302 258 434 0
2435 2608 2967 3031 3133 3134 0
2967 3026 3134 3146 0
-3305 180 0
-3305 265 0
2566 2636 2862 2918 2973 2983 2985 3025 3298 3305 0
-3306 177 0
-3306 274 0
2566 2610 2973 2983 3111 3161 3305 3306 0
265 444 291 325 260 274 0
2849 2906 3163 3276 0
-3307 140 0
-3307 268 0
2506 2677 2903 3149 3307 0
2506 2677 2903 3307 0
268 280 285 274 0
-2365 0
