p cnf 5632 37911
1 2 3 4 0
-1 -2 0
-1 -3 0
-1 -4 0
-2 -3 0
-2 -4 0
-3 -4 0
5 6 7 8 0
-5 -6 0
-5 -7 0
-5 -8 0
-6 -7 0
-6 -8 0
-7 -8 0
9 10 11 12 0
-9 -10 0
-9 -11 0
-9 -12 0
-10 -11 0
-10 -12 0
-11 -12 0
13 14 15 16 0
-13 -14 0
-13 -15 0
-13 -16 0
-14 -15 0
-14 -16 0
-15 -16 0
17 18 19 20 0
-17 -18 0
-17 -19 0
-17 -20 0
-18 -19 0
-18 -20 0
-19 -20 0
21 22 23 24 0
-21 -22 0
-21 -23 0
-21 -24 0
-22 -23 0
-22 -24 0
-23 -24 0
25 26 27 28 0
-25 -26 0
-25 -27 0
-25 -28 0
-26 -27 0
-26 -28 0
-27 -28 0
29 30 31 32 0
-29 -30 0
-29 -31 0
-29 -32 0
-30 -31 0
-30 -32 0
-31 -32 0
33 34 35 36 0
-33 -34 0
-33 -35 0
-33 -36 0
-34 -35 0
-34 -36 0
-35 -36 0
37 38 39 40 0
-37 -38 0
-37 -39 0
-37 -40 0
-38 -39 0
-38 -40 0
-39 -40 0
41 42 43 44 0
-41 -42 0
-41 -43 0
-41 -44 0
-42 -43 0
-42 -44 0
-43 -44 0
45 46 47 48 0
-45 -46 0
-45 -47 0
-45 -48 0
-46 -47 0
-46 -48 0
-47 -48 0
49 50 51 52 0
-49 -50 0
-49 -51 0
-49 -52 0
-50 -51 0
-50 -52 0
-51 -52 0
53 54 55 56 0
-53 -54 0
-53 -55 0
-53 -56 0
-54 -55 0
-54 -56 0
-55 -56 0
57 58 59 60 0
-57 -58 0
-57 -59 0
-57 -60 0
-58 -59 0
-58 -60 0
-59 -60 0
61 62 63 64 0
-61 -62 0
-61 -63 0
-61 -64 0
-62 -63 0
-62 -64 0
-63 -64 0
65 66 67 68 0
-65 -66 0
-65 -67 0
-65 -68 0
-66 -67 0
-66 -68 0
-67 -68 0
69 70 71 72 0
-69 -70 0
-69 -71 0
-69 -72 0
-70 -71 0
-70 -72 0
-71 -72 0
73 74 75 76 0
-73 -74 0
-73 -75 0
-73 -76 0
-74 -75 0
-74 -76 0
-75 -76 0
77 78 79 80 0
-77 -78 0
-77 -79 0
-77 -80 0
-78 -79 0
-78 -80 0
-79 -80 0
81 82 83 84 0
-81 -82 0
-81 -83 0
-81 -84 0
-82 -83 0
-82 -84 0
-83 -84 0
85 86 87 88 0
-85 -86 0
-85 -87 0
-85 -88 0
-86 -87 0
-86 -88 0
-87 -88 0
89 90 91 92 0
-89 -90 0
-89 -91 0
-89 -92 0
-90 -91 0
-90 -92 0
-91 -92 0
93 94 95 96 0
-93 -94 0
-93 -95 0
-93 -96 0
-94 -95 0
-94 -96 0
-95 -96 0
97 98 99 100 0
-97 -98 0
-97 -99 0
-97 -100 0
-98 -99 0
-98 -100 0
-99 -100 0
101 102 103 104 0
-101 -102 0
-101 -103 0
-101 -104 0
-102 -103 0
-102 -104 0
-103 -104 0
105 106 107 108 0
-105 -106 0
-105 -107 0
-105 -108 0
-106 -107 0
-106 -108 0
-107 -108 0
109 110 111 112 0
-109 -110 0
-109 -111 0
-109 -112 0
-110 -111 0
-110 -112 0
-111 -112 0
113 114 115 116 0
-113 -114 0
-113 -115 0
-113 -116 0
-114 -115 0
-114 -116 0
-115 -116 0
117 118 119 120 0
-117 -118 0
-117 -119 0
-117 -120 0
-118 -119 0
-118 -120 0
-119 -120 0
121 122 123 124 0
-121 -122 0
-121 -123 0
-121 -124 0
-122 -123 0
-122 -124 0
-123 -124 0
125 126 127 128 0
-125 -126 0
-125 -127 0
-125 -128 0
-126 -127 0
-126 -128 0
-127 -128 0
129 130 131 132 0
-129 -130 0
-129 -131 0
-129 -132 0
-130 -131 0
-130 -132 0
-131 -132 0
133 134 135 136 0
-133 -134 0
-133 -135 0
-133 -136 0
-134 -135 0
-134 -136 0
-135 -136 0
137 138 139 140 0
-137 -138 0
-137 -139 0
-137 -140 0
-138 -139 0
-138 -140 0
-139 -140 0
141 142 143 144 0
-141 -142 0
-141 -143 0
-141 -144 0
-142 -143 0
-142 -144 0
-143 -144 0
145 146 147 148 0
-145 -146 0
-145 -147 0
-145 -148 0
-146 -147 0
-146 -148 0
-147 -148 0
149 150 151 152 0
-149 -150 0
-149 -151 0
-149 -152 0
-150 -151 0
-150 -152 0
-151 -152 0
153 154 155 156 0
-153 -154 0
-153 -155 0
-153 -156 0
-154 -155 0
-154 -156 0
-155 -156 0
157 158 159 160 0
-157 -158 0
-157 -159 0
-157 -160 0
-158 -159 0
-158 -160 0
-159 -160 0
161 162 163 164 0
-161 -162 0
-161 -163 0
-161 -164 0
-162 -163 0
-162 -164 0
-163 -164 0
165 166 167 168 0
-165 -166 0
-165 -167 0
-165 -168 0
-166 -167 0
-166 -168 0
-167 -168 0
169 170 171 172 0
-169 -170 0
-169 -171 0
-169 -172 0
-170 -171 0
-170 -172 0
-171 -172 0
173 174 175 176 0
-173 -174 0
-173 -175 0
-173 -176 0
-174 -175 0
-174 -176 0
-175 -176 0
177 178 179 180 0
-177 -178 0
-177 -179 0
-177 -180 0
-178 -179 0
-178 -180 0
-179 -180 0
181 182 183 184 0
-181 -182 0
-181 -183 0
-181 -184 0
-182 -183 0
-182 -184 0
-183 -184 0
185 186 187 188 0
-185 -186 0
-185 -187 0
-185 -188 0
-186 -187 0
-186 -188 0
-187 -188 0
189 190 191 192 0
-189 -190 0
-189 -191 0
-189 -192 0
-190 -191 0
-190 -192 0
-191 -192 0
193 194 195 196 0
-193 -194 0
-193 -195 0
-193 -196 0
-194 -195 0
-194 -196 0
-195 -196 0
197 198 199 200 0
-197 -198 0
-197 -199 0
-197 -200 0
-198 -199 0
-198 -200 0
-199 -200 0
201 202 203 204 0
-201 -202 0
-201 -203 0
-201 -204 0
-202 -203 0
-202 -204 0
-203 -204 0
205 206 207 208 0
-205 -206 0
-205 -207 0
-205 -208 0
-206 -207 0
-206 -208 0
-207 -208 0
209 210 211 212 0
-209 -210 0
-209 -211 0
-209 -212 0
-210 -211 0
-210 -212 0
-211 -212 0
213 214 215 216 0
-213 -214 0
-213 -215 0
-213 -216 0
-214 -215 0
-214 -216 0
-215 -216 0
217 218 219 220 0
-217 -218 0
-217 -219 0
-217 -220 0
-218 -219 0
-218 -220 0
-219 -220 0
221 222 223 224 0
-221 -222 0
-221 -223 0
-221 -224 0
-222 -223 0
-222 -224 0
-223 -224 0
225 226 227 228 0
-225 -226 0
-225 -227 0
-225 -228 0
-226 -227 0
-226 -228 0
-227 -228 0
229 230 231 232 0
-229 -230 0
-229 -231 0
-229 -232 0
-230 -231 0
-230 -232 0
-231 -232 0
233 234 235 236 0
-233 -234 0
-233 -235 0
-233 -236 0
-234 -235 0
-234 -236 0
-235 -236 0
237 238 239 240 0
-237 -238 0
-237 -239 0
-237 -240 0
-238 -239 0
-238 -240 0
-239 -240 0
241 242 243 244 0
-241 -242 0
-241 -243 0
-241 -244 0
-242 -243 0
-242 -244 0
-243 -244 0
245 246 247 248 0
-245 -246 0
-245 -247 0
-245 -248 0
-246 -247 0
-246 -248 0
-247 -248 0
249 250 251 252 0
-249 -250 0
-249 -251 0
-249 -252 0
-250 -251 0
-250 -252 0
-251 -252 0
253 254 255 256 0
-253 -254 0
-253 -255 0
-253 -256 0
-254 -255 0
-254 -256 0
-255 -256 0
257 258 259 260 0
-257 -258 0
-257 -259 0
-257 -260 0
-258 -259 0
-258 -260 0
-259 -260 0
261 262 263 264 0
-261 -262 0
-261 -263 0
-261 -264 0
-262 -263 0
-262 -264 0
-263 -264 0
265 266 267 268 0
-265 -266 0
-265 -267 0
-265 -268 0
-266 -267 0
-266 -268 0
-267 -268 0
269 270 271 272 0
-269 -270 0
-269 -271 0
-269 -272 0
-270 -271 0
-270 -272 0
-271 -272 0
273 274 275 276 0
-273 -274 0
-273 -275 0
-273 -276 0
-274 -275 0
-274 -276 0
-275 -276 0
277 278 279 280 0
-277 -278 0
-277 -279 0
-277 -280 0
-278 -279 0
-278 -280 0
-279 -280 0
281 282 283 284 0
-281 -282 0
-281 -283 0
-281 -284 0
-282 -283 0
-282 -284 0
-283 -284 0
285 286 287 288 0
-285 -286 0
-285 -287 0
-285 -288 0
-286 -287 0
-286 -288 0
-287 -288 0
289 290 291 292 0
-289 -290 0
-289 -291 0
-289 -292 0
-290 -291 0
-290 -292 0
-291 -292 0
293 294 295 296 0
-293 -294 0
-293 -295 0
-293 -296 0
-294 -295 0
-294 -296 0
-295 -296 0
297 298 299 300 0
-297 -298 0
-297 -299 0
-297 -300 0
-298 -299 0
-298 -300 0
-299 -300 0
301 302 303 304 0
-301 -302 0
-301 -303 0
-301 -304 0
-302 -303 0
-302 -304 0
-303 -304 0
305 306 307 308 0
-305 -306 0
-305 -307 0
-305 -308 0
-306 -307 0
-306 -308 0
-307 -308 0
309 310 311 312 0
-309 -310 0
-309 -311 0
-309 -312 0
-310 -311 0
-310 -312 0
-311 -312 0
313 314 315 316 0
-313 -314 0
-313 -315 0
-313 -316 0
-314 -315 0
-314 -316 0
-315 -316 0
317 318 319 320 0
-317 -318 0
-317 -319 0
-317 -320 0
-318 -319 0
-318 -320 0
-319 -320 0
321 322 323 324 0
-321 -322 0
-321 -323 0
-321 -324 0
-322 -323 0
-322 -324 0
-323 -324 0
325 326 327 328 0
-325 -326 0
-325 -327 0
-325 -328 0
-326 -327 0
-326 -328 0
-327 -328 0
329 330 331 332 0
-329 -330 0
-329 -331 0
-329 -332 0
-330 -331 0
-330 -332 0
-331 -332 0
333 334 335 336 0
-333 -334 0
-333 -335 0
-333 -336 0
-334 -335 0
-334 -336 0
-335 -336 0
337 338 339 340 0
-337 -338 0
-337 -339 0
-337 -340 0
-338 -339 0
-338 -340 0
-339 -340 0
341 342 343 344 0
-341 -342 0
-341 -343 0
-341 -344 0
-342 -343 0
-342 -344 0
-343 -344 0
345 346 347 348 0
-345 -346 0
-345 -347 0
-345 -348 0
-346 -347 0
-346 -348 0
-347 -348 0
349 350 351 352 0
-349 -350 0
-349 -351 0
-349 -352 0
-350 -351 0
-350 -352 0
-351 -352 0
353 354 355 356 0
-353 -354 0
-353 -355 0
-353 -356 0
-354 -355 0
-354 -356 0
-355 -356 0
357 358 359 360 0
-357 -358 0
-357 -359 0
-357 -360 0
-358 -359 0
-358 -360 0
-359 -360 0
361 362 363 364 0
-361 -362 0
-361 -363 0
-361 -364 0
-362 -363 0
-362 -364 0
-363 -364 0
365 366 367 368 0
-365 -366 0
-365 -367 0
-365 -368 0
-366 -367 0
-366 -368 0
-367 -368 0
369 370 371 372 0
-369 -370 0
-369 -371 0
-369 -372 0
-370 -371 0
-370 -372 0
-371 -372 0
373 374 375 376 0
-373 -374 0
-373 -375 0
-373 -376 0
-374 -375 0
-374 -376 0
-375 -376 0
377 378 379 380 0
-377 -378 0
-377 -379 0
-377 -380 0
-378 -379 0
-378 -380 0
-379 -380 0
381 382 383 384 0
-381 -382 0
-381 -383 0
-381 -384 0
-382 -383 0
-382 -384 0
-383 -384 0
385 386 387 388 0
-385 -386 0
-385 -387 0
-385 -388 0
-386 -387 0
-386 -388 0
-387 -388 0
389 390 391 392 0
-389 -390 0
-389 -391 0
-389 -392 0
-390 -391 0
-390 -392 0
-391 -392 0
393 394 395 396 0
-393 -394 0
-393 -395 0
-393 -396 0
-394 -395 0
-394 -396 0
-395 -396 0
397 398 399 400 0
-397 -398 0
-397 -399 0
-397 -400 0
-398 -399 0
-398 -400 0
-399 -400 0
401 402 403 404 0
-401 -402 0
-401 -403 0
-401 -404 0
-402 -403 0
-402 -404 0
-403 -404 0
405 406 407 408 0
-405 -406 0
-405 -407 0
-405 -408 0
-406 -407 0
-406 -408 0
-407 -408 0
409 410 411 412 0
-409 -410 0
-409 -411 0
-409 -412 0
-410 -411 0
-410 -412 0
-411 -412 0
413 414 415 416 0
-413 -414 0
-413 -415 0
-413 -416 0
-414 -415 0
-414 -416 0
-415 -416 0
417 418 419 420 0
-417 -418 0
-417 -419 0
-417 -420 0
-418 -419 0
-418 -420 0
-419 -420 0
421 422 423 424 0
-421 -422 0
-421 -423 0
-421 -424 0
-422 -423 0
-422 -424 0
-423 -424 0
425 426 427 428 0
-425 -426 0
-425 -427 0
-425 -428 0
-426 -427 0
-426 -428 0
-427 -428 0
429 430 431 432 0
-429 -430 0
-429 -431 0
-429 -432 0
-430 -431 0
-430 -432 0
-431 -432 0
433 434 435 436 0
-433 -434 0
-433 -435 0
-433 -436 0
-434 -435 0
-434 -436 0
-435 -436 0
437 438 439 440 0
-437 -438 0
-437 -439 0
-437 -440 0
-438 -439 0
-438 -440 0
-439 -440 0
441 442 443 444 0
-441 -442 0
-441 -443 0
-441 -444 0
-442 -443 0
-442 -444 0
-443 -444 0
445 446 447 448 0
-445 -446 0
-445 -447 0
-445 -448 0
-446 -447 0
-446 -448 0
-447 -448 0
449 450 451 452 0
-449 -450 0
-449 -451 0
-449 -452 0
-450 -451 0
-450 -452 0
-451 -452 0
453 454 455 456 0
-453 -454 0
-453 -455 0
-453 -456 0
-454 -455 0
-454 -456 0
-455 -456 0
457 458 459 460 0
-457 -458 0
-457 -459 0
-457 -460 0
-458 -459 0
-458 -460 0
-459 -460 0
461 462 463 464 0
-461 -462 0
-461 -463 0
-461 -464 0
-462 -463 0
-462 -464 0
-463 -464 0
465 466 467 468 0
-465 -466 0
-465 -467 0
-465 -468 0
-466 -467 0
-466 -468 0
-467 -468 0
469 470 471 472 0
-469 -470 0
-469 -471 0
-469 -472 0
-470 -471 0
-470 -472 0
-471 -472 0
473 474 475 476 0
-473 -474 0
-473 -475 0
-473 -476 0
-474 -475 0
-474 -476 0
-475 -476 0
477 478 479 480 0
-477 -478 0
-477 -479 0
-477 -480 0
-478 -479 0
-478 -480 0
-479 -480 0
481 482 483 484 0
-481 -482 0
-481 -483 0
-481 -484 0
-482 -483 0
-482 -484 0
-483 -484 0
485 486 487 488 0
-485 -486 0
-485 -487 0
-485 -488 0
-486 -487 0
-486 -488 0
-487 -488 0
489 490 491 492 0
-489 -490 0
-489 -491 0
-489 -492 0
-490 -491 0
-490 -492 0
-491 -492 0
493 494 495 496 0
-493 -494 0
-493 -495 0
-493 -496 0
-494 -495 0
-494 -496 0
-495 -496 0
497 498 499 500 0
-497 -498 0
-497 -499 0
-497 -500 0
-498 -499 0
-498 -500 0
-499 -500 0
501 502 503 504 0
-501 -502 0
-501 -503 0
-501 -504 0
-502 -503 0
-502 -504 0
-503 -504 0
505 506 507 508 0
-505 -506 0
-505 -507 0
-505 -508 0
-506 -507 0
-506 -508 0
-507 -508 0
509 510 511 512 0
-509 -510 0
-509 -511 0
-509 -512 0
-510 -511 0
-510 -512 0
-511 -512 0
513 514 515 516 0
-513 -514 0
-513 -515 0
-513 -516 0
-514 -515 0
-514 -516 0
-515 -516 0
517 518 519 520 0
-517 -518 0
-517 -519 0
-517 -520 0
-518 -519 0
-518 -520 0
-519 -520 0
521 522 523 524 0
-521 -522 0
-521 -523 0
-521 -524 0
-522 -523 0
-522 -524 0
-523 -524 0
525 526 527 528 0
-525 -526 0
-525 -527 0
-525 -528 0
-526 -527 0
-526 -528 0
-527 -528 0
529 530 531 532 0
-529 -530 0
-529 -531 0
-529 -532 0
-530 -531 0
-530 -532 0
-531 -532 0
533 534 535 536 0
-533 -534 0
-533 -535 0
-533 -536 0
-534 -535 0
-534 -536 0
-535 -536 0
537 538 539 540 0
-537 -538 0
-537 -539 0
-537 -540 0
-538 -539 0
-538 -540 0
-539 -540 0
541 542 543 544 0
-541 -542 0
-541 -543 0
-541 -544 0
-542 -543 0
-542 -544 0
-543 -544 0
545 546 547 548 0
-545 -546 0
-545 -547 0
-545 -548 0
-546 -547 0
-546 -548 0
-547 -548 0
549 550 551 552 0
-549 -550 0
-549 -551 0
-549 -552 0
-550 -551 0
-550 -552 0
-551 -552 0
553 554 555 556 0
-553 -554 0
-553 -555 0
-553 -556 0
-554 -555 0
-554 -556 0
-555 -556 0
557 558 559 560 0
-557 -558 0
-557 -559 0
-557 -560 0
-558 -559 0
-558 -560 0
-559 -560 0
561 562 563 564 0
-561 -562 0
-561 -563 0
-561 -564 0
-562 -563 0
-562 -564 0
-563 -564 0
565 566 567 568 0
-565 -566 0
-565 -567 0
-565 -568 0
-566 -567 0
-566 -568 0
-567 -568 0
569 570 571 572 0
-569 -570 0
-569 -571 0
-569 -572 0
-570 -571 0
-570 -572 0
-571 -572 0
573 574 575 576 0
-573 -574 0
-573 -575 0
-573 -576 0
-574 -575 0
-574 -576 0
-575 -576 0
577 578 579 580 0
-577 -578 0
-577 -579 0
-577 -580 0
-578 -579 0
-578 -580 0
-579 -580 0
581 582 583 584 0
-581 -582 0
-581 -583 0
-581 -584 0
-582 -583 0
-582 -584 0
-583 -584 0
585 586 587 588 0
-585 -586 0
-585 -587 0
-585 -588 0
-586 -587 0
-586 -588 0
-587 -588 0
589 590 591 592 0
-589 -590 0
-589 -591 0
-589 -592 0
-590 -591 0
-590 -592 0
-591 -592 0
593 594 595 596 0
-593 -594 0
-593 -595 0
-593 -596 0
-594 -595 0
-594 -596 0
-595 -596 0
597 598 599 600 0
-597 -598 0
-597 -599 0
-597 -600 0
-598 -599 0
-598 -600 0
-599 -600 0
601 602 603 604 0
-601 -602 0
-601 -603 0
-601 -604 0
-602 -603 0
-602 -604 0
-603 -604 0
605 606 607 608 0
-605 -606 0
-605 -607 0
-605 -608 0
-606 -607 0
-606 -608 0
-607 -608 0
609 610 611 612 0
-609 -610 0
-609 -611 0
-609 -612 0
-610 -611 0
-610 -612 0
-611 -612 0
613 614 615 616 0
-613 -614 0
-613 -615 0
-613 -616 0
-614 -615 0
-614 -616 0
-615 -616 0
617 618 619 620 0
-617 -618 0
-617 -619 0
-617 -620 0
-618 -619 0
-618 -620 0
-619 -620 0
621 622 623 624 0
-621 -622 0
-621 -623 0
-621 -624 0
-622 -623 0
-622 -624 0
-623 -624 0
625 626 627 628 0
-625 -626 0
-625 -627 0
-625 -628 0
-626 -627 0
-626 -628 0
-627 -628 0
629 630 631 632 0
-629 -630 0
-629 -631 0
-629 -632 0
-630 -631 0
-630 -632 0
-631 -632 0
633 634 635 636 0
-633 -634 0
-633 -635 0
-633 -636 0
-634 -635 0
-634 -636 0
-635 -636 0
637 638 639 640 0
-637 -638 0
-637 -639 0
-637 -640 0
-638 -639 0
-638 -640 0
-639 -640 0
641 642 643 644 0
-641 -642 0
-641 -643 0
-641 -644 0
-642 -643 0
-642 -644 0
-643 -644 0
645 646 647 648 0
-645 -646 0
-645 -647 0
-645 -648 0
-646 -647 0
-646 -648 0
-647 -648 0
649 650 651 652 0
-649 -650 0
-649 -651 0
-649 -652 0
-650 -651 0
-650 -652 0
-651 -652 0
653 654 655 656 0
-653 -654 0
-653 -655 0
-653 -656 0
-654 -655 0
-654 -656 0
-655 -656 0
657 658 659 660 0
-657 -658 0
-657 -659 0
-657 -660 0
-658 -659 0
-658 -660 0
-659 -660 0
661 662 663 664 0
-661 -662 0
-661 -663 0
-661 -664 0
-662 -663 0
-662 -664 0
-663 -664 0
665 666 667 668 0
-665 -666 0
-665 -667 0
-665 -668 0
-666 -667 0
-666 -668 0
-667 -668 0
669 670 671 672 0
-669 -670 0
-669 -671 0
-669 -672 0
-670 -671 0
-670 -672 0
-671 -672 0
673 674 675 676 0
-673 -674 0
-673 -675 0
-673 -676 0
-674 -675 0
-674 -676 0
-675 -676 0
677 678 679 680 0
-677 -678 0
-677 -679 0
-677 -680 0
-678 -679 0
-678 -680 0
-679 -680 0
681 682 683 684 0
-681 -682 0
-681 -683 0
-681 -684 0
-682 -683 0
-682 -684 0
-683 -684 0
685 686 687 688 0
-685 -686 0
-685 -687 0
-685 -688 0
-686 -687 0
-686 -688 0
-687 -688 0
689 690 691 692 0
-689 -690 0
-689 -691 0
-689 -692 0
-690 -691 0
-690 -692 0
-691 -692 0
693 694 695 696 0
-693 -694 0
-693 -695 0
-693 -696 0
-694 -695 0
-694 -696 0
-695 -696 0
697 698 699 700 0
-697 -698 0
-697 -699 0
-697 -700 0
-698 -699 0
-698 -700 0
-699 -700 0
701 702 703 704 0
-701 -702 0
-701 -703 0
-701 -704 0
-702 -703 0
-702 -704 0
-703 -704 0
705 706 707 708 0
-705 -706 0
-705 -707 0
-705 -708 0
-706 -707 0
-706 -708 0
-707 -708 0
709 710 711 712 0
-709 -710 0
-709 -711 0
-709 -712 0
-710 -711 0
-710 -712 0
-711 -712 0
713 714 715 716 0
-713 -714 0
-713 -715 0
-713 -716 0
-714 -715 0
-714 -716 0
-715 -716 0
717 718 719 720 0
-717 -718 0
-717 -719 0
-717 -720 0
-718 -719 0
-718 -720 0
-719 -720 0
721 722 723 724 0
-721 -722 0
-721 -723 0
-721 -724 0
-722 -723 0
-722 -724 0
-723 -724 0
725 726 727 728 0
-725 -726 0
-725 -727 0
-725 -728 0
-726 -727 0
-726 -728 0
-727 -728 0
729 730 731 732 0
-729 -730 0
-729 -731 0
-729 -732 0
-730 -731 0
-730 -732 0
-731 -732 0
733 734 735 736 0
-733 -734 0
-733 -735 0
-733 -736 0
-734 -735 0
-734 -736 0
-735 -736 0
737 738 739 740 0
-737 -738 0
-737 -739 0
-737 -740 0
-738 -739 0
-738 -740 0
-739 -740 0
741 742 743 744 0
-741 -742 0
-741 -743 0
-741 -744 0
-742 -743 0
-742 -744 0
-743 -744 0
745 746 747 748 0
-745 -746 0
-745 -747 0
-745 -748 0
-746 -747 0
-746 -748 0
-747 -748 0
749 750 751 752 0
-749 -750 0
-749 -751 0
-749 -752 0
-750 -751 0
-750 -752 0
-751 -752 0
753 754 755 756 0
-753 -754 0
-753 -755 0
-753 -756 0
-754 -755 0
-754 -756 0
-755 -756 0
757 758 759 760 0
-757 -758 0
-757 -759 0
-757 -760 0
-758 -759 0
-758 -760 0
-759 -760 0
761 762 763 764 0
-761 -762 0
-761 -763 0
-761 -764 0
-762 -763 0
-762 -764 0
-763 -764 0
765 766 767 768 0
-765 -766 0
-765 -767 0
-765 -768 0
-766 -767 0
-766 -768 0
-767 -768 0
769 770 771 772 0
-769 -770 0
-769 -771 0
-769 -772 0
-770 -771 0
-770 -772 0
-771 -772 0
773 774 775 776 0
-773 -774 0
-773 -775 0
-773 -776 0
-774 -775 0
-774 -776 0
-775 -776 0
777 778 779 780 0
-777 -778 0
-777 -779 0
-777 -780 0
-778 -779 0
-778 -780 0
-779 -780 0
781 782 783 784 0
-781 -782 0
-781 -783 0
-781 -784 0
-782 -783 0
-782 -784 0
-783 -784 0
785 786 787 788 0
-785 -786 0
-785 -787 0
-785 -788 0
-786 -787 0
-786 -788 0
-787 -788 0
789 790 791 792 0
-789 -790 0
-789 -791 0
-789 -792 0
-790 -791 0
-790 -792 0
-791 -792 0
793 794 795 796 0
-793 -794 0
-793 -795 0
-793 -796 0
-794 -795 0
-794 -796 0
-795 -796 0
797 798 799 800 0
-797 -798 0
-797 -799 0
-797 -800 0
-798 -799 0
-798 -800 0
-799 -800 0
801 802 803 804 0
-801 -802 0
-801 -803 0
-801 -804 0
-802 -803 0
-802 -804 0
-803 -804 0
805 806 807 808 0
-805 -806 0
-805 -807 0
-805 -808 0
-806 -807 0
-806 -808 0
-807 -808 0
809 810 811 812 0
-809 -810 0
-809 -811 0
-809 -812 0
-810 -811 0
-810 -812 0
-811 -812 0
813 814 815 816 0
-813 -814 0
-813 -815 0
-813 -816 0
-814 -815 0
-814 -816 0
-815 -816 0
817 818 819 820 0
-817 -818 0
-817 -819 0
-817 -820 0
-818 -819 0
-818 -820 0
-819 -820 0
821 822 823 824 0
-821 -822 0
-821 -823 0
-821 -824 0
-822 -823 0
-822 -824 0
-823 -824 0
825 826 827 828 0
-825 -826 0
-825 -827 0
-825 -828 0
-826 -827 0
-826 -828 0
-827 -828 0
829 830 831 832 0
-829 -830 0
-829 -831 0
-829 -832 0
-830 -831 0
-830 -832 0
-831 -832 0
833 834 835 836 0
-833 -834 0
-833 -835 0
-833 -836 0
-834 -835 0
-834 -836 0
-835 -836 0
837 838 839 840 0
-837 -838 0
-837 -839 0
-837 -840 0
-838 -839 0
-838 -840 0
-839 -840 0
841 842 843 844 0
-841 -842 0
-841 -843 0
-841 -844 0
-842 -843 0
-842 -844 0
-843 -844 0
845 846 847 848 0
-845 -846 0
-845 -847 0
-845 -848 0
-846 -847 0
-846 -848 0
-847 -848 0
849 850 851 852 0
-849 -850 0
-849 -851 0
-849 -852 0
-850 -851 0
-850 -852 0
-851 -852 0
853 854 855 856 0
-853 -854 0
-853 -855 0
-853 -856 0
-854 -855 0
-854 -856 0
-855 -856 0
857 858 859 860 0
-857 -858 0
-857 -859 0
-857 -860 0
-858 -859 0
-858 -860 0
-859 -860 0
861 862 863 864 0
-861 -862 0
-861 -863 0
-861 -864 0
-862 -863 0
-862 -864 0
-863 -864 0
865 866 867 868 0
-865 -866 0
-865 -867 0
-865 -868 0
-866 -867 0
-866 -868 0
-867 -868 0
869 870 871 872 0
-869 -870 0
-869 -871 0
-869 -872 0
-870 -871 0
-870 -872 0
-871 -872 0
873 874 875 876 0
-873 -874 0
-873 -875 0
-873 -876 0
-874 -875 0
-874 -876 0
-875 -876 0
877 878 879 880 0
-877 -878 0
-877 -879 0
-877 -880 0
-878 -879 0
-878 -880 0
-879 -880 0
881 882 883 884 0
-881 -882 0
-881 -883 0
-881 -884 0
-882 -883 0
-882 -884 0
-883 -884 0
885 886 887 888 0
-885 -886 0
-885 -887 0
-885 -888 0
-886 -887 0
-886 -888 0
-887 -888 0
889 890 891 892 0
-889 -890 0
-889 -891 0
-889 -892 0
-890 -891 0
-890 -892 0
-891 -892 0
893 894 895 896 0
-893 -894 0
-893 -895 0
-893 -896 0
-894 -895 0
-894 -896 0
-895 -896 0
897 898 899 900 0
-897 -898 0
-897 -899 0
-897 -900 0
-898 -899 0
-898 -900 0
-899 -900 0
901 902 903 904 0
-901 -902 0
-901 -903 0
-901 -904 0
-902 -903 0
-902 -904 0
-903 -904 0
905 906 907 908 0
-905 -906 0
-905 -907 0
-905 -908 0
-906 -907 0
-906 -908 0
-907 -908 0
909 910 911 912 0
-909 -910 0
-909 -911 0
-909 -912 0
-910 -911 0
-910 -912 0
-911 -912 0
913 914 915 916 0
-913 -914 0
-913 -915 0
-913 -916 0
-914 -915 0
-914 -916 0
-915 -916 0
917 918 919 920 0
-917 -918 0
-917 -919 0
-917 -920 0
-918 -919 0
-918 -920 0
-919 -920 0
921 922 923 924 0
-921 -922 0
-921 -923 0
-921 -924 0
-922 -923 0
-922 -924 0
-923 -924 0
925 926 927 928 0
-925 -926 0
-925 -927 0
-925 -928 0
-926 -927 0
-926 -928 0
-927 -928 0
929 930 931 932 0
-929 -930 0
-929 -931 0
-929 -932 0
-930 -931 0
-930 -932 0
-931 -932 0
933 934 935 936 0
-933 -934 0
-933 -935 0
-933 -936 0
-934 -935 0
-934 -936 0
-935 -936 0
937 938 939 940 0
-937 -938 0
-937 -939 0
-937 -940 0
-938 -939 0
-938 -940 0
-939 -940 0
941 942 943 944 0
-941 -942 0
-941 -943 0
-941 -944 0
-942 -943 0
-942 -944 0
-943 -944 0
945 946 947 948 0
-945 -946 0
-945 -947 0
-945 -948 0
-946 -947 0
-946 -948 0
-947 -948 0
949 950 951 952 0
-949 -950 0
-949 -951 0
-949 -952 0
-950 -951 0
-950 -952 0
-951 -952 0
953 954 955 956 0
-953 -954 0
-953 -955 0
-953 -956 0
-954 -955 0
-954 -956 0
-955 -956 0
957 958 959 960 0
-957 -958 0
-957 -959 0
-957 -960 0
-958 -959 0
-958 -960 0
-959 -960 0
961 962 963 964 0
-961 -962 0
-961 -963 0
-961 -964 0
-962 -963 0
-962 -964 0
-963 -964 0
965 966 967 968 0
-965 -966 0
-965 -967 0
-965 -968 0
-966 -967 0
-966 -968 0
-967 -968 0
969 970 971 972 0
-969 -970 0
-969 -971 0
-969 -972 0
-970 -971 0
-970 -972 0
-971 -972 0
973 974 975 976 0
-973 -974 0
-973 -975 0
-973 -976 0
-974 -975 0
-974 -976 0
-975 -976 0
977 978 979 980 0
-977 -978 0
-977 -979 0
-977 -980 0
-978 -979 0
-978 -980 0
-979 -980 0
981 982 983 984 0
-981 -982 0
-981 -983 0
-981 -984 0
-982 -983 0
-982 -984 0
-983 -984 0
985 986 987 988 0
-985 -986 0
-985 -987 0
-985 -988 0
-986 -987 0
-986 -988 0
-987 -988 0
989 990 991 992 0
-989 -990 0
-989 -991 0
-989 -992 0
-990 -991 0
-990 -992 0
-991 -992 0
993 994 995 996 0
-993 -994 0
-993 -995 0
-993 -996 0
-994 -995 0
-994 -996 0
-995 -996 0
997 998 999 1000 0
-997 -998 0
-997 -999 0
-997 -1000 0
-998 -999 0
-998 -1000 0
-999 -1000 0
1001 1002 1003 1004 0
-1001 -1002 0
-1001 -1003 0
-1001 -1004 0
-1002 -1003 0
-1002 -1004 0
-1003 -1004 0
1005 1006 1007 1008 0
-1005 -1006 0
-1005 -1007 0
-1005 -1008 0
-1006 -1007 0
-1006 -1008 0
-1007 -1008 0
1009 1010 1011 1012 0
-1009 -1010 0
-1009 -1011 0
-1009 -1012 0
-1010 -1011 0
-1010 -1012 0
-1011 -1012 0
1013 1014 1015 1016 0
-1013 -1014 0
-1013 -1015 0
-1013 -1016 0
-1014 -1015 0
-1014 -1016 0
-1015 -1016 0
1017 1018 1019 1020 0
-1017 -1018 0
-1017 -1019 0
-1017 -1020 0
-1018 -1019 0
-1018 -1020 0
-1019 -1020 0
1021 1022 1023 1024 0
-1021 -1022 0
-1021 -1023 0
-1021 -1024 0
-1022 -1023 0
-1022 -1024 0
-1023 -1024 0
1025 1026 1027 1028 0
-1025 -1026 0
-1025 -1027 0
-1025 -1028 0
-1026 -1027 0
-1026 -1028 0
-1027 -1028 0
1029 1030 1031 1032 0
-1029 -1030 0
-1029 -1031 0
-1029 -1032 0
-1030 -1031 0
-1030 -1032 0
-1031 -1032 0
1033 1034 1035 1036 0
-1033 -1034 0
-1033 -1035 0
-1033 -1036 0
-1034 -1035 0
-1034 -1036 0
-1035 -1036 0
1037 1038 1039 1040 0
-1037 -1038 0
-1037 -1039 0
-1037 -1040 0
-1038 -1039 0
-1038 -1040 0
-1039 -1040 0
1041 1042 1043 1044 0
-1041 -1042 0
-1041 -1043 0
-1041 -1044 0
-1042 -1043 0
-1042 -1044 0
-1043 -1044 0
1045 1046 1047 1048 0
-1045 -1046 0
-1045 -1047 0
-1045 -1048 0
-1046 -1047 0
-1046 -1048 0
-1047 -1048 0
1049 1050 1051 1052 0
-1049 -1050 0
-1049 -1051 0
-1049 -1052 0
-1050 -1051 0
-1050 -1052 0
-1051 -1052 0
1053 1054 1055 1056 0
-1053 -1054 0
-1053 -1055 0
-1053 -1056 0
-1054 -1055 0
-1054 -1056 0
-1055 -1056 0
1057 1058 1059 1060 0
-1057 -1058 0
-1057 -1059 0
-1057 -1060 0
-1058 -1059 0
-1058 -1060 0
-1059 -1060 0
1061 1062 1063 1064 0
-1061 -1062 0
-1061 -1063 0
-1061 -1064 0
-1062 -1063 0
-1062 -1064 0
-1063 -1064 0
1065 1066 1067 1068 0
-1065 -1066 0
-1065 -1067 0
-1065 -1068 0
-1066 -1067 0
-1066 -1068 0
-1067 -1068 0
1069 1070 1071 1072 0
-1069 -1070 0
-1069 -1071 0
-1069 -1072 0
-1070 -1071 0
-1070 -1072 0
-1071 -1072 0
1073 1074 1075 1076 0
-1073 -1074 0
-1073 -1075 0
-1073 -1076 0
-1074 -1075 0
-1074 -1076 0
-1075 -1076 0
1077 1078 1079 1080 0
-1077 -1078 0
-1077 -1079 0
-1077 -1080 0
-1078 -1079 0
-1078 -1080 0
-1079 -1080 0
1081 1082 1083 1084 0
-1081 -1082 0
-1081 -1083 0
-1081 -1084 0
-1082 -1083 0
-1082 -1084 0
-1083 -1084 0
1085 1086 1087 1088 0
-1085 -1086 0
-1085 -1087 0
-1085 -1088 0
-1086 -1087 0
-1086 -1088 0
-1087 -1088 0
1089 1090 1091 1092 0
-1089 -1090 0
-1089 -1091 0
-1089 -1092 0
-1090 -1091 0
-1090 -1092 0
-1091 -1092 0
1093 1094 1095 1096 0
-1093 -1094 0
-1093 -1095 0
-1093 -1096 0
-1094 -1095 0
-1094 -1096 0
-1095 -1096 0
1097 1098 1099 1100 0
-1097 -1098 0
-1097 -1099 0
-1097 -1100 0
-1098 -1099 0
-1098 -1100 0
-1099 -1100 0
1101 1102 1103 1104 0
-1101 -1102 0
-1101 -1103 0
-1101 -1104 0
-1102 -1103 0
-1102 -1104 0
-1103 -1104 0
1105 1106 1107 1108 0
-1105 -1106 0
-1105 -1107 0
-1105 -1108 0
-1106 -1107 0
-1106 -1108 0
-1107 -1108 0
1109 1110 1111 1112 0
-1109 -1110 0
-1109 -1111 0
-1109 -1112 0
-1110 -1111 0
-1110 -1112 0
-1111 -1112 0
1113 1114 1115 1116 0
-1113 -1114 0
-1113 -1115 0
-1113 -1116 0
-1114 -1115 0
-1114 -1116 0
-1115 -1116 0
1117 1118 1119 1120 0
-1117 -1118 0
-1117 -1119 0
-1117 -1120 0
-1118 -1119 0
-1118 -1120 0
-1119 -1120 0
1121 1122 1123 1124 0
-1121 -1122 0
-1121 -1123 0
-1121 -1124 0
-1122 -1123 0
-1122 -1124 0
-1123 -1124 0
1125 1126 1127 1128 0
-1125 -1126 0
-1125 -1127 0
-1125 -1128 0
-1126 -1127 0
-1126 -1128 0
-1127 -1128 0
1129 1130 1131 1132 0
-1129 -1130 0
-1129 -1131 0
-1129 -1132 0
-1130 -1131 0
-1130 -1132 0
-1131 -1132 0
1133 1134 1135 1136 0
-1133 -1134 0
-1133 -1135 0
-1133 -1136 0
-1134 -1135 0
-1134 -1136 0
-1135 -1136 0
1137 1138 1139 1140 0
-1137 -1138 0
-1137 -1139 0
-1137 -1140 0
-1138 -1139 0
-1138 -1140 0
-1139 -1140 0
1141 1142 1143 1144 0
-1141 -1142 0
-1141 -1143 0
-1141 -1144 0
-1142 -1143 0
-1142 -1144 0
-1143 -1144 0
1145 1146 1147 1148 0
-1145 -1146 0
-1145 -1147 0
-1145 -1148 0
-1146 -1147 0
-1146 -1148 0
-1147 -1148 0
1149 1150 1151 1152 0
-1149 -1150 0
-1149 -1151 0
-1149 -1152 0
-1150 -1151 0
-1150 -1152 0
-1151 -1152 0
1153 1154 1155 1156 0
-1153 -1154 0
-1153 -1155 0
-1153 -1156 0
-1154 -1155 0
-1154 -1156 0
-1155 -1156 0
1157 1158 1159 1160 0
-1157 -1158 0
-1157 -1159 0
-1157 -1160 0
-1158 -1159 0
-1158 -1160 0
-1159 -1160 0
1161 1162 1163 1164 0
-1161 -1162 0
-1161 -1163 0
-1161 -1164 0
-1162 -1163 0
-1162 -1164 0
-1163 -1164 0
1165 1166 1167 1168 0
-1165 -1166 0
-1165 -1167 0
-1165 -1168 0
-1166 -1167 0
-1166 -1168 0
-1167 -1168 0
1169 1170 1171 1172 0
-1169 -1170 0
-1169 -1171 0
-1169 -1172 0
-1170 -1171 0
-1170 -1172 0
-1171 -1172 0
1173 1174 1175 1176 0
-1173 -1174 0
-1173 -1175 0
-1173 -1176 0
-1174 -1175 0
-1174 -1176 0
-1175 -1176 0
1177 1178 1179 1180 0
-1177 -1178 0
-1177 -1179 0
-1177 -1180 0
-1178 -1179 0
-1178 -1180 0
-1179 -1180 0
1181 1182 1183 1184 0
-1181 -1182 0
-1181 -1183 0
-1181 -1184 0
-1182 -1183 0
-1182 -1184 0
-1183 -1184 0
1185 1186 1187 1188 0
-1185 -1186 0
-1185 -1187 0
-1185 -1188 0
-1186 -1187 0
-1186 -1188 0
-1187 -1188 0
1189 1190 1191 1192 0
-1189 -1190 0
-1189 -1191 0
-1189 -1192 0
-1190 -1191 0
-1190 -1192 0
-1191 -1192 0
1193 1194 1195 1196 0
-1193 -1194 0
-1193 -1195 0
-1193 -1196 0
-1194 -1195 0
-1194 -1196 0
-1195 -1196 0
1197 1198 1199 1200 0
-1197 -1198 0
-1197 -1199 0
-1197 -1200 0
-1198 -1199 0
-1198 -1200 0
-1199 -1200 0
1201 1202 1203 1204 0
-1201 -1202 0
-1201 -1203 0
-1201 -1204 0
-1202 -1203 0
-1202 -1204 0
-1203 -1204 0
1205 1206 1207 1208 0
-1205 -1206 0
-1205 -1207 0
-1205 -1208 0
-1206 -1207 0
-1206 -1208 0
-1207 -1208 0
1209 1210 1211 1212 0
-1209 -1210 0
-1209 -1211 0
-1209 -1212 0
-1210 -1211 0
-1210 -1212 0
-1211 -1212 0
1213 1214 1215 1216 0
-1213 -1214 0
-1213 -1215 0
-1213 -1216 0
-1214 -1215 0
-1214 -1216 0
-1215 -1216 0
1217 1218 1219 1220 0
-1217 -1218 0
-1217 -1219 0
-1217 -1220 0
-1218 -1219 0
-1218 -1220 0
-1219 -1220 0
1221 1222 1223 1224 0
-1221 -1222 0
-1221 -1223 0
-1221 -1224 0
-1222 -1223 0
-1222 -1224 0
-1223 -1224 0
1225 1226 1227 1228 0
-1225 -1226 0
-1225 -1227 0
-1225 -1228 0
-1226 -1227 0
-1226 -1228 0
-1227 -1228 0
1229 1230 1231 1232 0
-1229 -1230 0
-1229 -1231 0
-1229 -1232 0
-1230 -1231 0
-1230 -1232 0
-1231 -1232 0
1233 1234 1235 1236 0
-1233 -1234 0
-1233 -1235 0
-1233 -1236 0
-1234 -1235 0
-1234 -1236 0
-1235 -1236 0
1237 1238 1239 1240 0
-1237 -1238 0
-1237 -1239 0
-1237 -1240 0
-1238 -1239 0
-1238 -1240 0
-1239 -1240 0
1241 1242 1243 1244 0
-1241 -1242 0
-1241 -1243 0
-1241 -1244 0
-1242 -1243 0
-1242 -1244 0
-1243 -1244 0
1245 1246 1247 1248 0
-1245 -1246 0
-1245 -1247 0
-1245 -1248 0
-1246 -1247 0
-1246 -1248 0
-1247 -1248 0
1249 1250 1251 1252 0
-1249 -1250 0
-1249 -1251 0
-1249 -1252 0
-1250 -1251 0
-1250 -1252 0
-1251 -1252 0
1253 1254 1255 1256 0
-1253 -1254 0
-1253 -1255 0
-1253 -1256 0
-1254 -1255 0
-1254 -1256 0
-1255 -1256 0
1257 1258 1259 1260 0
-1257 -1258 0
-1257 -1259 0
-1257 -1260 0
-1258 -1259 0
-1258 -1260 0
-1259 -1260 0
1261 1262 1263 1264 0
-1261 -1262 0
-1261 -1263 0
-1261 -1264 0
-1262 -1263 0
-1262 -1264 0
-1263 -1264 0
1265 1266 1267 1268 0
-1265 -1266 0
-1265 -1267 0
-1265 -1268 0
-1266 -1267 0
-1266 -1268 0
-1267 -1268 0
1269 1270 1271 1272 0
-1269 -1270 0
-1269 -1271 0
-1269 -1272 0
-1270 -1271 0
-1270 -1272 0
-1271 -1272 0
1273 1274 1275 1276 0
-1273 -1274 0
-1273 -1275 0
-1273 -1276 0
-1274 -1275 0
-1274 -1276 0
-1275 -1276 0
1277 1278 1279 1280 0
-1277 -1278 0
-1277 -1279 0
-1277 -1280 0
-1278 -1279 0
-1278 -1280 0
-1279 -1280 0
1281 1282 1283 1284 0
-1281 -1282 0
-1281 -1283 0
-1281 -1284 0
-1282 -1283 0
-1282 -1284 0
-1283 -1284 0
1285 1286 1287 1288 0
-1285 -1286 0
-1285 -1287 0
-1285 -1288 0
-1286 -1287 0
-1286 -1288 0
-1287 -1288 0
1289 1290 1291 1292 0
-1289 -1290 0
-1289 -1291 0
-1289 -1292 0
-1290 -1291 0
-1290 -1292 0
-1291 -1292 0
1293 1294 1295 1296 0
-1293 -1294 0
-1293 -1295 0
-1293 -1296 0
-1294 -1295 0
-1294 -1296 0
-1295 -1296 0
1297 1298 1299 1300 0
-1297 -1298 0
-1297 -1299 0
-1297 -1300 0
-1298 -1299 0
-1298 -1300 0
-1299 -1300 0
1301 1302 1303 1304 0
-1301 -1302 0
-1301 -1303 0
-1301 -1304 0
-1302 -1303 0
-1302 -1304 0
-1303 -1304 0
1305 1306 1307 1308 0
-1305 -1306 0
-1305 -1307 0
-1305 -1308 0
-1306 -1307 0
-1306 -1308 0
-1307 -1308 0
1309 1310 1311 1312 0
-1309 -1310 0
-1309 -1311 0
-1309 -1312 0
-1310 -1311 0
-1310 -1312 0
-1311 -1312 0
1313 1314 1315 1316 0
-1313 -1314 0
-1313 -1315 0
-1313 -1316 0
-1314 -1315 0
-1314 -1316 0
-1315 -1316 0
1317 1318 1319 1320 0
-1317 -1318 0
-1317 -1319 0
-1317 -1320 0
-1318 -1319 0
-1318 -1320 0
-1319 -1320 0
1321 1322 1323 1324 0
-1321 -1322 0
-1321 -1323 0
-1321 -1324 0
-1322 -1323 0
-1322 -1324 0
-1323 -1324 0
1325 1326 1327 1328 0
-1325 -1326 0
-1325 -1327 0
-1325 -1328 0
-1326 -1327 0
-1326 -1328 0
-1327 -1328 0
1329 1330 1331 1332 0
-1329 -1330 0
-1329 -1331 0
-1329 -1332 0
-1330 -1331 0
-1330 -1332 0
-1331 -1332 0
1333 1334 1335 1336 0
-1333 -1334 0
-1333 -1335 0
-1333 -1336 0
-1334 -1335 0
-1334 -1336 0
-1335 -1336 0
1337 1338 1339 1340 0
-1337 -1338 0
-1337 -1339 0
-1337 -1340 0
-1338 -1339 0
-1338 -1340 0
-1339 -1340 0
1341 1342 1343 1344 0
-1341 -1342 0
-1341 -1343 0
-1341 -1344 0
-1342 -1343 0
-1342 -1344 0
-1343 -1344 0
1345 1346 1347 1348 0
-1345 -1346 0
-1345 -1347 0
-1345 -1348 0
-1346 -1347 0
-1346 -1348 0
-1347 -1348 0
1349 1350 1351 1352 0
-1349 -1350 0
-1349 -1351 0
-1349 -1352 0
-1350 -1351 0
-1350 -1352 0
-1351 -1352 0
1353 1354 1355 1356 0
-1353 -1354 0
-1353 -1355 0
-1353 -1356 0
-1354 -1355 0
-1354 -1356 0
-1355 -1356 0
1357 1358 1359 1360 0
-1357 -1358 0
-1357 -1359 0
-1357 -1360 0
-1358 -1359 0
-1358 -1360 0
-1359 -1360 0
1361 1362 1363 1364 0
-1361 -1362 0
-1361 -1363 0
-1361 -1364 0
-1362 -1363 0
-1362 -1364 0
-1363 -1364 0
1365 1366 1367 1368 0
-1365 -1366 0
-1365 -1367 0
-1365 -1368 0
-1366 -1367 0
-1366 -1368 0
-1367 -1368 0
1369 1370 1371 1372 0
-1369 -1370 0
-1369 -1371 0
-1369 -1372 0
-1370 -1371 0
-1370 -1372 0
-1371 -1372 0
1373 1374 1375 1376 0
-1373 -1374 0
-1373 -1375 0
-1373 -1376 0
-1374 -1375 0
-1374 -1376 0
-1375 -1376 0
1377 1378 1379 1380 0
-1377 -1378 0
-1377 -1379 0
-1377 -1380 0
-1378 -1379 0
-1378 -1380 0
-1379 -1380 0
1381 1382 1383 1384 0
-1381 -1382 0
-1381 -1383 0
-1381 -1384 0
-1382 -1383 0
-1382 -1384 0
-1383 -1384 0
1385 1386 1387 1388 0
-1385 -1386 0
-1385 -1387 0
-1385 -1388 0
-1386 -1387 0
-1386 -1388 0
-1387 -1388 0
1389 1390 1391 1392 0
-1389 -1390 0
-1389 -1391 0
-1389 -1392 0
-1390 -1391 0
-1390 -1392 0
-1391 -1392 0
1393 1394 1395 1396 0
-1393 -1394 0
-1393 -1395 0
-1393 -1396 0
-1394 -1395 0
-1394 -1396 0
-1395 -1396 0
1397 1398 1399 1400 0
-1397 -1398 0
-1397 -1399 0
-1397 -1400 0
-1398 -1399 0
-1398 -1400 0
-1399 -1400 0
1401 1402 1403 1404 0
-1401 -1402 0
-1401 -1403 0
-1401 -1404 0
-1402 -1403 0
-1402 -1404 0
-1403 -1404 0
1405 1406 1407 1408 0
-1405 -1406 0
-1405 -1407 0
-1405 -1408 0
-1406 -1407 0
-1406 -1408 0
-1407 -1408 0
1409 1410 1411 1412 0
-1409 -1410 0
-1409 -1411 0
-1409 -1412 0
-1410 -1411 0
-1410 -1412 0
-1411 -1412 0
1413 1414 1415 1416 0
-1413 -1414 0
-1413 -1415 0
-1413 -1416 0
-1414 -1415 0
-1414 -1416 0
-1415 -1416 0
1417 1418 1419 1420 0
-1417 -1418 0
-1417 -1419 0
-1417 -1420 0
-1418 -1419 0
-1418 -1420 0
-1419 -1420 0
1421 1422 1423 1424 0
-1421 -1422 0
-1421 -1423 0
-1421 -1424 0
-1422 -1423 0
-1422 -1424 0
-1423 -1424 0
1425 1426 1427 1428 0
-1425 -1426 0
-1425 -1427 0
-1425 -1428 0
-1426 -1427 0
-1426 -1428 0
-1427 -1428 0
1429 1430 1431 1432 0
-1429 -1430 0
-1429 -1431 0
-1429 -1432 0
-1430 -1431 0
-1430 -1432 0
-1431 -1432 0
1433 1434 1435 1436 0
-1433 -1434 0
-1433 -1435 0
-1433 -1436 0
-1434 -1435 0
-1434 -1436 0
-1435 -1436 0
1437 1438 1439 1440 0
-1437 -1438 0
-1437 -1439 0
-1437 -1440 0
-1438 -1439 0
-1438 -1440 0
-1439 -1440 0
1441 1442 1443 1444 0
-1441 -1442 0
-1441 -1443 0
-1441 -1444 0
-1442 -1443 0
-1442 -1444 0
-1443 -1444 0
1445 1446 1447 1448 0
-1445 -1446 0
-1445 -1447 0
-1445 -1448 0
-1446 -1447 0
-1446 -1448 0
-1447 -1448 0
1449 1450 1451 1452 0
-1449 -1450 0
-1449 -1451 0
-1449 -1452 0
-1450 -1451 0
-1450 -1452 0
-1451 -1452 0
1453 1454 1455 1456 0
-1453 -1454 0
-1453 -1455 0
-1453 -1456 0
-1454 -1455 0
-1454 -1456 0
-1455 -1456 0
1457 1458 1459 1460 0
-1457 -1458 0
-1457 -1459 0
-1457 -1460 0
-1458 -1459 0
-1458 -1460 0
-1459 -1460 0
1461 1462 1463 1464 0
-1461 -1462 0
-1461 -1463 0
-1461 -1464 0
-1462 -1463 0
-1462 -1464 0
-1463 -1464 0
1465 1466 1467 1468 0
-1465 -1466 0
-1465 -1467 0
-1465 -1468 0
-1466 -1467 0
-1466 -1468 0
-1467 -1468 0
1469 1470 1471 1472 0
-1469 -1470 0
-1469 -1471 0
-1469 -1472 0
-1470 -1471 0
-1470 -1472 0
-1471 -1472 0
1473 1474 1475 1476 0
-1473 -1474 0
-1473 -1475 0
-1473 -1476 0
-1474 -1475 0
-1474 -1476 0
-1475 -1476 0
1477 1478 1479 1480 0
-1477 -1478 0
-1477 -1479 0
-1477 -1480 0
-1478 -1479 0
-1478 -1480 0
-1479 -1480 0
1481 1482 1483 1484 0
-1481 -1482 0
-1481 -1483 0
-1481 -1484 0
-1482 -1483 0
-1482 -1484 0
-1483 -1484 0
1485 1486 1487 1488 0
-1485 -1486 0
-1485 -1487 0
-1485 -1488 0
-1486 -1487 0
-1486 -1488 0
-1487 -1488 0
1489 1490 1491 1492 0
-1489 -1490 0
-1489 -1491 0
-1489 -1492 0
-1490 -1491 0
-1490 -1492 0
-1491 -1492 0
1493 1494 1495 1496 0
-1493 -1494 0
-1493 -1495 0
-1493 -1496 0
-1494 -1495 0
-1494 -1496 0
-1495 -1496 0
1497 1498 1499 1500 0
-1497 -1498 0
-1497 -1499 0
-1497 -1500 0
-1498 -1499 0
-1498 -1500 0
-1499 -1500 0
1501 1502 1503 1504 0
-1501 -1502 0
-1501 -1503 0
-1501 -1504 0
-1502 -1503 0
-1502 -1504 0
-1503 -1504 0
1505 1506 1507 1508 0
-1505 -1506 0
-1505 -1507 0
-1505 -1508 0
-1506 -1507 0
-1506 -1508 0
-1507 -1508 0
1509 1510 1511 1512 0
-1509 -1510 0
-1509 -1511 0
-1509 -1512 0
-1510 -1511 0
-1510 -1512 0
-1511 -1512 0
1513 1514 1515 1516 0
-1513 -1514 0
-1513 -1515 0
-1513 -1516 0
-1514 -1515 0
-1514 -1516 0
-1515 -1516 0
1517 1518 1519 1520 0
-1517 -1518 0
-1517 -1519 0
-1517 -1520 0
-1518 -1519 0
-1518 -1520 0
-1519 -1520 0
1521 1522 1523 1524 0
-1521 -1522 0
-1521 -1523 0
-1521 -1524 0
-1522 -1523 0
-1522 -1524 0
-1523 -1524 0
1525 1526 1527 1528 0
-1525 -1526 0
-1525 -1527 0
-1525 -1528 0
-1526 -1527 0
-1526 -1528 0
-1527 -1528 0
1529 1530 1531 1532 0
-1529 -1530 0
-1529 -1531 0
-1529 -1532 0
-1530 -1531 0
-1530 -1532 0
-1531 -1532 0
1533 1534 1535 1536 0
-1533 -1534 0
-1533 -1535 0
-1533 -1536 0
-1534 -1535 0
-1534 -1536 0
-1535 -1536 0
1537 1538 1539 1540 0
-1537 -1538 0
-1537 -1539 0
-1537 -1540 0
-1538 -1539 0
-1538 -1540 0
-1539 -1540 0
1541 1542 1543 1544 0
-1541 -1542 0
-1541 -1543 0
-1541 -1544 0
-1542 -1543 0
-1542 -1544 0
-1543 -1544 0
1545 1546 1547 1548 0
-1545 -1546 0
-1545 -1547 0
-1545 -1548 0
-1546 -1547 0
-1546 -1548 0
-1547 -1548 0
1549 1550 1551 1552 0
-1549 -1550 0
-1549 -1551 0
-1549 -1552 0
-1550 -1551 0
-1550 -1552 0
-1551 -1552 0
1553 1554 1555 1556 0
-1553 -1554 0
-1553 -1555 0
-1553 -1556 0
-1554 -1555 0
-1554 -1556 0
-1555 -1556 0
1557 1558 1559 1560 0
-1557 -1558 0
-1557 -1559 0
-1557 -1560 0
-1558 -1559 0
-1558 -1560 0
-1559 -1560 0
1561 1562 1563 1564 0
-1561 -1562 0
-1561 -1563 0
-1561 -1564 0
-1562 -1563 0
-1562 -1564 0
-1563 -1564 0
1565 1566 1567 1568 0
-1565 -1566 0
-1565 -1567 0
-1565 -1568 0
-1566 -1567 0
-1566 -1568 0
-1567 -1568 0
1569 1570 1571 1572 0
-1569 -1570 0
-1569 -1571 0
-1569 -1572 0
-1570 -1571 0
-1570 -1572 0
-1571 -1572 0
1573 1574 1575 1576 0
-1573 -1574 0
-1573 -1575 0
-1573 -1576 0
-1574 -1575 0
-1574 -1576 0
-1575 -1576 0
1577 1578 1579 1580 0
-1577 -1578 0
-1577 -1579 0
-1577 -1580 0
-1578 -1579 0
-1578 -1580 0
-1579 -1580 0
1581 1582 1583 1584 0
-1581 -1582 0
-1581 -1583 0
-1581 -1584 0
-1582 -1583 0
-1582 -1584 0
-1583 -1584 0
1585 1586 1587 1588 0
-1585 -1586 0
-1585 -1587 0
-1585 -1588 0
-1586 -1587 0
-1586 -1588 0
-1587 -1588 0
1589 1590 1591 1592 0
-1589 -1590 0
-1589 -1591 0
-1589 -1592 0
-1590 -1591 0
-1590 -1592 0
-1591 -1592 0
1593 1594 1595 1596 0
-1593 -1594 0
-1593 -1595 0
-1593 -1596 0
-1594 -1595 0
-1594 -1596 0
-1595 -1596 0
1597 1598 1599 1600 0
-1597 -1598 0
-1597 -1599 0
-1597 -1600 0
-1598 -1599 0
-1598 -1600 0
-1599 -1600 0
1601 1602 1603 1604 0
-1601 -1602 0
-1601 -1603 0
-1601 -1604 0
-1602 -1603 0
-1602 -1604 0
-1603 -1604 0
1605 1606 1607 1608 0
-1605 -1606 0
-1605 -1607 0
-1605 -1608 0
-1606 -1607 0
-1606 -1608 0
-1607 -1608 0
1609 1610 1611 1612 0
-1609 -1610 0
-1609 -1611 0
-1609 -1612 0
-1610 -1611 0
-1610 -1612 0
-1611 -1612 0
1613 1614 1615 1616 0
-1613 -1614 0
-1613 -1615 0
-1613 -1616 0
-1614 -1615 0
-1614 -1616 0
-1615 -1616 0
1617 1618 1619 1620 0
-1617 -1618 0
-1617 -1619 0
-1617 -1620 0
-1618 -1619 0
-1618 -1620 0
-1619 -1620 0
1621 1622 1623 1624 0
-1621 -1622 0
-1621 -1623 0
-1621 -1624 0
-1622 -1623 0
-1622 -1624 0
-1623 -1624 0
1625 1626 1627 1628 0
-1625 -1626 0
-1625 -1627 0
-1625 -1628 0
-1626 -1627 0
-1626 -1628 0
-1627 -1628 0
1629 1630 1631 1632 0
-1629 -1630 0
-1629 -1631 0
-1629 -1632 0
-1630 -1631 0
-1630 -1632 0
-1631 -1632 0
1633 1634 1635 1636 0
-1633 -1634 0
-1633 -1635 0
-1633 -1636 0
-1634 -1635 0
-1634 -1636 0
-1635 -1636 0
1637 1638 1639 1640 0
-1637 -1638 0
-1637 -1639 0
-1637 -1640 0
-1638 -1639 0
-1638 -1640 0
-1639 -1640 0
1641 1642 1643 1644 0
-1641 -1642 0
-1641 -1643 0
-1641 -1644 0
-1642 -1643 0
-1642 -1644 0
-1643 -1644 0
1645 1646 1647 1648 0
-1645 -1646 0
-1645 -1647 0
-1645 -1648 0
-1646 -1647 0
-1646 -1648 0
-1647 -1648 0
1649 1650 1651 1652 0
-1649 -1650 0
-1649 -1651 0
-1649 -1652 0
-1650 -1651 0
-1650 -1652 0
-1651 -1652 0
1653 1654 1655 1656 0
-1653 -1654 0
-1653 -1655 0
-1653 -1656 0
-1654 -1655 0
-1654 -1656 0
-1655 -1656 0
1657 1658 1659 1660 0
-1657 -1658 0
-1657 -1659 0
-1657 -1660 0
-1658 -1659 0
-1658 -1660 0
-1659 -1660 0
1661 1662 1663 1664 0
-1661 -1662 0
-1661 -1663 0
-1661 -1664 0
-1662 -1663 0
-1662 -1664 0
-1663 -1664 0
1665 1666 1667 1668 0
-1665 -1666 0
-1665 -1667 0
-1665 -1668 0
-1666 -1667 0
-1666 -1668 0
-1667 -1668 0
1669 1670 1671 1672 0
-1669 -1670 0
-1669 -1671 0
-1669 -1672 0
-1670 -1671 0
-1670 -1672 0
-1671 -1672 0
1673 1674 1675 1676 0
-1673 -1674 0
-1673 -1675 0
-1673 -1676 0
-1674 -1675 0
-1674 -1676 0
-1675 -1676 0
1677 1678 1679 1680 0
-1677 -1678 0
-1677 -1679 0
-1677 -1680 0
-1678 -1679 0
-1678 -1680 0
-1679 -1680 0
1681 1682 1683 1684 0
-1681 -1682 0
-1681 -1683 0
-1681 -1684 0
-1682 -1683 0
-1682 -1684 0
-1683 -1684 0
1685 1686 1687 1688 0
-1685 -1686 0
-1685 -1687 0
-1685 -1688 0
-1686 -1687 0
-1686 -1688 0
-1687 -1688 0
1689 1690 1691 1692 0
-1689 -1690 0
-1689 -1691 0
-1689 -1692 0
-1690 -1691 0
-1690 -1692 0
-1691 -1692 0
1693 1694 1695 1696 0
-1693 -1694 0
-1693 -1695 0
-1693 -1696 0
-1694 -1695 0
-1694 -1696 0
-1695 -1696 0
1697 1698 1699 1700 0
-1697 -1698 0
-1697 -1699 0
-1697 -1700 0
-1698 -1699 0
-1698 -1700 0
-1699 -1700 0
1701 1702 1703 1704 0
-1701 -1702 0
-1701 -1703 0
-1701 -1704 0
-1702 -1703 0
-1702 -1704 0
-1703 -1704 0
1705 1706 1707 1708 0
-1705 -1706 0
-1705 -1707 0
-1705 -1708 0
-1706 -1707 0
-1706 -1708 0
-1707 -1708 0
1709 1710 1711 1712 0
-1709 -1710 0
-1709 -1711 0
-1709 -1712 0
-1710 -1711 0
-1710 -1712 0
-1711 -1712 0
1713 1714 1715 1716 0
-1713 -1714 0
-1713 -1715 0
-1713 -1716 0
-1714 -1715 0
-1714 -1716 0
-1715 -1716 0
1717 1718 1719 1720 0
-1717 -1718 0
-1717 -1719 0
-1717 -1720 0
-1718 -1719 0
-1718 -1720 0
-1719 -1720 0
1721 1722 1723 1724 0
-1721 -1722 0
-1721 -1723 0
-1721 -1724 0
-1722 -1723 0
-1722 -1724 0
-1723 -1724 0
1725 1726 1727 1728 0
-1725 -1726 0
-1725 -1727 0
-1725 -1728 0
-1726 -1727 0
-1726 -1728 0
-1727 -1728 0
1729 1730 1731 1732 0
-1729 -1730 0
-1729 -1731 0
-1729 -1732 0
-1730 -1731 0
-1730 -1732 0
-1731 -1732 0
1733 1734 1735 1736 0
-1733 -1734 0
-1733 -1735 0
-1733 -1736 0
-1734 -1735 0
-1734 -1736 0
-1735 -1736 0
1737 1738 1739 1740 0
-1737 -1738 0
-1737 -1739 0
-1737 -1740 0
-1738 -1739 0
-1738 -1740 0
-1739 -1740 0
1741 1742 1743 1744 0
-1741 -1742 0
-1741 -1743 0
-1741 -1744 0
-1742 -1743 0
-1742 -1744 0
-1743 -1744 0
1745 1746 1747 1748 0
-1745 -1746 0
-1745 -1747 0
-1745 -1748 0
-1746 -1747 0
-1746 -1748 0
-1747 -1748 0
1749 1750 1751 1752 0
-1749 -1750 0
-1749 -1751 0
-1749 -1752 0
-1750 -1751 0
-1750 -1752 0
-1751 -1752 0
1753 1754 1755 1756 0
-1753 -1754 0
-1753 -1755 0
-1753 -1756 0
-1754 -1755 0
-1754 -1756 0
-1755 -1756 0
1757 1758 1759 1760 0
-1757 -1758 0
-1757 -1759 0
-1757 -1760 0
-1758 -1759 0
-1758 -1760 0
-1759 -1760 0
1761 1762 1763 1764 0
-1761 -1762 0
-1761 -1763 0
-1761 -1764 0
-1762 -1763 0
-1762 -1764 0
-1763 -1764 0
1765 1766 1767 1768 0
-1765 -1766 0
-1765 -1767 0
-1765 -1768 0
-1766 -1767 0
-1766 -1768 0
-1767 -1768 0
1769 1770 1771 1772 0
-1769 -1770 0
-1769 -1771 0
-1769 -1772 0
-1770 -1771 0
-1770 -1772 0
-1771 -1772 0
1773 1774 1775 1776 0
-1773 -1774 0
-1773 -1775 0
-1773 -1776 0
-1774 -1775 0
-1774 -1776 0
-1775 -1776 0
1777 1778 1779 1780 0
-1777 -1778 0
-1777 -1779 0
-1777 -1780 0
-1778 -1779 0
-1778 -1780 0
-1779 -1780 0
1781 1782 1783 1784 0
-1781 -1782 0
-1781 -1783 0
-1781 -1784 0
-1782 -1783 0
-1782 -1784 0
-1783 -1784 0
1785 1786 1787 1788 0
-1785 -1786 0
-1785 -1787 0
-1785 -1788 0
-1786 -1787 0
-1786 -1788 0
-1787 -1788 0
1789 1790 1791 1792 0
-1789 -1790 0
-1789 -1791 0
-1789 -1792 0
-1790 -1791 0
-1790 -1792 0
-1791 -1792 0
1793 1794 1795 1796 0
-1793 -1794 0
-1793 -1795 0
-1793 -1796 0
-1794 -1795 0
-1794 -1796 0
-1795 -1796 0
1797 1798 1799 1800 0
-1797 -1798 0
-1797 -1799 0
-1797 -1800 0
-1798 -1799 0
-1798 -1800 0
-1799 -1800 0
1801 1802 1803 1804 0
-1801 -1802 0
-1801 -1803 0
-1801 -1804 0
-1802 -1803 0
-1802 -1804 0
-1803 -1804 0
1805 1806 1807 1808 0
-1805 -1806 0
-1805 -1807 0
-1805 -1808 0
-1806 -1807 0
-1806 -1808 0
-1807 -1808 0
1809 1810 1811 1812 0
-1809 -1810 0
-1809 -1811 0
-1809 -1812 0
-1810 -1811 0
-1810 -1812 0
-1811 -1812 0
1813 1814 1815 1816 0
-1813 -1814 0
-1813 -1815 0
-1813 -1816 0
-1814 -1815 0
-1814 -1816 0
-1815 -1816 0
1817 1818 1819 1820 0
-1817 -1818 0
-1817 -1819 0
-1817 -1820 0
-1818 -1819 0
-1818 -1820 0
-1819 -1820 0
1821 1822 1823 1824 0
-1821 -1822 0
-1821 -1823 0
-1821 -1824 0
-1822 -1823 0
-1822 -1824 0
-1823 -1824 0
1825 1826 1827 1828 0
-1825 -1826 0
-1825 -1827 0
-1825 -1828 0
-1826 -1827 0
-1826 -1828 0
-1827 -1828 0
1829 1830 1831 1832 0
-1829 -1830 0
-1829 -1831 0
-1829 -1832 0
-1830 -1831 0
-1830 -1832 0
-1831 -1832 0
1833 1834 1835 1836 0
-1833 -1834 0
-1833 -1835 0
-1833 -1836 0
-1834 -1835 0
-1834 -1836 0
-1835 -1836 0
1837 1838 1839 1840 0
-1837 -1838 0
-1837 -1839 0
-1837 -1840 0
-1838 -1839 0
-1838 -1840 0
-1839 -1840 0
1841 1842 1843 1844 0
-1841 -1842 0
-1841 -1843 0
-1841 -1844 0
-1842 -1843 0
-1842 -1844 0
-1843 -1844 0
1845 1846 1847 1848 0
-1845 -1846 0
-1845 -1847 0
-1845 -1848 0
-1846 -1847 0
-1846 -1848 0
-1847 -1848 0
1849 1850 1851 1852 0
-1849 -1850 0
-1849 -1851 0
-1849 -1852 0
-1850 -1851 0
-1850 -1852 0
-1851 -1852 0
1853 1854 1855 1856 0
-1853 -1854 0
-1853 -1855 0
-1853 -1856 0
-1854 -1855 0
-1854 -1856 0
-1855 -1856 0
1857 1858 1859 1860 0
-1857 -1858 0
-1857 -1859 0
-1857 -1860 0
-1858 -1859 0
-1858 -1860 0
-1859 -1860 0
1861 1862 1863 1864 0
-1861 -1862 0
-1861 -1863 0
-1861 -1864 0
-1862 -1863 0
-1862 -1864 0
-1863 -1864 0
1865 1866 1867 1868 0
-1865 -1866 0
-1865 -1867 0
-1865 -1868 0
-1866 -1867 0
-1866 -1868 0
-1867 -1868 0
1869 1870 1871 1872 0
-1869 -1870 0
-1869 -1871 0
-1869 -1872 0
-1870 -1871 0
-1870 -1872 0
-1871 -1872 0
1873 1874 1875 1876 0
-1873 -1874 0
-1873 -1875 0
-1873 -1876 0
-1874 -1875 0
-1874 -1876 0
-1875 -1876 0
1877 1878 1879 1880 0
-1877 -1878 0
-1877 -1879 0
-1877 -1880 0
-1878 -1879 0
-1878 -1880 0
-1879 -1880 0
1881 1882 1883 1884 0
-1881 -1882 0
-1881 -1883 0
-1881 -1884 0
-1882 -1883 0
-1882 -1884 0
-1883 -1884 0
1885 1886 1887 1888 0
-1885 -1886 0
-1885 -1887 0
-1885 -1888 0
-1886 -1887 0
-1886 -1888 0
-1887 -1888 0
1889 1890 1891 1892 0
-1889 -1890 0
-1889 -1891 0
-1889 -1892 0
-1890 -1891 0
-1890 -1892 0
-1891 -1892 0
1893 1894 1895 1896 0
-1893 -1894 0
-1893 -1895 0
-1893 -1896 0
-1894 -1895 0
-1894 -1896 0
-1895 -1896 0
1897 1898 1899 1900 0
-1897 -1898 0
-1897 -1899 0
-1897 -1900 0
-1898 -1899 0
-1898 -1900 0
-1899 -1900 0
1901 1902 1903 1904 0
-1901 -1902 0
-1901 -1903 0
-1901 -1904 0
-1902 -1903 0
-1902 -1904 0
-1903 -1904 0
1905 1906 1907 1908 0
-1905 -1906 0
-1905 -1907 0
-1905 -1908 0
-1906 -1907 0
-1906 -1908 0
-1907 -1908 0
1909 1910 1911 1912 0
-1909 -1910 0
-1909 -1911 0
-1909 -1912 0
-1910 -1911 0
-1910 -1912 0
-1911 -1912 0
1913 1914 1915 1916 0
-1913 -1914 0
-1913 -1915 0
-1913 -1916 0
-1914 -1915 0
-1914 -1916 0
-1915 -1916 0
1917 1918 1919 1920 0
-1917 -1918 0
-1917 -1919 0
-1917 -1920 0
-1918 -1919 0
-1918 -1920 0
-1919 -1920 0
1921 1922 1923 1924 0
-1921 -1922 0
-1921 -1923 0
-1921 -1924 0
-1922 -1923 0
-1922 -1924 0
-1923 -1924 0
1925 1926 1927 1928 0
-1925 -1926 0
-1925 -1927 0
-1925 -1928 0
-1926 -1927 0
-1926 -1928 0
-1927 -1928 0
1929 1930 1931 1932 0
-1929 -1930 0
-1929 -1931 0
-1929 -1932 0
-1930 -1931 0
-1930 -1932 0
-1931 -1932 0
1933 1934 1935 1936 0
-1933 -1934 0
-1933 -1935 0
-1933 -1936 0
-1934 -1935 0
-1934 -1936 0
-1935 -1936 0
1937 1938 1939 1940 0
-1937 -1938 0
-1937 -1939 0
-1937 -1940 0
-1938 -1939 0
-1938 -1940 0
-1939 -1940 0
1941 1942 1943 1944 0
-1941 -1942 0
-1941 -1943 0
-1941 -1944 0
-1942 -1943 0
-1942 -1944 0
-1943 -1944 0
1945 1946 1947 1948 0
-1945 -1946 0
-1945 -1947 0
-1945 -1948 0
-1946 -1947 0
-1946 -1948 0
-1947 -1948 0
1949 1950 1951 1952 0
-1949 -1950 0
-1949 -1951 0
-1949 -1952 0
-1950 -1951 0
-1950 -1952 0
-1951 -1952 0
1953 1954 1955 1956 0
-1953 -1954 0
-1953 -1955 0
-1953 -1956 0
-1954 -1955 0
-1954 -1956 0
-1955 -1956 0
1957 1958 1959 1960 0
-1957 -1958 0
-1957 -1959 0
-1957 -1960 0
-1958 -1959 0
-1958 -1960 0
-1959 -1960 0
1961 1962 1963 1964 0
-1961 -1962 0
-1961 -1963 0
-1961 -1964 0
-1962 -1963 0
-1962 -1964 0
-1963 -1964 0
1965 1966 1967 1968 0
-1965 -1966 0
-1965 -1967 0
-1965 -1968 0
-1966 -1967 0
-1966 -1968 0
-1967 -1968 0
1969 1970 1971 1972 0
-1969 -1970 0
-1969 -1971 0
-1969 -1972 0
-1970 -1971 0
-1970 -1972 0
-1971 -1972 0
1973 1974 1975 1976 0
-1973 -1974 0
-1973 -1975 0
-1973 -1976 0
-1974 -1975 0
-1974 -1976 0
-1975 -1976 0
1977 1978 1979 1980 0
-1977 -1978 0
-1977 -1979 0
-1977 -1980 0
-1978 -1979 0
-1978 -1980 0
-1979 -1980 0
1981 1982 1983 1984 0
-1981 -1982 0
-1981 -1983 0
-1981 -1984 0
-1982 -1983 0
-1982 -1984 0
-1983 -1984 0
1985 1986 1987 1988 0
-1985 -1986 0
-1985 -1987 0
-1985 -1988 0
-1986 -1987 0
-1986 -1988 0
-1987 -1988 0
1989 1990 1991 1992 0
-1989 -1990 0
-1989 -1991 0
-1989 -1992 0
-1990 -1991 0
-1990 -1992 0
-1991 -1992 0
1993 1994 1995 1996 0
-1993 -1994 0
-1993 -1995 0
-1993 -1996 0
-1994 -1995 0
-1994 -1996 0
-1995 -1996 0
1997 1998 1999 2000 0
-1997 -1998 0
-1997 -1999 0
-1997 -2000 0
-1998 -1999 0
-1998 -2000 0
-1999 -2000 0
2001 2002 2003 2004 0
-2001 -2002 0
-2001 -2003 0
-2001 -2004 0
-2002 -2003 0
-2002 -2004 0
-2003 -2004 0
2005 2006 2007 2008 0
-2005 -2006 0
-2005 -2007 0
-2005 -2008 0
-2006 -2007 0
-2006 -2008 0
-2007 -2008 0
2009 2010 2011 2012 0
-2009 -2010 0
-2009 -2011 0
-2009 -2012 0
-2010 -2011 0
-2010 -2012 0
-2011 -2012 0
2013 2014 2015 2016 0
-2013 -2014 0
-2013 -2015 0
-2013 -2016 0
-2014 -2015 0
-2014 -2016 0
-2015 -2016 0
2017 2018 2019 2020 0
-2017 -2018 0
-2017 -2019 0
-2017 -2020 0
-2018 -2019 0
-2018 -2020 0
-2019 -2020 0
2021 2022 2023 2024 0
-2021 -2022 0
-2021 -2023 0
-2021 -2024 0
-2022 -2023 0
-2022 -2024 0
-2023 -2024 0
2025 2026 2027 2028 0
-2025 -2026 0
-2025 -2027 0
-2025 -2028 0
-2026 -2027 0
-2026 -2028 0
-2027 -2028 0
2029 2030 2031 2032 0
-2029 -2030 0
-2029 -2031 0
-2029 -2032 0
-2030 -2031 0
-2030 -2032 0
-2031 -2032 0
2033 2034 2035 2036 0
-2033 -2034 0
-2033 -2035 0
-2033 -2036 0
-2034 -2035 0
-2034 -2036 0
-2035 -2036 0
2037 2038 2039 2040 0
-2037 -2038 0
-2037 -2039 0
-2037 -2040 0
-2038 -2039 0
-2038 -2040 0
-2039 -2040 0
2041 2042 2043 2044 0
-2041 -2042 0
-2041 -2043 0
-2041 -2044 0
-2042 -2043 0
-2042 -2044 0
-2043 -2044 0
2045 2046 2047 2048 0
-2045 -2046 0
-2045 -2047 0
-2045 -2048 0
-2046 -2047 0
-2046 -2048 0
-2047 -2048 0
2049 2050 2051 2052 0
-2049 -2050 0
-2049 -2051 0
-2049 -2052 0
-2050 -2051 0
-2050 -2052 0
-2051 -2052 0
2053 2054 2055 2056 0
-2053 -2054 0
-2053 -2055 0
-2053 -2056 0
-2054 -2055 0
-2054 -2056 0
-2055 -2056 0
2057 2058 2059 2060 0
-2057 -2058 0
-2057 -2059 0
-2057 -2060 0
-2058 -2059 0
-2058 -2060 0
-2059 -2060 0
2061 2062 2063 2064 0
-2061 -2062 0
-2061 -2063 0
-2061 -2064 0
-2062 -2063 0
-2062 -2064 0
-2063 -2064 0
2065 2066 2067 2068 0
-2065 -2066 0
-2065 -2067 0
-2065 -2068 0
-2066 -2067 0
-2066 -2068 0
-2067 -2068 0
2069 2070 2071 2072 0
-2069 -2070 0
-2069 -2071 0
-2069 -2072 0
-2070 -2071 0
-2070 -2072 0
-2071 -2072 0
2073 2074 2075 2076 0
-2073 -2074 0
-2073 -2075 0
-2073 -2076 0
-2074 -2075 0
-2074 -2076 0
-2075 -2076 0
2077 2078 2079 2080 0
-2077 -2078 0
-2077 -2079 0
-2077 -2080 0
-2078 -2079 0
-2078 -2080 0
-2079 -2080 0
2081 2082 2083 2084 0
-2081 -2082 0
-2081 -2083 0
-2081 -2084 0
-2082 -2083 0
-2082 -2084 0
-2083 -2084 0
2085 2086 2087 2088 0
-2085 -2086 0
-2085 -2087 0
-2085 -2088 0
-2086 -2087 0
-2086 -2088 0
-2087 -2088 0
2089 2090 2091 2092 0
-2089 -2090 0
-2089 -2091 0
-2089 -2092 0
-2090 -2091 0
-2090 -2092 0
-2091 -2092 0
2093 2094 2095 2096 0
-2093 -2094 0
-2093 -2095 0
-2093 -2096 0
-2094 -2095 0
-2094 -2096 0
-2095 -2096 0
2097 2098 2099 2100 0
-2097 -2098 0
-2097 -2099 0
-2097 -2100 0
-2098 -2099 0
-2098 -2100 0
-2099 -2100 0
2101 2102 2103 2104 0
-2101 -2102 0
-2101 -2103 0
-2101 -2104 0
-2102 -2103 0
-2102 -2104 0
-2103 -2104 0
2105 2106 2107 2108 0
-2105 -2106 0
-2105 -2107 0
-2105 -2108 0
-2106 -2107 0
-2106 -2108 0
-2107 -2108 0
2109 2110 2111 2112 0
-2109 -2110 0
-2109 -2111 0
-2109 -2112 0
-2110 -2111 0
-2110 -2112 0
-2111 -2112 0
2113 2114 2115 2116 0
-2113 -2114 0
-2113 -2115 0
-2113 -2116 0
-2114 -2115 0
-2114 -2116 0
-2115 -2116 0
2117 2118 2119 2120 0
-2117 -2118 0
-2117 -2119 0
-2117 -2120 0
-2118 -2119 0
-2118 -2120 0
-2119 -2120 0
2121 2122 2123 2124 0
-2121 -2122 0
-2121 -2123 0
-2121 -2124 0
-2122 -2123 0
-2122 -2124 0
-2123 -2124 0
2125 2126 2127 2128 0
-2125 -2126 0
-2125 -2127 0
-2125 -2128 0
-2126 -2127 0
-2126 -2128 0
-2127 -2128 0
2129 2130 2131 2132 0
-2129 -2130 0
-2129 -2131 0
-2129 -2132 0
-2130 -2131 0
-2130 -2132 0
-2131 -2132 0
2133 2134 2135 2136 0
-2133 -2134 0
-2133 -2135 0
-2133 -2136 0
-2134 -2135 0
-2134 -2136 0
-2135 -2136 0
2137 2138 2139 2140 0
-2137 -2138 0
-2137 -2139 0
-2137 -2140 0
-2138 -2139 0
-2138 -2140 0
-2139 -2140 0
2141 2142 2143 2144 0
-2141 -2142 0
-2141 -2143 0
-2141 -2144 0
-2142 -2143 0
-2142 -2144 0
-2143 -2144 0
2145 2146 2147 2148 0
-2145 -2146 0
-2145 -2147 0
-2145 -2148 0
-2146 -2147 0
-2146 -2148 0
-2147 -2148 0
2149 2150 2151 2152 0
-2149 -2150 0
-2149 -2151 0
-2149 -2152 0
-2150 -2151 0
-2150 -2152 0
-2151 -2152 0
2153 2154 2155 2156 0
-2153 -2154 0
-2153 -2155 0
-2153 -2156 0
-2154 -2155 0
-2154 -2156 0
-2155 -2156 0
2157 2158 2159 2160 0
-2157 -2158 0
-2157 -2159 0
-2157 -2160 0
-2158 -2159 0
-2158 -2160 0
-2159 -2160 0
2161 2162 2163 2164 0
-2161 -2162 0
-2161 -2163 0
-2161 -2164 0
-2162 -2163 0
-2162 -2164 0
-2163 -2164 0
2165 2166 2167 2168 0
-2165 -2166 0
-2165 -2167 0
-2165 -2168 0
-2166 -2167 0
-2166 -2168 0
-2167 -2168 0
2169 2170 2171 2172 0
-2169 -2170 0
-2169 -2171 0
-2169 -2172 0
-2170 -2171 0
-2170 -2172 0
-2171 -2172 0
2173 2174 2175 2176 0
-2173 -2174 0
-2173 -2175 0
-2173 -2176 0
-2174 -2175 0
-2174 -2176 0
-2175 -2176 0
2177 2178 2179 2180 0
-2177 -2178 0
-2177 -2179 0
-2177 -2180 0
-2178 -2179 0
-2178 -2180 0
-2179 -2180 0
2181 2182 2183 2184 0
-2181 -2182 0
-2181 -2183 0
-2181 -2184 0
-2182 -2183 0
-2182 -2184 0
-2183 -2184 0
2185 2186 2187 2188 0
-2185 -2186 0
-2185 -2187 0
-2185 -2188 0
-2186 -2187 0
-2186 -2188 0
-2187 -2188 0
2189 2190 2191 2192 0
-2189 -2190 0
-2189 -2191 0
-2189 -2192 0
-2190 -2191 0
-2190 -2192 0
-2191 -2192 0
2193 2194 2195 2196 0
-2193 -2194 0
-2193 -2195 0
-2193 -2196 0
-2194 -2195 0
-2194 -2196 0
-2195 -2196 0
2197 2198 2199 2200 0
-2197 -2198 0
-2197 -2199 0
-2197 -2200 0
-2198 -2199 0
-2198 -2200 0
-2199 -2200 0
2201 2202 2203 2204 0
-2201 -2202 0
-2201 -2203 0
-2201 -2204 0
-2202 -2203 0
-2202 -2204 0
-2203 -2204 0
2205 2206 2207 2208 0
-2205 -2206 0
-2205 -2207 0
-2205 -2208 0
-2206 -2207 0
-2206 -2208 0
-2207 -2208 0
2209 2210 2211 2212 0
-2209 -2210 0
-2209 -2211 0
-2209 -2212 0
-2210 -2211 0
-2210 -2212 0
-2211 -2212 0
2213 2214 2215 2216 0
-2213 -2214 0
-2213 -2215 0
-2213 -2216 0
-2214 -2215 0
-2214 -2216 0
-2215 -2216 0
2217 2218 2219 2220 0
-2217 -2218 0
-2217 -2219 0
-2217 -2220 0
-2218 -2219 0
-2218 -2220 0
-2219 -2220 0
2221 2222 2223 2224 0
-2221 -2222 0
-2221 -2223 0
-2221 -2224 0
-2222 -2223 0
-2222 -2224 0
-2223 -2224 0
2225 2226 2227 2228 0
-2225 -2226 0
-2225 -2227 0
-2225 -2228 0
-2226 -2227 0
-2226 -2228 0
-2227 -2228 0
2229 2230 2231 2232 0
-2229 -2230 0
-2229 -2231 0
-2229 -2232 0
-2230 -2231 0
-2230 -2232 0
-2231 -2232 0
2233 2234 2235 2236 0
-2233 -2234 0
-2233 -2235 0
-2233 -2236 0
-2234 -2235 0
-2234 -2236 0
-2235 -2236 0
2237 2238 2239 2240 0
-2237 -2238 0
-2237 -2239 0
-2237 -2240 0
-2238 -2239 0
-2238 -2240 0
-2239 -2240 0
2241 2242 2243 2244 0
-2241 -2242 0
-2241 -2243 0
-2241 -2244 0
-2242 -2243 0
-2242 -2244 0
-2243 -2244 0
2245 2246 2247 2248 0
-2245 -2246 0
-2245 -2247 0
-2245 -2248 0
-2246 -2247 0
-2246 -2248 0
-2247 -2248 0
2249 2250 2251 2252 0
-2249 -2250 0
-2249 -2251 0
-2249 -2252 0
-2250 -2251 0
-2250 -2252 0
-2251 -2252 0
2253 2254 2255 2256 0
-2253 -2254 0
-2253 -2255 0
-2253 -2256 0
-2254 -2255 0
-2254 -2256 0
-2255 -2256 0
2257 2258 2259 2260 0
-2257 -2258 0
-2257 -2259 0
-2257 -2260 0
-2258 -2259 0
-2258 -2260 0
-2259 -2260 0
2261 2262 2263 2264 0
-2261 -2262 0
-2261 -2263 0
-2261 -2264 0
-2262 -2263 0
-2262 -2264 0
-2263 -2264 0
2265 2266 2267 2268 0
-2265 -2266 0
-2265 -2267 0
-2265 -2268 0
-2266 -2267 0
-2266 -2268 0
-2267 -2268 0
2269 2270 2271 2272 0
-2269 -2270 0
-2269 -2271 0
-2269 -2272 0
-2270 -2271 0
-2270 -2272 0
-2271 -2272 0
2273 2274 2275 2276 0
-2273 -2274 0
-2273 -2275 0
-2273 -2276 0
-2274 -2275 0
-2274 -2276 0
-2275 -2276 0
2277 2278 2279 2280 0
-2277 -2278 0
-2277 -2279 0
-2277 -2280 0
-2278 -2279 0
-2278 -2280 0
-2279 -2280 0
2281 2282 2283 2284 0
-2281 -2282 0
-2281 -2283 0
-2281 -2284 0
-2282 -2283 0
-2282 -2284 0
-2283 -2284 0
2285 2286 2287 2288 0
-2285 -2286 0
-2285 -2287 0
-2285 -2288 0
-2286 -2287 0
-2286 -2288 0
-2287 -2288 0
2289 2290 2291 2292 0
-2289 -2290 0
-2289 -2291 0
-2289 -2292 0
-2290 -2291 0
-2290 -2292 0
-2291 -2292 0
2293 2294 2295 2296 0
-2293 -2294 0
-2293 -2295 0
-2293 -2296 0
-2294 -2295 0
-2294 -2296 0
-2295 -2296 0
2297 2298 2299 2300 0
-2297 -2298 0
-2297 -2299 0
-2297 -2300 0
-2298 -2299 0
-2298 -2300 0
-2299 -2300 0
2301 2302 2303 2304 0
-2301 -2302 0
-2301 -2303 0
-2301 -2304 0
-2302 -2303 0
-2302 -2304 0
-2303 -2304 0
2305 2306 2307 2308 0
-2305 -2306 0
-2305 -2307 0
-2305 -2308 0
-2306 -2307 0
-2306 -2308 0
-2307 -2308 0
2309 2310 2311 2312 0
-2309 -2310 0
-2309 -2311 0
-2309 -2312 0
-2310 -2311 0
-2310 -2312 0
-2311 -2312 0
2313 2314 2315 2316 0
-2313 -2314 0
-2313 -2315 0
-2313 -2316 0
-2314 -2315 0
-2314 -2316 0
-2315 -2316 0
2317 2318 2319 2320 0
-2317 -2318 0
-2317 -2319 0
-2317 -2320 0
-2318 -2319 0
-2318 -2320 0
-2319 -2320 0
2321 2322 2323 2324 0
-2321 -2322 0
-2321 -2323 0
-2321 -2324 0
-2322 -2323 0
-2322 -2324 0
-2323 -2324 0
2325 2326 2327 2328 0
-2325 -2326 0
-2325 -2327 0
-2325 -2328 0
-2326 -2327 0
-2326 -2328 0
-2327 -2328 0
2329 2330 2331 2332 0
-2329 -2330 0
-2329 -2331 0
-2329 -2332 0
-2330 -2331 0
-2330 -2332 0
-2331 -2332 0
2333 2334 2335 2336 0
-2333 -2334 0
-2333 -2335 0
-2333 -2336 0
-2334 -2335 0
-2334 -2336 0
-2335 -2336 0
2337 2338 2339 2340 0
-2337 -2338 0
-2337 -2339 0
-2337 -2340 0
-2338 -2339 0
-2338 -2340 0
-2339 -2340 0
2341 2342 2343 2344 0
-2341 -2342 0
-2341 -2343 0
-2341 -2344 0
-2342 -2343 0
-2342 -2344 0
-2343 -2344 0
2345 2346 2347 2348 0
-2345 -2346 0
-2345 -2347 0
-2345 -2348 0
-2346 -2347 0
-2346 -2348 0
-2347 -2348 0
2349 2350 2351 2352 0
-2349 -2350 0
-2349 -2351 0
-2349 -2352 0
-2350 -2351 0
-2350 -2352 0
-2351 -2352 0
2353 2354 2355 2356 0
-2353 -2354 0
-2353 -2355 0
-2353 -2356 0
-2354 -2355 0
-2354 -2356 0
-2355 -2356 0
2357 2358 2359 2360 0
-2357 -2358 0
-2357 -2359 0
-2357 -2360 0
-2358 -2359 0
-2358 -2360 0
-2359 -2360 0
2361 2362 2363 2364 0
-2361 -2362 0
-2361 -2363 0
-2361 -2364 0
-2362 -2363 0
-2362 -2364 0
-2363 -2364 0
2365 2366 2367 2368 0
-2365 -2366 0
-2365 -2367 0
-2365 -2368 0
-2366 -2367 0
-2366 -2368 0
-2367 -2368 0
2369 2370 2371 2372 0
-2369 -2370 0
-2369 -2371 0
-2369 -2372 0
-2370 -2371 0
-2370 -2372 0
-2371 -2372 0
2373 2374 2375 2376 0
-2373 -2374 0
-2373 -2375 0
-2373 -2376 0
-2374 -2375 0
-2374 -2376 0
-2375 -2376 0
2377 2378 2379 2380 0
-2377 -2378 0
-2377 -2379 0
-2377 -2380 0
-2378 -2379 0
-2378 -2380 0
-2379 -2380 0
2381 2382 2383 2384 0
-2381 -2382 0
-2381 -2383 0
-2381 -2384 0
-2382 -2383 0
-2382 -2384 0
-2383 -2384 0
2385 2386 2387 2388 0
-2385 -2386 0
-2385 -2387 0
-2385 -2388 0
-2386 -2387 0
-2386 -2388 0
-2387 -2388 0
2389 2390 2391 2392 0
-2389 -2390 0
-2389 -2391 0
-2389 -2392 0
-2390 -2391 0
-2390 -2392 0
-2391 -2392 0
2393 2394 2395 2396 0
-2393 -2394 0
-2393 -2395 0
-2393 -2396 0
-2394 -2395 0
-2394 -2396 0
-2395 -2396 0
2397 2398 2399 2400 0
-2397 -2398 0
-2397 -2399 0
-2397 -2400 0
-2398 -2399 0
-2398 -2400 0
-2399 -2400 0
2401 2402 2403 2404 0
-2401 -2402 0
-2401 -2403 0
-2401 -2404 0
-2402 -2403 0
-2402 -2404 0
-2403 -2404 0
2405 2406 2407 2408 0
-2405 -2406 0
-2405 -2407 0
-2405 -2408 0
-2406 -2407 0
-2406 -2408 0
-2407 -2408 0
2409 2410 2411 2412 0
-2409 -2410 0
-2409 -2411 0
-2409 -2412 0
-2410 -2411 0
-2410 -2412 0
-2411 -2412 0
2413 2414 2415 2416 0
-2413 -2414 0
-2413 -2415 0
-2413 -2416 0
-2414 -2415 0
-2414 -2416 0
-2415 -2416 0
2417 2418 2419 2420 0
-2417 -2418 0
-2417 -2419 0
-2417 -2420 0
-2418 -2419 0
-2418 -2420 0
-2419 -2420 0
2421 2422 2423 2424 0
-2421 -2422 0
-2421 -2423 0
-2421 -2424 0
-2422 -2423 0
-2422 -2424 0
-2423 -2424 0
2425 2426 2427 2428 0
-2425 -2426 0
-2425 -2427 0
-2425 -2428 0
-2426 -2427 0
-2426 -2428 0
-2427 -2428 0
2429 2430 2431 2432 0
-2429 -2430 0
-2429 -2431 0
-2429 -2432 0
-2430 -2431 0
-2430 -2432 0
-2431 -2432 0
2433 2434 2435 2436 0
-2433 -2434 0
-2433 -2435 0
-2433 -2436 0
-2434 -2435 0
-2434 -2436 0
-2435 -2436 0
2437 2438 2439 2440 0
-2437 -2438 0
-2437 -2439 0
-2437 -2440 0
-2438 -2439 0
-2438 -2440 0
-2439 -2440 0
2441 2442 2443 2444 0
-2441 -2442 0
-2441 -2443 0
-2441 -2444 0
-2442 -2443 0
-2442 -2444 0
-2443 -2444 0
2445 2446 2447 2448 0
-2445 -2446 0
-2445 -2447 0
-2445 -2448 0
-2446 -2447 0
-2446 -2448 0
-2447 -2448 0
2449 2450 2451 2452 0
-2449 -2450 0
-2449 -2451 0
-2449 -2452 0
-2450 -2451 0
-2450 -2452 0
-2451 -2452 0
2453 2454 2455 2456 0
-2453 -2454 0
-2453 -2455 0
-2453 -2456 0
-2454 -2455 0
-2454 -2456 0
-2455 -2456 0
2457 2458 2459 2460 0
-2457 -2458 0
-2457 -2459 0
-2457 -2460 0
-2458 -2459 0
-2458 -2460 0
-2459 -2460 0
2461 2462 2463 2464 0
-2461 -2462 0
-2461 -2463 0
-2461 -2464 0
-2462 -2463 0
-2462 -2464 0
-2463 -2464 0
2465 2466 2467 2468 0
-2465 -2466 0
-2465 -2467 0
-2465 -2468 0
-2466 -2467 0
-2466 -2468 0
-2467 -2468 0
2469 2470 2471 2472 0
-2469 -2470 0
-2469 -2471 0
-2469 -2472 0
-2470 -2471 0
-2470 -2472 0
-2471 -2472 0
2473 2474 2475 2476 0
-2473 -2474 0
-2473 -2475 0
-2473 -2476 0
-2474 -2475 0
-2474 -2476 0
-2475 -2476 0
2477 2478 2479 2480 0
-2477 -2478 0
-2477 -2479 0
-2477 -2480 0
-2478 -2479 0
-2478 -2480 0
-2479 -2480 0
2481 2482 2483 2484 0
-2481 -2482 0
-2481 -2483 0
-2481 -2484 0
-2482 -2483 0
-2482 -2484 0
-2483 -2484 0
2485 2486 2487 2488 0
-2485 -2486 0
-2485 -2487 0
-2485 -2488 0
-2486 -2487 0
-2486 -2488 0
-2487 -2488 0
2489 2490 2491 2492 0
-2489 -2490 0
-2489 -2491 0
-2489 -2492 0
-2490 -2491 0
-2490 -2492 0
-2491 -2492 0
2493 2494 2495 2496 0
-2493 -2494 0
-2493 -2495 0
-2493 -2496 0
-2494 -2495 0
-2494 -2496 0
-2495 -2496 0
2497 2498 2499 2500 0
-2497 -2498 0
-2497 -2499 0
-2497 -2500 0
-2498 -2499 0
-2498 -2500 0
-2499 -2500 0
2501 2502 2503 2504 0
-2501 -2502 0
-2501 -2503 0
-2501 -2504 0
-2502 -2503 0
-2502 -2504 0
-2503 -2504 0
2505 2506 2507 2508 0
-2505 -2506 0
-2505 -2507 0
-2505 -2508 0
-2506 -2507 0
-2506 -2508 0
-2507 -2508 0
2509 2510 2511 2512 0
-2509 -2510 0
-2509 -2511 0
-2509 -2512 0
-2510 -2511 0
-2510 -2512 0
-2511 -2512 0
2513 2514 2515 2516 0
-2513 -2514 0
-2513 -2515 0
-2513 -2516 0
-2514 -2515 0
-2514 -2516 0
-2515 -2516 0
2517 2518 2519 2520 0
-2517 -2518 0
-2517 -2519 0
-2517 -2520 0
-2518 -2519 0
-2518 -2520 0
-2519 -2520 0
2521 2522 2523 2524 0
-2521 -2522 0
-2521 -2523 0
-2521 -2524 0
-2522 -2523 0
-2522 -2524 0
-2523 -2524 0
2525 2526 2527 2528 0
-2525 -2526 0
-2525 -2527 0
-2525 -2528 0
-2526 -2527 0
-2526 -2528 0
-2527 -2528 0
2529 2530 2531 2532 0
-2529 -2530 0
-2529 -2531 0
-2529 -2532 0
-2530 -2531 0
-2530 -2532 0
-2531 -2532 0
2533 2534 2535 2536 0
-2533 -2534 0
-2533 -2535 0
-2533 -2536 0
-2534 -2535 0
-2534 -2536 0
-2535 -2536 0
2537 2538 2539 2540 0
-2537 -2538 0
-2537 -2539 0
-2537 -2540 0
-2538 -2539 0
-2538 -2540 0
-2539 -2540 0
2541 2542 2543 2544 0
-2541 -2542 0
-2541 -2543 0
-2541 -2544 0
-2542 -2543 0
-2542 -2544 0
-2543 -2544 0
2545 2546 2547 2548 0
-2545 -2546 0
-2545 -2547 0
-2545 -2548 0
-2546 -2547 0
-2546 -2548 0
-2547 -2548 0
2549 2550 2551 2552 0
-2549 -2550 0
-2549 -2551 0
-2549 -2552 0
-2550 -2551 0
-2550 -2552 0
-2551 -2552 0
2553 2554 2555 2556 0
-2553 -2554 0
-2553 -2555 0
-2553 -2556 0
-2554 -2555 0
-2554 -2556 0
-2555 -2556 0
2557 2558 2559 2560 0
-2557 -2558 0
-2557 -2559 0
-2557 -2560 0
-2558 -2559 0
-2558 -2560 0
-2559 -2560 0
2561 2562 2563 2564 0
-2561 -2562 0
-2561 -2563 0
-2561 -2564 0
-2562 -2563 0
-2562 -2564 0
-2563 -2564 0
2565 2566 2567 2568 0
-2565 -2566 0
-2565 -2567 0
-2565 -2568 0
-2566 -2567 0
-2566 -2568 0
-2567 -2568 0
2569 2570 2571 2572 0
-2569 -2570 0
-2569 -2571 0
-2569 -2572 0
-2570 -2571 0
-2570 -2572 0
-2571 -2572 0
2573 2574 2575 2576 0
-2573 -2574 0
-2573 -2575 0
-2573 -2576 0
-2574 -2575 0
-2574 -2576 0
-2575 -2576 0
2577 2578 2579 2580 0
-2577 -2578 0
-2577 -2579 0
-2577 -2580 0
-2578 -2579 0
-2578 -2580 0
-2579 -2580 0
2581 2582 2583 2584 0
-2581 -2582 0
-2581 -2583 0
-2581 -2584 0
-2582 -2583 0
-2582 -2584 0
-2583 -2584 0
2585 2586 2587 2588 0
-2585 -2586 0
-2585 -2587 0
-2585 -2588 0
-2586 -2587 0
-2586 -2588 0
-2587 -2588 0
2589 2590 2591 2592 0
-2589 -2590 0
-2589 -2591 0
-2589 -2592 0
-2590 -2591 0
-2590 -2592 0
-2591 -2592 0
2593 2594 2595 2596 0
-2593 -2594 0
-2593 -2595 0
-2593 -2596 0
-2594 -2595 0
-2594 -2596 0
-2595 -2596 0
2597 2598 2599 2600 0
-2597 -2598 0
-2597 -2599 0
-2597 -2600 0
-2598 -2599 0
-2598 -2600 0
-2599 -2600 0
2601 2602 2603 2604 0
-2601 -2602 0
-2601 -2603 0
-2601 -2604 0
-2602 -2603 0
-2602 -2604 0
-2603 -2604 0
2605 2606 2607 2608 0
-2605 -2606 0
-2605 -2607 0
-2605 -2608 0
-2606 -2607 0
-2606 -2608 0
-2607 -2608 0
2609 2610 2611 2612 0
-2609 -2610 0
-2609 -2611 0
-2609 -2612 0
-2610 -2611 0
-2610 -2612 0
-2611 -2612 0
2613 2614 2615 2616 0
-2613 -2614 0
-2613 -2615 0
-2613 -2616 0
-2614 -2615 0
-2614 -2616 0
-2615 -2616 0
2617 2618 2619 2620 0
-2617 -2618 0
-2617 -2619 0
-2617 -2620 0
-2618 -2619 0
-2618 -2620 0
-2619 -2620 0
2621 2622 2623 2624 0
-2621 -2622 0
-2621 -2623 0
-2621 -2624 0
-2622 -2623 0
-2622 -2624 0
-2623 -2624 0
2625 2626 2627 2628 0
-2625 -2626 0
-2625 -2627 0
-2625 -2628 0
-2626 -2627 0
-2626 -2628 0
-2627 -2628 0
2629 2630 2631 2632 0
-2629 -2630 0
-2629 -2631 0
-2629 -2632 0
-2630 -2631 0
-2630 -2632 0
-2631 -2632 0
2633 2634 2635 2636 0
-2633 -2634 0
-2633 -2635 0
-2633 -2636 0
-2634 -2635 0
-2634 -2636 0
-2635 -2636 0
2637 2638 2639 2640 0
-2637 -2638 0
-2637 -2639 0
-2637 -2640 0
-2638 -2639 0
-2638 -2640 0
-2639 -2640 0
2641 2642 2643 2644 0
-2641 -2642 0
-2641 -2643 0
-2641 -2644 0
-2642 -2643 0
-2642 -2644 0
-2643 -2644 0
2645 2646 2647 2648 0
-2645 -2646 0
-2645 -2647 0
-2645 -2648 0
-2646 -2647 0
-2646 -2648 0
-2647 -2648 0
2649 2650 2651 2652 0
-2649 -2650 0
-2649 -2651 0
-2649 -2652 0
-2650 -2651 0
-2650 -2652 0
-2651 -2652 0
2653 2654 2655 2656 0
-2653 -2654 0
-2653 -2655 0
-2653 -2656 0
-2654 -2655 0
-2654 -2656 0
-2655 -2656 0
2657 2658 2659 2660 0
-2657 -2658 0
-2657 -2659 0
-2657 -2660 0
-2658 -2659 0
-2658 -2660 0
-2659 -2660 0
2661 2662 2663 2664 0
-2661 -2662 0
-2661 -2663 0
-2661 -2664 0
-2662 -2663 0
-2662 -2664 0
-2663 -2664 0
2665 2666 2667 2668 0
-2665 -2666 0
-2665 -2667 0
-2665 -2668 0
-2666 -2667 0
-2666 -2668 0
-2667 -2668 0
2669 2670 2671 2672 0
-2669 -2670 0
-2669 -2671 0
-2669 -2672 0
-2670 -2671 0
-2670 -2672 0
-2671 -2672 0
2673 2674 2675 2676 0
-2673 -2674 0
-2673 -2675 0
-2673 -2676 0
-2674 -2675 0
-2674 -2676 0
-2675 -2676 0
2677 2678 2679 2680 0
-2677 -2678 0
-2677 -2679 0
-2677 -2680 0
-2678 -2679 0
-2678 -2680 0
-2679 -2680 0
2681 2682 2683 2684 0
-2681 -2682 0
-2681 -2683 0
-2681 -2684 0
-2682 -2683 0
-2682 -2684 0
-2683 -2684 0
2685 2686 2687 2688 0
-2685 -2686 0
-2685 -2687 0
-2685 -2688 0
-2686 -2687 0
-2686 -2688 0
-2687 -2688 0
2689 2690 2691 2692 0
-2689 -2690 0
-2689 -2691 0
-2689 -2692 0
-2690 -2691 0
-2690 -2692 0
-2691 -2692 0
2693 2694 2695 2696 0
-2693 -2694 0
-2693 -2695 0
-2693 -2696 0
-2694 -2695 0
-2694 -2696 0
-2695 -2696 0
2697 2698 2699 2700 0
-2697 -2698 0
-2697 -2699 0
-2697 -2700 0
-2698 -2699 0
-2698 -2700 0
-2699 -2700 0
2701 2702 2703 2704 0
-2701 -2702 0
-2701 -2703 0
-2701 -2704 0
-2702 -2703 0
-2702 -2704 0
-2703 -2704 0
2705 2706 2707 2708 0
-2705 -2706 0
-2705 -2707 0
-2705 -2708 0
-2706 -2707 0
-2706 -2708 0
-2707 -2708 0
2709 2710 2711 2712 0
-2709 -2710 0
-2709 -2711 0
-2709 -2712 0
-2710 -2711 0
-2710 -2712 0
-2711 -2712 0
2713 2714 2715 2716 0
-2713 -2714 0
-2713 -2715 0
-2713 -2716 0
-2714 -2715 0
-2714 -2716 0
-2715 -2716 0
2717 2718 2719 2720 0
-2717 -2718 0
-2717 -2719 0
-2717 -2720 0
-2718 -2719 0
-2718 -2720 0
-2719 -2720 0
2721 2722 2723 2724 0
-2721 -2722 0
-2721 -2723 0
-2721 -2724 0
-2722 -2723 0
-2722 -2724 0
-2723 -2724 0
2725 2726 2727 2728 0
-2725 -2726 0
-2725 -2727 0
-2725 -2728 0
-2726 -2727 0
-2726 -2728 0
-2727 -2728 0
2729 2730 2731 2732 0
-2729 -2730 0
-2729 -2731 0
-2729 -2732 0
-2730 -2731 0
-2730 -2732 0
-2731 -2732 0
2733 2734 2735 2736 0
-2733 -2734 0
-2733 -2735 0
-2733 -2736 0
-2734 -2735 0
-2734 -2736 0
-2735 -2736 0
2737 2738 2739 2740 0
-2737 -2738 0
-2737 -2739 0
-2737 -2740 0
-2738 -2739 0
-2738 -2740 0
-2739 -2740 0
2741 2742 2743 2744 0
-2741 -2742 0
-2741 -2743 0
-2741 -2744 0
-2742 -2743 0
-2742 -2744 0
-2743 -2744 0
2745 2746 2747 2748 0
-2745 -2746 0
-2745 -2747 0
-2745 -2748 0
-2746 -2747 0
-2746 -2748 0
-2747 -2748 0
2749 2750 2751 2752 0
-2749 -2750 0
-2749 -2751 0
-2749 -2752 0
-2750 -2751 0
-2750 -2752 0
-2751 -2752 0
2753 2754 2755 2756 0
-2753 -2754 0
-2753 -2755 0
-2753 -2756 0
-2754 -2755 0
-2754 -2756 0
-2755 -2756 0
2757 2758 2759 2760 0
-2757 -2758 0
-2757 -2759 0
-2757 -2760 0
-2758 -2759 0
-2758 -2760 0
-2759 -2760 0
2761 2762 2763 2764 0
-2761 -2762 0
-2761 -2763 0
-2761 -2764 0
-2762 -2763 0
-2762 -2764 0
-2763 -2764 0
2765 2766 2767 2768 0
-2765 -2766 0
-2765 -2767 0
-2765 -2768 0
-2766 -2767 0
-2766 -2768 0
-2767 -2768 0
2769 2770 2771 2772 0
-2769 -2770 0
-2769 -2771 0
-2769 -2772 0
-2770 -2771 0
-2770 -2772 0
-2771 -2772 0
2773 2774 2775 2776 0
-2773 -2774 0
-2773 -2775 0
-2773 -2776 0
-2774 -2775 0
-2774 -2776 0
-2775 -2776 0
2777 2778 2779 2780 0
-2777 -2778 0
-2777 -2779 0
-2777 -2780 0
-2778 -2779 0
-2778 -2780 0
-2779 -2780 0
2781 2782 2783 2784 0
-2781 -2782 0
-2781 -2783 0
-2781 -2784 0
-2782 -2783 0
-2782 -2784 0
-2783 -2784 0
2785 2786 2787 2788 0
-2785 -2786 0
-2785 -2787 0
-2785 -2788 0
-2786 -2787 0
-2786 -2788 0
-2787 -2788 0
2789 2790 2791 2792 0
-2789 -2790 0
-2789 -2791 0
-2789 -2792 0
-2790 -2791 0
-2790 -2792 0
-2791 -2792 0
2793 2794 2795 2796 0
-2793 -2794 0
-2793 -2795 0
-2793 -2796 0
-2794 -2795 0
-2794 -2796 0
-2795 -2796 0
2797 2798 2799 2800 0
-2797 -2798 0
-2797 -2799 0
-2797 -2800 0
-2798 -2799 0
-2798 -2800 0
-2799 -2800 0
2801 2802 2803 2804 0
-2801 -2802 0
-2801 -2803 0
-2801 -2804 0
-2802 -2803 0
-2802 -2804 0
-2803 -2804 0
2805 2806 2807 2808 0
-2805 -2806 0
-2805 -2807 0
-2805 -2808 0
-2806 -2807 0
-2806 -2808 0
-2807 -2808 0
2809 2810 2811 2812 0
-2809 -2810 0
-2809 -2811 0
-2809 -2812 0
-2810 -2811 0
-2810 -2812 0
-2811 -2812 0
2813 2814 2815 2816 0
-2813 -2814 0
-2813 -2815 0
-2813 -2816 0
-2814 -2815 0
-2814 -2816 0
-2815 -2816 0
2817 2818 2819 2820 0
-2817 -2818 0
-2817 -2819 0
-2817 -2820 0
-2818 -2819 0
-2818 -2820 0
-2819 -2820 0
2821 2822 2823 2824 0
-2821 -2822 0
-2821 -2823 0
-2821 -2824 0
-2822 -2823 0
-2822 -2824 0
-2823 -2824 0
2825 2826 2827 2828 0
-2825 -2826 0
-2825 -2827 0
-2825 -2828 0
-2826 -2827 0
-2826 -2828 0
-2827 -2828 0
2829 2830 2831 2832 0
-2829 -2830 0
-2829 -2831 0
-2829 -2832 0
-2830 -2831 0
-2830 -2832 0
-2831 -2832 0
2833 2834 2835 2836 0
-2833 -2834 0
-2833 -2835 0
-2833 -2836 0
-2834 -2835 0
-2834 -2836 0
-2835 -2836 0
2837 2838 2839 2840 0
-2837 -2838 0
-2837 -2839 0
-2837 -2840 0
-2838 -2839 0
-2838 -2840 0
-2839 -2840 0
2841 2842 2843 2844 0
-2841 -2842 0
-2841 -2843 0
-2841 -2844 0
-2842 -2843 0
-2842 -2844 0
-2843 -2844 0
2845 2846 2847 2848 0
-2845 -2846 0
-2845 -2847 0
-2845 -2848 0
-2846 -2847 0
-2846 -2848 0
-2847 -2848 0
2849 2850 2851 2852 0
-2849 -2850 0
-2849 -2851 0
-2849 -2852 0
-2850 -2851 0
-2850 -2852 0
-2851 -2852 0
2853 2854 2855 2856 0
-2853 -2854 0
-2853 -2855 0
-2853 -2856 0
-2854 -2855 0
-2854 -2856 0
-2855 -2856 0
2857 2858 2859 2860 0
-2857 -2858 0
-2857 -2859 0
-2857 -2860 0
-2858 -2859 0
-2858 -2860 0
-2859 -2860 0
2861 2862 2863 2864 0
-2861 -2862 0
-2861 -2863 0
-2861 -2864 0
-2862 -2863 0
-2862 -2864 0
-2863 -2864 0
2865 2866 2867 2868 0
-2865 -2866 0
-2865 -2867 0
-2865 -2868 0
-2866 -2867 0
-2866 -2868 0
-2867 -2868 0
2869 2870 2871 2872 0
-2869 -2870 0
-2869 -2871 0
-2869 -2872 0
-2870 -2871 0
-2870 -2872 0
-2871 -2872 0
2873 2874 2875 2876 0
-2873 -2874 0
-2873 -2875 0
-2873 -2876 0
-2874 -2875 0
-2874 -2876 0
-2875 -2876 0
2877 2878 2879 2880 0
-2877 -2878 0
-2877 -2879 0
-2877 -2880 0
-2878 -2879 0
-2878 -2880 0
-2879 -2880 0
2881 2882 2883 2884 0
-2881 -2882 0
-2881 -2883 0
-2881 -2884 0
-2882 -2883 0
-2882 -2884 0
-2883 -2884 0
2885 2886 2887 2888 0
-2885 -2886 0
-2885 -2887 0
-2885 -2888 0
-2886 -2887 0
-2886 -2888 0
-2887 -2888 0
2889 2890 2891 2892 0
-2889 -2890 0
-2889 -2891 0
-2889 -2892 0
-2890 -2891 0
-2890 -2892 0
-2891 -2892 0
2893 2894 2895 2896 0
-2893 -2894 0
-2893 -2895 0
-2893 -2896 0
-2894 -2895 0
-2894 -2896 0
-2895 -2896 0
2897 2898 2899 2900 0
-2897 -2898 0
-2897 -2899 0
-2897 -2900 0
-2898 -2899 0
-2898 -2900 0
-2899 -2900 0
2901 2902 2903 2904 0
-2901 -2902 0
-2901 -2903 0
-2901 -2904 0
-2902 -2903 0
-2902 -2904 0
-2903 -2904 0
2905 2906 2907 2908 0
-2905 -2906 0
-2905 -2907 0
-2905 -2908 0
-2906 -2907 0
-2906 -2908 0
-2907 -2908 0
2909 2910 2911 2912 0
-2909 -2910 0
-2909 -2911 0
-2909 -2912 0
-2910 -2911 0
-2910 -2912 0
-2911 -2912 0
2913 2914 2915 2916 0
-2913 -2914 0
-2913 -2915 0
-2913 -2916 0
-2914 -2915 0
-2914 -2916 0
-2915 -2916 0
2917 2918 2919 2920 0
-2917 -2918 0
-2917 -2919 0
-2917 -2920 0
-2918 -2919 0
-2918 -2920 0
-2919 -2920 0
2921 2922 2923 2924 0
-2921 -2922 0
-2921 -2923 0
-2921 -2924 0
-2922 -2923 0
-2922 -2924 0
-2923 -2924 0
2925 2926 2927 2928 0
-2925 -2926 0
-2925 -2927 0
-2925 -2928 0
-2926 -2927 0
-2926 -2928 0
-2927 -2928 0
2929 2930 2931 2932 0
-2929 -2930 0
-2929 -2931 0
-2929 -2932 0
-2930 -2931 0
-2930 -2932 0
-2931 -2932 0
2933 2934 2935 2936 0
-2933 -2934 0
-2933 -2935 0
-2933 -2936 0
-2934 -2935 0
-2934 -2936 0
-2935 -2936 0
2937 2938 2939 2940 0
-2937 -2938 0
-2937 -2939 0
-2937 -2940 0
-2938 -2939 0
-2938 -2940 0
-2939 -2940 0
2941 2942 2943 2944 0
-2941 -2942 0
-2941 -2943 0
-2941 -2944 0
-2942 -2943 0
-2942 -2944 0
-2943 -2944 0
2945 2946 2947 2948 0
-2945 -2946 0
-2945 -2947 0
-2945 -2948 0
-2946 -2947 0
-2946 -2948 0
-2947 -2948 0
2949 2950 2951 2952 0
-2949 -2950 0
-2949 -2951 0
-2949 -2952 0
-2950 -2951 0
-2950 -2952 0
-2951 -2952 0
2953 2954 2955 2956 0
-2953 -2954 0
-2953 -2955 0
-2953 -2956 0
-2954 -2955 0
-2954 -2956 0
-2955 -2956 0
2957 2958 2959 2960 0
-2957 -2958 0
-2957 -2959 0
-2957 -2960 0
-2958 -2959 0
-2958 -2960 0
-2959 -2960 0
2961 2962 2963 2964 0
-2961 -2962 0
-2961 -2963 0
-2961 -2964 0
-2962 -2963 0
-2962 -2964 0
-2963 -2964 0
2965 2966 2967 2968 0
-2965 -2966 0
-2965 -2967 0
-2965 -2968 0
-2966 -2967 0
-2966 -2968 0
-2967 -2968 0
2969 2970 2971 2972 0
-2969 -2970 0
-2969 -2971 0
-2969 -2972 0
-2970 -2971 0
-2970 -2972 0
-2971 -2972 0
2973 2974 2975 2976 0
-2973 -2974 0
-2973 -2975 0
-2973 -2976 0
-2974 -2975 0
-2974 -2976 0
-2975 -2976 0
2977 2978 2979 2980 0
-2977 -2978 0
-2977 -2979 0
-2977 -2980 0
-2978 -2979 0
-2978 -2980 0
-2979 -2980 0
2981 2982 2983 2984 0
-2981 -2982 0
-2981 -2983 0
-2981 -2984 0
-2982 -2983 0
-2982 -2984 0
-2983 -2984 0
2985 2986 2987 2988 0
-2985 -2986 0
-2985 -2987 0
-2985 -2988 0
-2986 -2987 0
-2986 -2988 0
-2987 -2988 0
2989 2990 2991 2992 0
-2989 -2990 0
-2989 -2991 0
-2989 -2992 0
-2990 -2991 0
-2990 -2992 0
-2991 -2992 0
2993 2994 2995 2996 0
-2993 -2994 0
-2993 -2995 0
-2993 -2996 0
-2994 -2995 0
-2994 -2996 0
-2995 -2996 0
2997 2998 2999 3000 0
-2997 -2998 0
-2997 -2999 0
-2997 -3000 0
-2998 -2999 0
-2998 -3000 0
-2999 -3000 0
3001 3002 3003 3004 0
-3001 -3002 0
-3001 -3003 0
-3001 -3004 0
-3002 -3003 0
-3002 -3004 0
-3003 -3004 0
3005 3006 3007 3008 0
-3005 -3006 0
-3005 -3007 0
-3005 -3008 0
-3006 -3007 0
-3006 -3008 0
-3007 -3008 0
3009 3010 3011 3012 0
-3009 -3010 0
-3009 -3011 0
-3009 -3012 0
-3010 -3011 0
-3010 -3012 0
-3011 -3012 0
3013 3014 3015 3016 0
-3013 -3014 0
-3013 -3015 0
-3013 -3016 0
-3014 -3015 0
-3014 -3016 0
-3015 -3016 0
3017 3018 3019 3020 0
-3017 -3018 0
-3017 -3019 0
-3017 -3020 0
-3018 -3019 0
-3018 -3020 0
-3019 -3020 0
3021 3022 3023 3024 0
-3021 -3022 0
-3021 -3023 0
-3021 -3024 0
-3022 -3023 0
-3022 -3024 0
-3023 -3024 0
3025 3026 3027 3028 0
-3025 -3026 0
-3025 -3027 0
-3025 -3028 0
-3026 -3027 0
-3026 -3028 0
-3027 -3028 0
3029 3030 3031 3032 0
-3029 -3030 0
-3029 -3031 0
-3029 -3032 0
-3030 -3031 0
-3030 -3032 0
-3031 -3032 0
3033 3034 3035 3036 0
-3033 -3034 0
-3033 -3035 0
-3033 -3036 0
-3034 -3035 0
-3034 -3036 0
-3035 -3036 0
3037 3038 3039 3040 0
-3037 -3038 0
-3037 -3039 0
-3037 -3040 0
-3038 -3039 0
-3038 -3040 0
-3039 -3040 0
3041 3042 3043 3044 0
-3041 -3042 0
-3041 -3043 0
-3041 -3044 0
-3042 -3043 0
-3042 -3044 0
-3043 -3044 0
3045 3046 3047 3048 0
-3045 -3046 0
-3045 -3047 0
-3045 -3048 0
-3046 -3047 0
-3046 -3048 0
-3047 -3048 0
3049 3050 3051 3052 0
-3049 -3050 0
-3049 -3051 0
-3049 -3052 0
-3050 -3051 0
-3050 -3052 0
-3051 -3052 0
3053 3054 3055 3056 0
-3053 -3054 0
-3053 -3055 0
-3053 -3056 0
-3054 -3055 0
-3054 -3056 0
-3055 -3056 0
3057 3058 3059 3060 0
-3057 -3058 0
-3057 -3059 0
-3057 -3060 0
-3058 -3059 0
-3058 -3060 0
-3059 -3060 0
3061 3062 3063 3064 0
-3061 -3062 0
-3061 -3063 0
-3061 -3064 0
-3062 -3063 0
-3062 -3064 0
-3063 -3064 0
3065 3066 3067 3068 0
-3065 -3066 0
-3065 -3067 0
-3065 -3068 0
-3066 -3067 0
-3066 -3068 0
-3067 -3068 0
3069 3070 3071 3072 0
-3069 -3070 0
-3069 -3071 0
-3069 -3072 0
-3070 -3071 0
-3070 -3072 0
-3071 -3072 0
3073 3074 3075 3076 0
-3073 -3074 0
-3073 -3075 0
-3073 -3076 0
-3074 -3075 0
-3074 -3076 0
-3075 -3076 0
3077 3078 3079 3080 0
-3077 -3078 0
-3077 -3079 0
-3077 -3080 0
-3078 -3079 0
-3078 -3080 0
-3079 -3080 0
3081 3082 3083 3084 0
-3081 -3082 0
-3081 -3083 0
-3081 -3084 0
-3082 -3083 0
-3082 -3084 0
-3083 -3084 0
3085 3086 3087 3088 0
-3085 -3086 0
-3085 -3087 0
-3085 -3088 0
-3086 -3087 0
-3086 -3088 0
-3087 -3088 0
3089 3090 3091 3092 0
-3089 -3090 0
-3089 -3091 0
-3089 -3092 0
-3090 -3091 0
-3090 -3092 0
-3091 -3092 0
3093 3094 3095 3096 0
-3093 -3094 0
-3093 -3095 0
-3093 -3096 0
-3094 -3095 0
-3094 -3096 0
-3095 -3096 0
3097 3098 3099 3100 0
-3097 -3098 0
-3097 -3099 0
-3097 -3100 0
-3098 -3099 0
-3098 -3100 0
-3099 -3100 0
3101 3102 3103 3104 0
-3101 -3102 0
-3101 -3103 0
-3101 -3104 0
-3102 -3103 0
-3102 -3104 0
-3103 -3104 0
3105 3106 3107 3108 0
-3105 -3106 0
-3105 -3107 0
-3105 -3108 0
-3106 -3107 0
-3106 -3108 0
-3107 -3108 0
3109 3110 3111 3112 0
-3109 -3110 0
-3109 -3111 0
-3109 -3112 0
-3110 -3111 0
-3110 -3112 0
-3111 -3112 0
3113 3114 3115 3116 0
-3113 -3114 0
-3113 -3115 0
-3113 -3116 0
-3114 -3115 0
-3114 -3116 0
-3115 -3116 0
3117 3118 3119 3120 0
-3117 -3118 0
-3117 -3119 0
-3117 -3120 0
-3118 -3119 0
-3118 -3120 0
-3119 -3120 0
3121 3122 3123 3124 0
-3121 -3122 0
-3121 -3123 0
-3121 -3124 0
-3122 -3123 0
-3122 -3124 0
-3123 -3124 0
3125 3126 3127 3128 0
-3125 -3126 0
-3125 -3127 0
-3125 -3128 0
-3126 -3127 0
-3126 -3128 0
-3127 -3128 0
3129 3130 3131 3132 0
-3129 -3130 0
-3129 -3131 0
-3129 -3132 0
-3130 -3131 0
-3130 -3132 0
-3131 -3132 0
3133 3134 3135 3136 0
-3133 -3134 0
-3133 -3135 0
-3133 -3136 0
-3134 -3135 0
-3134 -3136 0
-3135 -3136 0
3137 3138 3139 3140 0
-3137 -3138 0
-3137 -3139 0
-3137 -3140 0
-3138 -3139 0
-3138 -3140 0
-3139 -3140 0
3141 3142 3143 3144 0
-3141 -3142 0
-3141 -3143 0
-3141 -3144 0
-3142 -3143 0
-3142 -3144 0
-3143 -3144 0
3145 3146 3147 3148 0
-3145 -3146 0
-3145 -3147 0
-3145 -3148 0
-3146 -3147 0
-3146 -3148 0
-3147 -3148 0
3149 3150 3151 3152 0
-3149 -3150 0
-3149 -3151 0
-3149 -3152 0
-3150 -3151 0
-3150 -3152 0
-3151 -3152 0
3153 3154 3155 3156 0
-3153 -3154 0
-3153 -3155 0
-3153 -3156 0
-3154 -3155 0
-3154 -3156 0
-3155 -3156 0
3157 3158 3159 3160 0
-3157 -3158 0
-3157 -3159 0
-3157 -3160 0
-3158 -3159 0
-3158 -3160 0
-3159 -3160 0
3161 3162 3163 3164 0
-3161 -3162 0
-3161 -3163 0
-3161 -3164 0
-3162 -3163 0
-3162 -3164 0
-3163 -3164 0
3165 3166 3167 3168 0
-3165 -3166 0
-3165 -3167 0
-3165 -3168 0
-3166 -3167 0
-3166 -3168 0
-3167 -3168 0
3169 3170 3171 3172 0
-3169 -3170 0
-3169 -3171 0
-3169 -3172 0
-3170 -3171 0
-3170 -3172 0
-3171 -3172 0
3173 3174 3175 3176 0
-3173 -3174 0
-3173 -3175 0
-3173 -3176 0
-3174 -3175 0
-3174 -3176 0
-3175 -3176 0
3177 3178 3179 3180 0
-3177 -3178 0
-3177 -3179 0
-3177 -3180 0
-3178 -3179 0
-3178 -3180 0
-3179 -3180 0
3181 3182 3183 3184 0
-3181 -3182 0
-3181 -3183 0
-3181 -3184 0
-3182 -3183 0
-3182 -3184 0
-3183 -3184 0
3185 3186 3187 3188 0
-3185 -3186 0
-3185 -3187 0
-3185 -3188 0
-3186 -3187 0
-3186 -3188 0
-3187 -3188 0
3189 3190 3191 3192 0
-3189 -3190 0
-3189 -3191 0
-3189 -3192 0
-3190 -3191 0
-3190 -3192 0
-3191 -3192 0
3193 3194 3195 3196 0
-3193 -3194 0
-3193 -3195 0
-3193 -3196 0
-3194 -3195 0
-3194 -3196 0
-3195 -3196 0
3197 3198 3199 3200 0
-3197 -3198 0
-3197 -3199 0
-3197 -3200 0
-3198 -3199 0
-3198 -3200 0
-3199 -3200 0
3201 3202 3203 3204 0
-3201 -3202 0
-3201 -3203 0
-3201 -3204 0
-3202 -3203 0
-3202 -3204 0
-3203 -3204 0
3205 3206 3207 3208 0
-3205 -3206 0
-3205 -3207 0
-3205 -3208 0
-3206 -3207 0
-3206 -3208 0
-3207 -3208 0
3209 3210 3211 3212 0
-3209 -3210 0
-3209 -3211 0
-3209 -3212 0
-3210 -3211 0
-3210 -3212 0
-3211 -3212 0
3213 3214 3215 3216 0
-3213 -3214 0
-3213 -3215 0
-3213 -3216 0
-3214 -3215 0
-3214 -3216 0
-3215 -3216 0
3217 3218 3219 3220 0
-3217 -3218 0
-3217 -3219 0
-3217 -3220 0
-3218 -3219 0
-3218 -3220 0
-3219 -3220 0
3221 3222 3223 3224 0
-3221 -3222 0
-3221 -3223 0
-3221 -3224 0
-3222 -3223 0
-3222 -3224 0
-3223 -3224 0
3225 3226 3227 3228 0
-3225 -3226 0
-3225 -3227 0
-3225 -3228 0
-3226 -3227 0
-3226 -3228 0
-3227 -3228 0
3229 3230 3231 3232 0
-3229 -3230 0
-3229 -3231 0
-3229 -3232 0
-3230 -3231 0
-3230 -3232 0
-3231 -3232 0
3233 3234 3235 3236 0
-3233 -3234 0
-3233 -3235 0
-3233 -3236 0
-3234 -3235 0
-3234 -3236 0
-3235 -3236 0
3237 3238 3239 3240 0
-3237 -3238 0
-3237 -3239 0
-3237 -3240 0
-3238 -3239 0
-3238 -3240 0
-3239 -3240 0
3241 3242 3243 3244 0
-3241 -3242 0
-3241 -3243 0
-3241 -3244 0
-3242 -3243 0
-3242 -3244 0
-3243 -3244 0
3245 3246 3247 3248 0
-3245 -3246 0
-3245 -3247 0
-3245 -3248 0
-3246 -3247 0
-3246 -3248 0
-3247 -3248 0
3249 3250 3251 3252 0
-3249 -3250 0
-3249 -3251 0
-3249 -3252 0
-3250 -3251 0
-3250 -3252 0
-3251 -3252 0
3253 3254 3255 3256 0
-3253 -3254 0
-3253 -3255 0
-3253 -3256 0
-3254 -3255 0
-3254 -3256 0
-3255 -3256 0
3257 3258 3259 3260 0
-3257 -3258 0
-3257 -3259 0
-3257 -3260 0
-3258 -3259 0
-3258 -3260 0
-3259 -3260 0
3261 3262 3263 3264 0
-3261 -3262 0
-3261 -3263 0
-3261 -3264 0
-3262 -3263 0
-3262 -3264 0
-3263 -3264 0
3265 3266 3267 3268 0
-3265 -3266 0
-3265 -3267 0
-3265 -3268 0
-3266 -3267 0
-3266 -3268 0
-3267 -3268 0
3269 3270 3271 3272 0
-3269 -3270 0
-3269 -3271 0
-3269 -3272 0
-3270 -3271 0
-3270 -3272 0
-3271 -3272 0
3273 3274 3275 3276 0
-3273 -3274 0
-3273 -3275 0
-3273 -3276 0
-3274 -3275 0
-3274 -3276 0
-3275 -3276 0
3277 3278 3279 3280 0
-3277 -3278 0
-3277 -3279 0
-3277 -3280 0
-3278 -3279 0
-3278 -3280 0
-3279 -3280 0
3281 3282 3283 3284 0
-3281 -3282 0
-3281 -3283 0
-3281 -3284 0
-3282 -3283 0
-3282 -3284 0
-3283 -3284 0
3285 3286 3287 3288 0
-3285 -3286 0
-3285 -3287 0
-3285 -3288 0
-3286 -3287 0
-3286 -3288 0
-3287 -3288 0
3289 3290 3291 3292 0
-3289 -3290 0
-3289 -3291 0
-3289 -3292 0
-3290 -3291 0
-3290 -3292 0
-3291 -3292 0
3293 3294 3295 3296 0
-3293 -3294 0
-3293 -3295 0
-3293 -3296 0
-3294 -3295 0
-3294 -3296 0
-3295 -3296 0
3297 3298 3299 3300 0
-3297 -3298 0
-3297 -3299 0
-3297 -3300 0
-3298 -3299 0
-3298 -3300 0
-3299 -3300 0
3301 3302 3303 3304 0
-3301 -3302 0
-3301 -3303 0
-3301 -3304 0
-3302 -3303 0
-3302 -3304 0
-3303 -3304 0
3305 3306 3307 3308 0
-3305 -3306 0
-3305 -3307 0
-3305 -3308 0
-3306 -3307 0
-3306 -3308 0
-3307 -3308 0
3309 3310 3311 3312 0
-3309 -3310 0
-3309 -3311 0
-3309 -3312 0
-3310 -3311 0
-3310 -3312 0
-3311 -3312 0
3313 3314 3315 3316 0
-3313 -3314 0
-3313 -3315 0
-3313 -3316 0
-3314 -3315 0
-3314 -3316 0
-3315 -3316 0
3317 3318 3319 3320 0
-3317 -3318 0
-3317 -3319 0
-3317 -3320 0
-3318 -3319 0
-3318 -3320 0
-3319 -3320 0
3321 3322 3323 3324 0
-3321 -3322 0
-3321 -3323 0
-3321 -3324 0
-3322 -3323 0
-3322 -3324 0
-3323 -3324 0
3325 3326 3327 3328 0
-3325 -3326 0
-3325 -3327 0
-3325 -3328 0
-3326 -3327 0
-3326 -3328 0
-3327 -3328 0
3329 3330 3331 3332 0
-3329 -3330 0
-3329 -3331 0
-3329 -3332 0
-3330 -3331 0
-3330 -3332 0
-3331 -3332 0
3333 3334 3335 3336 0
-3333 -3334 0
-3333 -3335 0
-3333 -3336 0
-3334 -3335 0
-3334 -3336 0
-3335 -3336 0
3337 3338 3339 3340 0
-3337 -3338 0
-3337 -3339 0
-3337 -3340 0
-3338 -3339 0
-3338 -3340 0
-3339 -3340 0
3341 3342 3343 3344 0
-3341 -3342 0
-3341 -3343 0
-3341 -3344 0
-3342 -3343 0
-3342 -3344 0
-3343 -3344 0
3345 3346 3347 3348 0
-3345 -3346 0
-3345 -3347 0
-3345 -3348 0
-3346 -3347 0
-3346 -3348 0
-3347 -3348 0
3349 3350 3351 3352 0
-3349 -3350 0
-3349 -3351 0
-3349 -3352 0
-3350 -3351 0
-3350 -3352 0
-3351 -3352 0
3353 3354 3355 3356 0
-3353 -3354 0
-3353 -3355 0
-3353 -3356 0
-3354 -3355 0
-3354 -3356 0
-3355 -3356 0
3357 3358 3359 3360 0
-3357 -3358 0
-3357 -3359 0
-3357 -3360 0
-3358 -3359 0
-3358 -3360 0
-3359 -3360 0
3361 3362 3363 3364 0
-3361 -3362 0
-3361 -3363 0
-3361 -3364 0
-3362 -3363 0
-3362 -3364 0
-3363 -3364 0
3365 3366 3367 3368 0
-3365 -3366 0
-3365 -3367 0
-3365 -3368 0
-3366 -3367 0
-3366 -3368 0
-3367 -3368 0
3369 3370 3371 3372 0
-3369 -3370 0
-3369 -3371 0
-3369 -3372 0
-3370 -3371 0
-3370 -3372 0
-3371 -3372 0
3373 3374 3375 3376 0
-3373 -3374 0
-3373 -3375 0
-3373 -3376 0
-3374 -3375 0
-3374 -3376 0
-3375 -3376 0
3377 3378 3379 3380 0
-3377 -3378 0
-3377 -3379 0
-3377 -3380 0
-3378 -3379 0
-3378 -3380 0
-3379 -3380 0
3381 3382 3383 3384 0
-3381 -3382 0
-3381 -3383 0
-3381 -3384 0
-3382 -3383 0
-3382 -3384 0
-3383 -3384 0
3385 3386 3387 3388 0
-3385 -3386 0
-3385 -3387 0
-3385 -3388 0
-3386 -3387 0
-3386 -3388 0
-3387 -3388 0
3389 3390 3391 3392 0
-3389 -3390 0
-3389 -3391 0
-3389 -3392 0
-3390 -3391 0
-3390 -3392 0
-3391 -3392 0
3393 3394 3395 3396 0
-3393 -3394 0
-3393 -3395 0
-3393 -3396 0
-3394 -3395 0
-3394 -3396 0
-3395 -3396 0
3397 3398 3399 3400 0
-3397 -3398 0
-3397 -3399 0
-3397 -3400 0
-3398 -3399 0
-3398 -3400 0
-3399 -3400 0
3401 3402 3403 3404 0
-3401 -3402 0
-3401 -3403 0
-3401 -3404 0
-3402 -3403 0
-3402 -3404 0
-3403 -3404 0
3405 3406 3407 3408 0
-3405 -3406 0
-3405 -3407 0
-3405 -3408 0
-3406 -3407 0
-3406 -3408 0
-3407 -3408 0
3409 3410 3411 3412 0
-3409 -3410 0
-3409 -3411 0
-3409 -3412 0
-3410 -3411 0
-3410 -3412 0
-3411 -3412 0
3413 3414 3415 3416 0
-3413 -3414 0
-3413 -3415 0
-3413 -3416 0
-3414 -3415 0
-3414 -3416 0
-3415 -3416 0
3417 3418 3419 3420 0
-3417 -3418 0
-3417 -3419 0
-3417 -3420 0
-3418 -3419 0
-3418 -3420 0
-3419 -3420 0
3421 3422 3423 3424 0
-3421 -3422 0
-3421 -3423 0
-3421 -3424 0
-3422 -3423 0
-3422 -3424 0
-3423 -3424 0
3425 3426 3427 3428 0
-3425 -3426 0
-3425 -3427 0
-3425 -3428 0
-3426 -3427 0
-3426 -3428 0
-3427 -3428 0
3429 3430 3431 3432 0
-3429 -3430 0
-3429 -3431 0
-3429 -3432 0
-3430 -3431 0
-3430 -3432 0
-3431 -3432 0
3433 3434 3435 3436 0
-3433 -3434 0
-3433 -3435 0
-3433 -3436 0
-3434 -3435 0
-3434 -3436 0
-3435 -3436 0
3437 3438 3439 3440 0
-3437 -3438 0
-3437 -3439 0
-3437 -3440 0
-3438 -3439 0
-3438 -3440 0
-3439 -3440 0
3441 3442 3443 3444 0
-3441 -3442 0
-3441 -3443 0
-3441 -3444 0
-3442 -3443 0
-3442 -3444 0
-3443 -3444 0
3445 3446 3447 3448 0
-3445 -3446 0
-3445 -3447 0
-3445 -3448 0
-3446 -3447 0
-3446 -3448 0
-3447 -3448 0
3449 3450 3451 3452 0
-3449 -3450 0
-3449 -3451 0
-3449 -3452 0
-3450 -3451 0
-3450 -3452 0
-3451 -3452 0
3453 3454 3455 3456 0
-3453 -3454 0
-3453 -3455 0
-3453 -3456 0
-3454 -3455 0
-3454 -3456 0
-3455 -3456 0
3457 3458 3459 3460 0
-3457 -3458 0
-3457 -3459 0
-3457 -3460 0
-3458 -3459 0
-3458 -3460 0
-3459 -3460 0
3461 3462 3463 3464 0
-3461 -3462 0
-3461 -3463 0
-3461 -3464 0
-3462 -3463 0
-3462 -3464 0
-3463 -3464 0
3465 3466 3467 3468 0
-3465 -3466 0
-3465 -3467 0
-3465 -3468 0
-3466 -3467 0
-3466 -3468 0
-3467 -3468 0
3469 3470 3471 3472 0
-3469 -3470 0
-3469 -3471 0
-3469 -3472 0
-3470 -3471 0
-3470 -3472 0
-3471 -3472 0
3473 3474 3475 3476 0
-3473 -3474 0
-3473 -3475 0
-3473 -3476 0
-3474 -3475 0
-3474 -3476 0
-3475 -3476 0
3477 3478 3479 3480 0
-3477 -3478 0
-3477 -3479 0
-3477 -3480 0
-3478 -3479 0
-3478 -3480 0
-3479 -3480 0
3481 3482 3483 3484 0
-3481 -3482 0
-3481 -3483 0
-3481 -3484 0
-3482 -3483 0
-3482 -3484 0
-3483 -3484 0
3485 3486 3487 3488 0
-3485 -3486 0
-3485 -3487 0
-3485 -3488 0
-3486 -3487 0
-3486 -3488 0
-3487 -3488 0
3489 3490 3491 3492 0
-3489 -3490 0
-3489 -3491 0
-3489 -3492 0
-3490 -3491 0
-3490 -3492 0
-3491 -3492 0
3493 3494 3495 3496 0
-3493 -3494 0
-3493 -3495 0
-3493 -3496 0
-3494 -3495 0
-3494 -3496 0
-3495 -3496 0
3497 3498 3499 3500 0
-3497 -3498 0
-3497 -3499 0
-3497 -3500 0
-3498 -3499 0
-3498 -3500 0
-3499 -3500 0
3501 3502 3503 3504 0
-3501 -3502 0
-3501 -3503 0
-3501 -3504 0
-3502 -3503 0
-3502 -3504 0
-3503 -3504 0
3505 3506 3507 3508 0
-3505 -3506 0
-3505 -3507 0
-3505 -3508 0
-3506 -3507 0
-3506 -3508 0
-3507 -3508 0
3509 3510 3511 3512 0
-3509 -3510 0
-3509 -3511 0
-3509 -3512 0
-3510 -3511 0
-3510 -3512 0
-3511 -3512 0
3513 3514 3515 3516 0
-3513 -3514 0
-3513 -3515 0
-3513 -3516 0
-3514 -3515 0
-3514 -3516 0
-3515 -3516 0
3517 3518 3519 3520 0
-3517 -3518 0
-3517 -3519 0
-3517 -3520 0
-3518 -3519 0
-3518 -3520 0
-3519 -3520 0
3521 3522 3523 3524 0
-3521 -3522 0
-3521 -3523 0
-3521 -3524 0
-3522 -3523 0
-3522 -3524 0
-3523 -3524 0
3525 3526 3527 3528 0
-3525 -3526 0
-3525 -3527 0
-3525 -3528 0
-3526 -3527 0
-3526 -3528 0
-3527 -3528 0
3529 3530 3531 3532 0
-3529 -3530 0
-3529 -3531 0
-3529 -3532 0
-3530 -3531 0
-3530 -3532 0
-3531 -3532 0
3533 3534 3535 3536 0
-3533 -3534 0
-3533 -3535 0
-3533 -3536 0
-3534 -3535 0
-3534 -3536 0
-3535 -3536 0
3537 3538 3539 3540 0
-3537 -3538 0
-3537 -3539 0
-3537 -3540 0
-3538 -3539 0
-3538 -3540 0
-3539 -3540 0
3541 3542 3543 3544 0
-3541 -3542 0
-3541 -3543 0
-3541 -3544 0
-3542 -3543 0
-3542 -3544 0
-3543 -3544 0
3545 3546 3547 3548 0
-3545 -3546 0
-3545 -3547 0
-3545 -3548 0
-3546 -3547 0
-3546 -3548 0
-3547 -3548 0
3549 3550 3551 3552 0
-3549 -3550 0
-3549 -3551 0
-3549 -3552 0
-3550 -3551 0
-3550 -3552 0
-3551 -3552 0
3553 3554 3555 3556 0
-3553 -3554 0
-3553 -3555 0
-3553 -3556 0
-3554 -3555 0
-3554 -3556 0
-3555 -3556 0
3557 3558 3559 3560 0
-3557 -3558 0
-3557 -3559 0
-3557 -3560 0
-3558 -3559 0
-3558 -3560 0
-3559 -3560 0
3561 3562 3563 3564 0
-3561 -3562 0
-3561 -3563 0
-3561 -3564 0
-3562 -3563 0
-3562 -3564 0
-3563 -3564 0
3565 3566 3567 3568 0
-3565 -3566 0
-3565 -3567 0
-3565 -3568 0
-3566 -3567 0
-3566 -3568 0
-3567 -3568 0
3569 3570 3571 3572 0
-3569 -3570 0
-3569 -3571 0
-3569 -3572 0
-3570 -3571 0
-3570 -3572 0
-3571 -3572 0
3573 3574 3575 3576 0
-3573 -3574 0
-3573 -3575 0
-3573 -3576 0
-3574 -3575 0
-3574 -3576 0
-3575 -3576 0
3577 3578 3579 3580 0
-3577 -3578 0
-3577 -3579 0
-3577 -3580 0
-3578 -3579 0
-3578 -3580 0
-3579 -3580 0
3581 3582 3583 3584 0
-3581 -3582 0
-3581 -3583 0
-3581 -3584 0
-3582 -3583 0
-3582 -3584 0
-3583 -3584 0
3585 3586 3587 3588 0
-3585 -3586 0
-3585 -3587 0
-3585 -3588 0
-3586 -3587 0
-3586 -3588 0
-3587 -3588 0
3589 3590 3591 3592 0
-3589 -3590 0
-3589 -3591 0
-3589 -3592 0
-3590 -3591 0
-3590 -3592 0
-3591 -3592 0
3593 3594 3595 3596 0
-3593 -3594 0
-3593 -3595 0
-3593 -3596 0
-3594 -3595 0
-3594 -3596 0
-3595 -3596 0
3597 3598 3599 3600 0
-3597 -3598 0
-3597 -3599 0
-3597 -3600 0
-3598 -3599 0
-3598 -3600 0
-3599 -3600 0
3601 3602 3603 3604 0
-3601 -3602 0
-3601 -3603 0
-3601 -3604 0
-3602 -3603 0
-3602 -3604 0
-3603 -3604 0
3605 3606 3607 3608 0
-3605 -3606 0
-3605 -3607 0
-3605 -3608 0
-3606 -3607 0
-3606 -3608 0
-3607 -3608 0
3609 3610 3611 3612 0
-3609 -3610 0
-3609 -3611 0
-3609 -3612 0
-3610 -3611 0
-3610 -3612 0
-3611 -3612 0
3613 3614 3615 3616 0
-3613 -3614 0
-3613 -3615 0
-3613 -3616 0
-3614 -3615 0
-3614 -3616 0
-3615 -3616 0
3617 3618 3619 3620 0
-3617 -3618 0
-3617 -3619 0
-3617 -3620 0
-3618 -3619 0
-3618 -3620 0
-3619 -3620 0
3621 3622 3623 3624 0
-3621 -3622 0
-3621 -3623 0
-3621 -3624 0
-3622 -3623 0
-3622 -3624 0
-3623 -3624 0
3625 3626 3627 3628 0
-3625 -3626 0
-3625 -3627 0
-3625 -3628 0
-3626 -3627 0
-3626 -3628 0
-3627 -3628 0
3629 3630 3631 3632 0
-3629 -3630 0
-3629 -3631 0
-3629 -3632 0
-3630 -3631 0
-3630 -3632 0
-3631 -3632 0
3633 3634 3635 3636 0
-3633 -3634 0
-3633 -3635 0
-3633 -3636 0
-3634 -3635 0
-3634 -3636 0
-3635 -3636 0
3637 3638 3639 3640 0
-3637 -3638 0
-3637 -3639 0
-3637 -3640 0
-3638 -3639 0
-3638 -3640 0
-3639 -3640 0
3641 3642 3643 3644 0
-3641 -3642 0
-3641 -3643 0
-3641 -3644 0
-3642 -3643 0
-3642 -3644 0
-3643 -3644 0
3645 3646 3647 3648 0
-3645 -3646 0
-3645 -3647 0
-3645 -3648 0
-3646 -3647 0
-3646 -3648 0
-3647 -3648 0
3649 3650 3651 3652 0
-3649 -3650 0
-3649 -3651 0
-3649 -3652 0
-3650 -3651 0
-3650 -3652 0
-3651 -3652 0
3653 3654 3655 3656 0
-3653 -3654 0
-3653 -3655 0
-3653 -3656 0
-3654 -3655 0
-3654 -3656 0
-3655 -3656 0
3657 3658 3659 3660 0
-3657 -3658 0
-3657 -3659 0
-3657 -3660 0
-3658 -3659 0
-3658 -3660 0
-3659 -3660 0
3661 3662 3663 3664 0
-3661 -3662 0
-3661 -3663 0
-3661 -3664 0
-3662 -3663 0
-3662 -3664 0
-3663 -3664 0
3665 3666 3667 3668 0
-3665 -3666 0
-3665 -3667 0
-3665 -3668 0
-3666 -3667 0
-3666 -3668 0
-3667 -3668 0
3669 3670 3671 3672 0
-3669 -3670 0
-3669 -3671 0
-3669 -3672 0
-3670 -3671 0
-3670 -3672 0
-3671 -3672 0
3673 3674 3675 3676 0
-3673 -3674 0
-3673 -3675 0
-3673 -3676 0
-3674 -3675 0
-3674 -3676 0
-3675 -3676 0
3677 3678 3679 3680 0
-3677 -3678 0
-3677 -3679 0
-3677 -3680 0
-3678 -3679 0
-3678 -3680 0
-3679 -3680 0
3681 3682 3683 3684 0
-3681 -3682 0
-3681 -3683 0
-3681 -3684 0
-3682 -3683 0
-3682 -3684 0
-3683 -3684 0
3685 3686 3687 3688 0
-3685 -3686 0
-3685 -3687 0
-3685 -3688 0
-3686 -3687 0
-3686 -3688 0
-3687 -3688 0
3689 3690 3691 3692 0
-3689 -3690 0
-3689 -3691 0
-3689 -3692 0
-3690 -3691 0
-3690 -3692 0
-3691 -3692 0
3693 3694 3695 3696 0
-3693 -3694 0
-3693 -3695 0
-3693 -3696 0
-3694 -3695 0
-3694 -3696 0
-3695 -3696 0
3697 3698 3699 3700 0
-3697 -3698 0
-3697 -3699 0
-3697 -3700 0
-3698 -3699 0
-3698 -3700 0
-3699 -3700 0
3701 3702 3703 3704 0
-3701 -3702 0
-3701 -3703 0
-3701 -3704 0
-3702 -3703 0
-3702 -3704 0
-3703 -3704 0
3705 3706 3707 3708 0
-3705 -3706 0
-3705 -3707 0
-3705 -3708 0
-3706 -3707 0
-3706 -3708 0
-3707 -3708 0
3709 3710 3711 3712 0
-3709 -3710 0
-3709 -3711 0
-3709 -3712 0
-3710 -3711 0
-3710 -3712 0
-3711 -3712 0
3713 3714 3715 3716 0
-3713 -3714 0
-3713 -3715 0
-3713 -3716 0
-3714 -3715 0
-3714 -3716 0
-3715 -3716 0
3717 3718 3719 3720 0
-3717 -3718 0
-3717 -3719 0
-3717 -3720 0
-3718 -3719 0
-3718 -3720 0
-3719 -3720 0
3721 3722 3723 3724 0
-3721 -3722 0
-3721 -3723 0
-3721 -3724 0
-3722 -3723 0
-3722 -3724 0
-3723 -3724 0
3725 3726 3727 3728 0
-3725 -3726 0
-3725 -3727 0
-3725 -3728 0
-3726 -3727 0
-3726 -3728 0
-3727 -3728 0
3729 3730 3731 3732 0
-3729 -3730 0
-3729 -3731 0
-3729 -3732 0
-3730 -3731 0
-3730 -3732 0
-3731 -3732 0
3733 3734 3735 3736 0
-3733 -3734 0
-3733 -3735 0
-3733 -3736 0
-3734 -3735 0
-3734 -3736 0
-3735 -3736 0
3737 3738 3739 3740 0
-3737 -3738 0
-3737 -3739 0
-3737 -3740 0
-3738 -3739 0
-3738 -3740 0
-3739 -3740 0
3741 3742 3743 3744 0
-3741 -3742 0
-3741 -3743 0
-3741 -3744 0
-3742 -3743 0
-3742 -3744 0
-3743 -3744 0
3745 3746 3747 3748 0
-3745 -3746 0
-3745 -3747 0
-3745 -3748 0
-3746 -3747 0
-3746 -3748 0
-3747 -3748 0
3749 3750 3751 3752 0
-3749 -3750 0
-3749 -3751 0
-3749 -3752 0
-3750 -3751 0
-3750 -3752 0
-3751 -3752 0
3753 3754 3755 3756 0
-3753 -3754 0
-3753 -3755 0
-3753 -3756 0
-3754 -3755 0
-3754 -3756 0
-3755 -3756 0
3757 3758 3759 3760 0
-3757 -3758 0
-3757 -3759 0
-3757 -3760 0
-3758 -3759 0
-3758 -3760 0
-3759 -3760 0
3761 3762 3763 3764 0
-3761 -3762 0
-3761 -3763 0
-3761 -3764 0
-3762 -3763 0
-3762 -3764 0
-3763 -3764 0
3765 3766 3767 3768 0
-3765 -3766 0
-3765 -3767 0
-3765 -3768 0
-3766 -3767 0
-3766 -3768 0
-3767 -3768 0
3769 3770 3771 3772 0
-3769 -3770 0
-3769 -3771 0
-3769 -3772 0
-3770 -3771 0
-3770 -3772 0
-3771 -3772 0
3773 3774 3775 3776 0
-3773 -3774 0
-3773 -3775 0
-3773 -3776 0
-3774 -3775 0
-3774 -3776 0
-3775 -3776 0
3777 3778 3779 3780 0
-3777 -3778 0
-3777 -3779 0
-3777 -3780 0
-3778 -3779 0
-3778 -3780 0
-3779 -3780 0
3781 3782 3783 3784 0
-3781 -3782 0
-3781 -3783 0
-3781 -3784 0
-3782 -3783 0
-3782 -3784 0
-3783 -3784 0
3785 3786 3787 3788 0
-3785 -3786 0
-3785 -3787 0
-3785 -3788 0
-3786 -3787 0
-3786 -3788 0
-3787 -3788 0
3789 3790 3791 3792 0
-3789 -3790 0
-3789 -3791 0
-3789 -3792 0
-3790 -3791 0
-3790 -3792 0
-3791 -3792 0
3793 3794 3795 3796 0
-3793 -3794 0
-3793 -3795 0
-3793 -3796 0
-3794 -3795 0
-3794 -3796 0
-3795 -3796 0
3797 3798 3799 3800 0
-3797 -3798 0
-3797 -3799 0
-3797 -3800 0
-3798 -3799 0
-3798 -3800 0
-3799 -3800 0
3801 3802 3803 3804 0
-3801 -3802 0
-3801 -3803 0
-3801 -3804 0
-3802 -3803 0
-3802 -3804 0
-3803 -3804 0
3805 3806 3807 3808 0
-3805 -3806 0
-3805 -3807 0
-3805 -3808 0
-3806 -3807 0
-3806 -3808 0
-3807 -3808 0
3809 3810 3811 3812 0
-3809 -3810 0
-3809 -3811 0
-3809 -3812 0
-3810 -3811 0
-3810 -3812 0
-3811 -3812 0
3813 3814 3815 3816 0
-3813 -3814 0
-3813 -3815 0
-3813 -3816 0
-3814 -3815 0
-3814 -3816 0
-3815 -3816 0
3817 3818 3819 3820 0
-3817 -3818 0
-3817 -3819 0
-3817 -3820 0
-3818 -3819 0
-3818 -3820 0
-3819 -3820 0
3821 3822 3823 3824 0
-3821 -3822 0
-3821 -3823 0
-3821 -3824 0
-3822 -3823 0
-3822 -3824 0
-3823 -3824 0
3825 3826 3827 3828 0
-3825 -3826 0
-3825 -3827 0
-3825 -3828 0
-3826 -3827 0
-3826 -3828 0
-3827 -3828 0
3829 3830 3831 3832 0
-3829 -3830 0
-3829 -3831 0
-3829 -3832 0
-3830 -3831 0
-3830 -3832 0
-3831 -3832 0
3833 3834 3835 3836 0
-3833 -3834 0
-3833 -3835 0
-3833 -3836 0
-3834 -3835 0
-3834 -3836 0
-3835 -3836 0
3837 3838 3839 3840 0
-3837 -3838 0
-3837 -3839 0
-3837 -3840 0
-3838 -3839 0
-3838 -3840 0
-3839 -3840 0
3841 3842 3843 3844 0
-3841 -3842 0
-3841 -3843 0
-3841 -3844 0
-3842 -3843 0
-3842 -3844 0
-3843 -3844 0
3845 3846 3847 3848 0
-3845 -3846 0
-3845 -3847 0
-3845 -3848 0
-3846 -3847 0
-3846 -3848 0
-3847 -3848 0
3849 3850 3851 3852 0
-3849 -3850 0
-3849 -3851 0
-3849 -3852 0
-3850 -3851 0
-3850 -3852 0
-3851 -3852 0
3853 3854 3855 3856 0
-3853 -3854 0
-3853 -3855 0
-3853 -3856 0
-3854 -3855 0
-3854 -3856 0
-3855 -3856 0
3857 3858 3859 3860 0
-3857 -3858 0
-3857 -3859 0
-3857 -3860 0
-3858 -3859 0
-3858 -3860 0
-3859 -3860 0
3861 3862 3863 3864 0
-3861 -3862 0
-3861 -3863 0
-3861 -3864 0
-3862 -3863 0
-3862 -3864 0
-3863 -3864 0
3865 3866 3867 3868 0
-3865 -3866 0
-3865 -3867 0
-3865 -3868 0
-3866 -3867 0
-3866 -3868 0
-3867 -3868 0
3869 3870 3871 3872 0
-3869 -3870 0
-3869 -3871 0
-3869 -3872 0
-3870 -3871 0
-3870 -3872 0
-3871 -3872 0
3873 3874 3875 3876 0
-3873 -3874 0
-3873 -3875 0
-3873 -3876 0
-3874 -3875 0
-3874 -3876 0
-3875 -3876 0
3877 3878 3879 3880 0
-3877 -3878 0
-3877 -3879 0
-3877 -3880 0
-3878 -3879 0
-3878 -3880 0
-3879 -3880 0
3881 3882 3883 3884 0
-3881 -3882 0
-3881 -3883 0
-3881 -3884 0
-3882 -3883 0
-3882 -3884 0
-3883 -3884 0
3885 3886 3887 3888 0
-3885 -3886 0
-3885 -3887 0
-3885 -3888 0
-3886 -3887 0
-3886 -3888 0
-3887 -3888 0
3889 3890 3891 3892 0
-3889 -3890 0
-3889 -3891 0
-3889 -3892 0
-3890 -3891 0
-3890 -3892 0
-3891 -3892 0
3893 3894 3895 3896 0
-3893 -3894 0
-3893 -3895 0
-3893 -3896 0
-3894 -3895 0
-3894 -3896 0
-3895 -3896 0
3897 3898 3899 3900 0
-3897 -3898 0
-3897 -3899 0
-3897 -3900 0
-3898 -3899 0
-3898 -3900 0
-3899 -3900 0
3901 3902 3903 3904 0
-3901 -3902 0
-3901 -3903 0
-3901 -3904 0
-3902 -3903 0
-3902 -3904 0
-3903 -3904 0
3905 3906 3907 3908 0
-3905 -3906 0
-3905 -3907 0
-3905 -3908 0
-3906 -3907 0
-3906 -3908 0
-3907 -3908 0
3909 3910 3911 3912 0
-3909 -3910 0
-3909 -3911 0
-3909 -3912 0
-3910 -3911 0
-3910 -3912 0
-3911 -3912 0
3913 3914 3915 3916 0
-3913 -3914 0
-3913 -3915 0
-3913 -3916 0
-3914 -3915 0
-3914 -3916 0
-3915 -3916 0
3917 3918 3919 3920 0
-3917 -3918 0
-3917 -3919 0
-3917 -3920 0
-3918 -3919 0
-3918 -3920 0
-3919 -3920 0
3921 3922 3923 3924 0
-3921 -3922 0
-3921 -3923 0
-3921 -3924 0
-3922 -3923 0
-3922 -3924 0
-3923 -3924 0
3925 3926 3927 3928 0
-3925 -3926 0
-3925 -3927 0
-3925 -3928 0
-3926 -3927 0
-3926 -3928 0
-3927 -3928 0
3929 3930 3931 3932 0
-3929 -3930 0
-3929 -3931 0
-3929 -3932 0
-3930 -3931 0
-3930 -3932 0
-3931 -3932 0
3933 3934 3935 3936 0
-3933 -3934 0
-3933 -3935 0
-3933 -3936 0
-3934 -3935 0
-3934 -3936 0
-3935 -3936 0
3937 3938 3939 3940 0
-3937 -3938 0
-3937 -3939 0
-3937 -3940 0
-3938 -3939 0
-3938 -3940 0
-3939 -3940 0
3941 3942 3943 3944 0
-3941 -3942 0
-3941 -3943 0
-3941 -3944 0
-3942 -3943 0
-3942 -3944 0
-3943 -3944 0
3945 3946 3947 3948 0
-3945 -3946 0
-3945 -3947 0
-3945 -3948 0
-3946 -3947 0
-3946 -3948 0
-3947 -3948 0
3949 3950 3951 3952 0
-3949 -3950 0
-3949 -3951 0
-3949 -3952 0
-3950 -3951 0
-3950 -3952 0
-3951 -3952 0
3953 3954 3955 3956 0
-3953 -3954 0
-3953 -3955 0
-3953 -3956 0
-3954 -3955 0
-3954 -3956 0
-3955 -3956 0
3957 3958 3959 3960 0
-3957 -3958 0
-3957 -3959 0
-3957 -3960 0
-3958 -3959 0
-3958 -3960 0
-3959 -3960 0
3961 3962 3963 3964 0
-3961 -3962 0
-3961 -3963 0
-3961 -3964 0
-3962 -3963 0
-3962 -3964 0
-3963 -3964 0
3965 3966 3967 3968 0
-3965 -3966 0
-3965 -3967 0
-3965 -3968 0
-3966 -3967 0
-3966 -3968 0
-3967 -3968 0
3969 3970 3971 3972 0
-3969 -3970 0
-3969 -3971 0
-3969 -3972 0
-3970 -3971 0
-3970 -3972 0
-3971 -3972 0
3973 3974 3975 3976 0
-3973 -3974 0
-3973 -3975 0
-3973 -3976 0
-3974 -3975 0
-3974 -3976 0
-3975 -3976 0
3977 3978 3979 3980 0
-3977 -3978 0
-3977 -3979 0
-3977 -3980 0
-3978 -3979 0
-3978 -3980 0
-3979 -3980 0
3981 3982 3983 3984 0
-3981 -3982 0
-3981 -3983 0
-3981 -3984 0
-3982 -3983 0
-3982 -3984 0
-3983 -3984 0
3985 3986 3987 3988 0
-3985 -3986 0
-3985 -3987 0
-3985 -3988 0
-3986 -3987 0
-3986 -3988 0
-3987 -3988 0
3989 3990 3991 3992 0
-3989 -3990 0
-3989 -3991 0
-3989 -3992 0
-3990 -3991 0
-3990 -3992 0
-3991 -3992 0
3993 3994 3995 3996 0
-3993 -3994 0
-3993 -3995 0
-3993 -3996 0
-3994 -3995 0
-3994 -3996 0
-3995 -3996 0
3997 3998 3999 4000 0
-3997 -3998 0
-3997 -3999 0
-3997 -4000 0
-3998 -3999 0
-3998 -4000 0
-3999 -4000 0
4001 4002 4003 4004 0
-4001 -4002 0
-4001 -4003 0
-4001 -4004 0
-4002 -4003 0
-4002 -4004 0
-4003 -4004 0
4005 4006 4007 4008 0
-4005 -4006 0
-4005 -4007 0
-4005 -4008 0
-4006 -4007 0
-4006 -4008 0
-4007 -4008 0
4009 4010 4011 4012 0
-4009 -4010 0
-4009 -4011 0
-4009 -4012 0
-4010 -4011 0
-4010 -4012 0
-4011 -4012 0
4013 4014 4015 4016 0
-4013 -4014 0
-4013 -4015 0
-4013 -4016 0
-4014 -4015 0
-4014 -4016 0
-4015 -4016 0
4017 4018 4019 4020 0
-4017 -4018 0
-4017 -4019 0
-4017 -4020 0
-4018 -4019 0
-4018 -4020 0
-4019 -4020 0
4021 4022 4023 4024 0
-4021 -4022 0
-4021 -4023 0
-4021 -4024 0
-4022 -4023 0
-4022 -4024 0
-4023 -4024 0
4025 4026 4027 4028 0
-4025 -4026 0
-4025 -4027 0
-4025 -4028 0
-4026 -4027 0
-4026 -4028 0
-4027 -4028 0
4029 4030 4031 4032 0
-4029 -4030 0
-4029 -4031 0
-4029 -4032 0
-4030 -4031 0
-4030 -4032 0
-4031 -4032 0
4033 4034 4035 4036 0
-4033 -4034 0
-4033 -4035 0
-4033 -4036 0
-4034 -4035 0
-4034 -4036 0
-4035 -4036 0
4037 4038 4039 4040 0
-4037 -4038 0
-4037 -4039 0
-4037 -4040 0
-4038 -4039 0
-4038 -4040 0
-4039 -4040 0
4041 4042 4043 4044 0
-4041 -4042 0
-4041 -4043 0
-4041 -4044 0
-4042 -4043 0
-4042 -4044 0
-4043 -4044 0
4045 4046 4047 4048 0
-4045 -4046 0
-4045 -4047 0
-4045 -4048 0
-4046 -4047 0
-4046 -4048 0
-4047 -4048 0
4049 4050 4051 4052 0
-4049 -4050 0
-4049 -4051 0
-4049 -4052 0
-4050 -4051 0
-4050 -4052 0
-4051 -4052 0
4053 4054 4055 4056 0
-4053 -4054 0
-4053 -4055 0
-4053 -4056 0
-4054 -4055 0
-4054 -4056 0
-4055 -4056 0
4057 4058 4059 4060 0
-4057 -4058 0
-4057 -4059 0
-4057 -4060 0
-4058 -4059 0
-4058 -4060 0
-4059 -4060 0
4061 4062 4063 4064 0
-4061 -4062 0
-4061 -4063 0
-4061 -4064 0
-4062 -4063 0
-4062 -4064 0
-4063 -4064 0
4065 4066 4067 4068 0
-4065 -4066 0
-4065 -4067 0
-4065 -4068 0
-4066 -4067 0
-4066 -4068 0
-4067 -4068 0
4069 4070 4071 4072 0
-4069 -4070 0
-4069 -4071 0
-4069 -4072 0
-4070 -4071 0
-4070 -4072 0
-4071 -4072 0
4073 4074 4075 4076 0
-4073 -4074 0
-4073 -4075 0
-4073 -4076 0
-4074 -4075 0
-4074 -4076 0
-4075 -4076 0
4077 4078 4079 4080 0
-4077 -4078 0
-4077 -4079 0
-4077 -4080 0
-4078 -4079 0
-4078 -4080 0
-4079 -4080 0
4081 4082 4083 4084 0
-4081 -4082 0
-4081 -4083 0
-4081 -4084 0
-4082 -4083 0
-4082 -4084 0
-4083 -4084 0
4085 4086 4087 4088 0
-4085 -4086 0
-4085 -4087 0
-4085 -4088 0
-4086 -4087 0
-4086 -4088 0
-4087 -4088 0
4089 4090 4091 4092 0
-4089 -4090 0
-4089 -4091 0
-4089 -4092 0
-4090 -4091 0
-4090 -4092 0
-4091 -4092 0
4093 4094 4095 4096 0
-4093 -4094 0
-4093 -4095 0
-4093 -4096 0
-4094 -4095 0
-4094 -4096 0
-4095 -4096 0
4097 4098 4099 4100 0
-4097 -4098 0
-4097 -4099 0
-4097 -4100 0
-4098 -4099 0
-4098 -4100 0
-4099 -4100 0
4101 4102 4103 4104 0
-4101 -4102 0
-4101 -4103 0
-4101 -4104 0
-4102 -4103 0
-4102 -4104 0
-4103 -4104 0
4105 4106 4107 4108 0
-4105 -4106 0
-4105 -4107 0
-4105 -4108 0
-4106 -4107 0
-4106 -4108 0
-4107 -4108 0
4109 4110 4111 4112 0
-4109 -4110 0
-4109 -4111 0
-4109 -4112 0
-4110 -4111 0
-4110 -4112 0
-4111 -4112 0
4113 4114 4115 4116 0
-4113 -4114 0
-4113 -4115 0
-4113 -4116 0
-4114 -4115 0
-4114 -4116 0
-4115 -4116 0
4117 4118 4119 4120 0
-4117 -4118 0
-4117 -4119 0
-4117 -4120 0
-4118 -4119 0
-4118 -4120 0
-4119 -4120 0
4121 4122 4123 4124 0
-4121 -4122 0
-4121 -4123 0
-4121 -4124 0
-4122 -4123 0
-4122 -4124 0
-4123 -4124 0
4125 4126 4127 4128 0
-4125 -4126 0
-4125 -4127 0
-4125 -4128 0
-4126 -4127 0
-4126 -4128 0
-4127 -4128 0
4129 4130 4131 4132 0
-4129 -4130 0
-4129 -4131 0
-4129 -4132 0
-4130 -4131 0
-4130 -4132 0
-4131 -4132 0
4133 4134 4135 4136 0
-4133 -4134 0
-4133 -4135 0
-4133 -4136 0
-4134 -4135 0
-4134 -4136 0
-4135 -4136 0
4137 4138 4139 4140 0
-4137 -4138 0
-4137 -4139 0
-4137 -4140 0
-4138 -4139 0
-4138 -4140 0
-4139 -4140 0
4141 4142 4143 4144 0
-4141 -4142 0
-4141 -4143 0
-4141 -4144 0
-4142 -4143 0
-4142 -4144 0
-4143 -4144 0
4145 4146 4147 4148 0
-4145 -4146 0
-4145 -4147 0
-4145 -4148 0
-4146 -4147 0
-4146 -4148 0
-4147 -4148 0
4149 4150 4151 4152 0
-4149 -4150 0
-4149 -4151 0
-4149 -4152 0
-4150 -4151 0
-4150 -4152 0
-4151 -4152 0
4153 4154 4155 4156 0
-4153 -4154 0
-4153 -4155 0
-4153 -4156 0
-4154 -4155 0
-4154 -4156 0
-4155 -4156 0
4157 4158 4159 4160 0
-4157 -4158 0
-4157 -4159 0
-4157 -4160 0
-4158 -4159 0
-4158 -4160 0
-4159 -4160 0
4161 4162 4163 4164 0
-4161 -4162 0
-4161 -4163 0
-4161 -4164 0
-4162 -4163 0
-4162 -4164 0
-4163 -4164 0
4165 4166 4167 4168 0
-4165 -4166 0
-4165 -4167 0
-4165 -4168 0
-4166 -4167 0
-4166 -4168 0
-4167 -4168 0
4169 4170 4171 4172 0
-4169 -4170 0
-4169 -4171 0
-4169 -4172 0
-4170 -4171 0
-4170 -4172 0
-4171 -4172 0
4173 4174 4175 4176 0
-4173 -4174 0
-4173 -4175 0
-4173 -4176 0
-4174 -4175 0
-4174 -4176 0
-4175 -4176 0
4177 4178 4179 4180 0
-4177 -4178 0
-4177 -4179 0
-4177 -4180 0
-4178 -4179 0
-4178 -4180 0
-4179 -4180 0
4181 4182 4183 4184 0
-4181 -4182 0
-4181 -4183 0
-4181 -4184 0
-4182 -4183 0
-4182 -4184 0
-4183 -4184 0
4185 4186 4187 4188 0
-4185 -4186 0
-4185 -4187 0
-4185 -4188 0
-4186 -4187 0
-4186 -4188 0
-4187 -4188 0
4189 4190 4191 4192 0
-4189 -4190 0
-4189 -4191 0
-4189 -4192 0
-4190 -4191 0
-4190 -4192 0
-4191 -4192 0
4193 4194 4195 4196 0
-4193 -4194 0
-4193 -4195 0
-4193 -4196 0
-4194 -4195 0
-4194 -4196 0
-4195 -4196 0
4197 4198 4199 4200 0
-4197 -4198 0
-4197 -4199 0
-4197 -4200 0
-4198 -4199 0
-4198 -4200 0
-4199 -4200 0
4201 4202 4203 4204 0
-4201 -4202 0
-4201 -4203 0
-4201 -4204 0
-4202 -4203 0
-4202 -4204 0
-4203 -4204 0
4205 4206 4207 4208 0
-4205 -4206 0
-4205 -4207 0
-4205 -4208 0
-4206 -4207 0
-4206 -4208 0
-4207 -4208 0
4209 4210 4211 4212 0
-4209 -4210 0
-4209 -4211 0
-4209 -4212 0
-4210 -4211 0
-4210 -4212 0
-4211 -4212 0
4213 4214 4215 4216 0
-4213 -4214 0
-4213 -4215 0
-4213 -4216 0
-4214 -4215 0
-4214 -4216 0
-4215 -4216 0
4217 4218 4219 4220 0
-4217 -4218 0
-4217 -4219 0
-4217 -4220 0
-4218 -4219 0
-4218 -4220 0
-4219 -4220 0
4221 4222 4223 4224 0
-4221 -4222 0
-4221 -4223 0
-4221 -4224 0
-4222 -4223 0
-4222 -4224 0
-4223 -4224 0
4225 4226 4227 4228 0
-4225 -4226 0
-4225 -4227 0
-4225 -4228 0
-4226 -4227 0
-4226 -4228 0
-4227 -4228 0
4229 4230 4231 4232 0
-4229 -4230 0
-4229 -4231 0
-4229 -4232 0
-4230 -4231 0
-4230 -4232 0
-4231 -4232 0
4233 4234 4235 4236 0
-4233 -4234 0
-4233 -4235 0
-4233 -4236 0
-4234 -4235 0
-4234 -4236 0
-4235 -4236 0
4237 4238 4239 4240 0
-4237 -4238 0
-4237 -4239 0
-4237 -4240 0
-4238 -4239 0
-4238 -4240 0
-4239 -4240 0
4241 4242 4243 4244 0
-4241 -4242 0
-4241 -4243 0
-4241 -4244 0
-4242 -4243 0
-4242 -4244 0
-4243 -4244 0
4245 4246 4247 4248 0
-4245 -4246 0
-4245 -4247 0
-4245 -4248 0
-4246 -4247 0
-4246 -4248 0
-4247 -4248 0
4249 4250 4251 4252 0
-4249 -4250 0
-4249 -4251 0
-4249 -4252 0
-4250 -4251 0
-4250 -4252 0
-4251 -4252 0
4253 4254 4255 4256 0
-4253 -4254 0
-4253 -4255 0
-4253 -4256 0
-4254 -4255 0
-4254 -4256 0
-4255 -4256 0
4257 4258 4259 4260 0
-4257 -4258 0
-4257 -4259 0
-4257 -4260 0
-4258 -4259 0
-4258 -4260 0
-4259 -4260 0
4261 4262 4263 4264 0
-4261 -4262 0
-4261 -4263 0
-4261 -4264 0
-4262 -4263 0
-4262 -4264 0
-4263 -4264 0
4265 4266 4267 4268 0
-4265 -4266 0
-4265 -4267 0
-4265 -4268 0
-4266 -4267 0
-4266 -4268 0
-4267 -4268 0
4269 4270 4271 4272 0
-4269 -4270 0
-4269 -4271 0
-4269 -4272 0
-4270 -4271 0
-4270 -4272 0
-4271 -4272 0
4273 4274 4275 4276 0
-4273 -4274 0
-4273 -4275 0
-4273 -4276 0
-4274 -4275 0
-4274 -4276 0
-4275 -4276 0
4277 4278 4279 4280 0
-4277 -4278 0
-4277 -4279 0
-4277 -4280 0
-4278 -4279 0
-4278 -4280 0
-4279 -4280 0
4281 4282 4283 4284 0
-4281 -4282 0
-4281 -4283 0
-4281 -4284 0
-4282 -4283 0
-4282 -4284 0
-4283 -4284 0
4285 4286 4287 4288 0
-4285 -4286 0
-4285 -4287 0
-4285 -4288 0
-4286 -4287 0
-4286 -4288 0
-4287 -4288 0
4289 4290 4291 4292 0
-4289 -4290 0
-4289 -4291 0
-4289 -4292 0
-4290 -4291 0
-4290 -4292 0
-4291 -4292 0
4293 4294 4295 4296 0
-4293 -4294 0
-4293 -4295 0
-4293 -4296 0
-4294 -4295 0
-4294 -4296 0
-4295 -4296 0
4297 4298 4299 4300 0
-4297 -4298 0
-4297 -4299 0
-4297 -4300 0
-4298 -4299 0
-4298 -4300 0
-4299 -4300 0
4301 4302 4303 4304 0
-4301 -4302 0
-4301 -4303 0
-4301 -4304 0
-4302 -4303 0
-4302 -4304 0
-4303 -4304 0
4305 4306 4307 4308 0
-4305 -4306 0
-4305 -4307 0
-4305 -4308 0
-4306 -4307 0
-4306 -4308 0
-4307 -4308 0
4309 4310 4311 4312 0
-4309 -4310 0
-4309 -4311 0
-4309 -4312 0
-4310 -4311 0
-4310 -4312 0
-4311 -4312 0
4313 4314 4315 4316 0
-4313 -4314 0
-4313 -4315 0
-4313 -4316 0
-4314 -4315 0
-4314 -4316 0
-4315 -4316 0
4317 4318 4319 4320 0
-4317 -4318 0
-4317 -4319 0
-4317 -4320 0
-4318 -4319 0
-4318 -4320 0
-4319 -4320 0
4321 4322 4323 4324 0
-4321 -4322 0
-4321 -4323 0
-4321 -4324 0
-4322 -4323 0
-4322 -4324 0
-4323 -4324 0
4325 4326 4327 4328 0
-4325 -4326 0
-4325 -4327 0
-4325 -4328 0
-4326 -4327 0
-4326 -4328 0
-4327 -4328 0
4329 4330 4331 4332 0
-4329 -4330 0
-4329 -4331 0
-4329 -4332 0
-4330 -4331 0
-4330 -4332 0
-4331 -4332 0
4333 4334 4335 4336 0
-4333 -4334 0
-4333 -4335 0
-4333 -4336 0
-4334 -4335 0
-4334 -4336 0
-4335 -4336 0
4337 4338 4339 4340 0
-4337 -4338 0
-4337 -4339 0
-4337 -4340 0
-4338 -4339 0
-4338 -4340 0
-4339 -4340 0
4341 4342 4343 4344 0
-4341 -4342 0
-4341 -4343 0
-4341 -4344 0
-4342 -4343 0
-4342 -4344 0
-4343 -4344 0
4345 4346 4347 4348 0
-4345 -4346 0
-4345 -4347 0
-4345 -4348 0
-4346 -4347 0
-4346 -4348 0
-4347 -4348 0
4349 4350 4351 4352 0
-4349 -4350 0
-4349 -4351 0
-4349 -4352 0
-4350 -4351 0
-4350 -4352 0
-4351 -4352 0
4353 4354 4355 4356 0
-4353 -4354 0
-4353 -4355 0
-4353 -4356 0
-4354 -4355 0
-4354 -4356 0
-4355 -4356 0
4357 4358 4359 4360 0
-4357 -4358 0
-4357 -4359 0
-4357 -4360 0
-4358 -4359 0
-4358 -4360 0
-4359 -4360 0
4361 4362 4363 4364 0
-4361 -4362 0
-4361 -4363 0
-4361 -4364 0
-4362 -4363 0
-4362 -4364 0
-4363 -4364 0
4365 4366 4367 4368 0
-4365 -4366 0
-4365 -4367 0
-4365 -4368 0
-4366 -4367 0
-4366 -4368 0
-4367 -4368 0
4369 4370 4371 4372 0
-4369 -4370 0
-4369 -4371 0
-4369 -4372 0
-4370 -4371 0
-4370 -4372 0
-4371 -4372 0
4373 4374 4375 4376 0
-4373 -4374 0
-4373 -4375 0
-4373 -4376 0
-4374 -4375 0
-4374 -4376 0
-4375 -4376 0
4377 4378 4379 4380 0
-4377 -4378 0
-4377 -4379 0
-4377 -4380 0
-4378 -4379 0
-4378 -4380 0
-4379 -4380 0
4381 4382 4383 4384 0
-4381 -4382 0
-4381 -4383 0
-4381 -4384 0
-4382 -4383 0
-4382 -4384 0
-4383 -4384 0
4385 4386 4387 4388 0
-4385 -4386 0
-4385 -4387 0
-4385 -4388 0
-4386 -4387 0
-4386 -4388 0
-4387 -4388 0
4389 4390 4391 4392 0
-4389 -4390 0
-4389 -4391 0
-4389 -4392 0
-4390 -4391 0
-4390 -4392 0
-4391 -4392 0
4393 4394 4395 4396 0
-4393 -4394 0
-4393 -4395 0
-4393 -4396 0
-4394 -4395 0
-4394 -4396 0
-4395 -4396 0
4397 4398 4399 4400 0
-4397 -4398 0
-4397 -4399 0
-4397 -4400 0
-4398 -4399 0
-4398 -4400 0
-4399 -4400 0
4401 4402 4403 4404 0
-4401 -4402 0
-4401 -4403 0
-4401 -4404 0
-4402 -4403 0
-4402 -4404 0
-4403 -4404 0
4405 4406 4407 4408 0
-4405 -4406 0
-4405 -4407 0
-4405 -4408 0
-4406 -4407 0
-4406 -4408 0
-4407 -4408 0
4409 4410 4411 4412 0
-4409 -4410 0
-4409 -4411 0
-4409 -4412 0
-4410 -4411 0
-4410 -4412 0
-4411 -4412 0
4413 4414 4415 4416 0
-4413 -4414 0
-4413 -4415 0
-4413 -4416 0
-4414 -4415 0
-4414 -4416 0
-4415 -4416 0
4417 4418 4419 4420 0
-4417 -4418 0
-4417 -4419 0
-4417 -4420 0
-4418 -4419 0
-4418 -4420 0
-4419 -4420 0
4421 4422 4423 4424 0
-4421 -4422 0
-4421 -4423 0
-4421 -4424 0
-4422 -4423 0
-4422 -4424 0
-4423 -4424 0
4425 4426 4427 4428 0
-4425 -4426 0
-4425 -4427 0
-4425 -4428 0
-4426 -4427 0
-4426 -4428 0
-4427 -4428 0
4429 4430 4431 4432 0
-4429 -4430 0
-4429 -4431 0
-4429 -4432 0
-4430 -4431 0
-4430 -4432 0
-4431 -4432 0
4433 4434 4435 4436 0
-4433 -4434 0
-4433 -4435 0
-4433 -4436 0
-4434 -4435 0
-4434 -4436 0
-4435 -4436 0
4437 4438 4439 4440 0
-4437 -4438 0
-4437 -4439 0
-4437 -4440 0
-4438 -4439 0
-4438 -4440 0
-4439 -4440 0
4441 4442 4443 4444 0
-4441 -4442 0
-4441 -4443 0
-4441 -4444 0
-4442 -4443 0
-4442 -4444 0
-4443 -4444 0
4445 4446 4447 4448 0
-4445 -4446 0
-4445 -4447 0
-4445 -4448 0
-4446 -4447 0
-4446 -4448 0
-4447 -4448 0
4449 4450 4451 4452 0
-4449 -4450 0
-4449 -4451 0
-4449 -4452 0
-4450 -4451 0
-4450 -4452 0
-4451 -4452 0
4453 4454 4455 4456 0
-4453 -4454 0
-4453 -4455 0
-4453 -4456 0
-4454 -4455 0
-4454 -4456 0
-4455 -4456 0
4457 4458 4459 4460 0
-4457 -4458 0
-4457 -4459 0
-4457 -4460 0
-4458 -4459 0
-4458 -4460 0
-4459 -4460 0
4461 4462 4463 4464 0
-4461 -4462 0
-4461 -4463 0
-4461 -4464 0
-4462 -4463 0
-4462 -4464 0
-4463 -4464 0
4465 4466 4467 4468 0
-4465 -4466 0
-4465 -4467 0
-4465 -4468 0
-4466 -4467 0
-4466 -4468 0
-4467 -4468 0
4469 4470 4471 4472 0
-4469 -4470 0
-4469 -4471 0
-4469 -4472 0
-4470 -4471 0
-4470 -4472 0
-4471 -4472 0
4473 4474 4475 4476 0
-4473 -4474 0
-4473 -4475 0
-4473 -4476 0
-4474 -4475 0
-4474 -4476 0
-4475 -4476 0
4477 4478 4479 4480 0
-4477 -4478 0
-4477 -4479 0
-4477 -4480 0
-4478 -4479 0
-4478 -4480 0
-4479 -4480 0
4481 4482 4483 4484 0
-4481 -4482 0
-4481 -4483 0
-4481 -4484 0
-4482 -4483 0
-4482 -4484 0
-4483 -4484 0
4485 4486 4487 4488 0
-4485 -4486 0
-4485 -4487 0
-4485 -4488 0
-4486 -4487 0
-4486 -4488 0
-4487 -4488 0
4489 4490 4491 4492 0
-4489 -4490 0
-4489 -4491 0
-4489 -4492 0
-4490 -4491 0
-4490 -4492 0
-4491 -4492 0
4493 4494 4495 4496 0
-4493 -4494 0
-4493 -4495 0
-4493 -4496 0
-4494 -4495 0
-4494 -4496 0
-4495 -4496 0
4497 4498 4499 4500 0
-4497 -4498 0
-4497 -4499 0
-4497 -4500 0
-4498 -4499 0
-4498 -4500 0
-4499 -4500 0
4501 4502 4503 4504 0
-4501 -4502 0
-4501 -4503 0
-4501 -4504 0
-4502 -4503 0
-4502 -4504 0
-4503 -4504 0
4505 4506 4507 4508 0
-4505 -4506 0
-4505 -4507 0
-4505 -4508 0
-4506 -4507 0
-4506 -4508 0
-4507 -4508 0
4509 4510 4511 4512 0
-4509 -4510 0
-4509 -4511 0
-4509 -4512 0
-4510 -4511 0
-4510 -4512 0
-4511 -4512 0
4513 4514 4515 4516 0
-4513 -4514 0
-4513 -4515 0
-4513 -4516 0
-4514 -4515 0
-4514 -4516 0
-4515 -4516 0
4517 4518 4519 4520 0
-4517 -4518 0
-4517 -4519 0
-4517 -4520 0
-4518 -4519 0
-4518 -4520 0
-4519 -4520 0
4521 4522 4523 4524 0
-4521 -4522 0
-4521 -4523 0
-4521 -4524 0
-4522 -4523 0
-4522 -4524 0
-4523 -4524 0
4525 4526 4527 4528 0
-4525 -4526 0
-4525 -4527 0
-4525 -4528 0
-4526 -4527 0
-4526 -4528 0
-4527 -4528 0
4529 4530 4531 4532 0
-4529 -4530 0
-4529 -4531 0
-4529 -4532 0
-4530 -4531 0
-4530 -4532 0
-4531 -4532 0
4533 4534 4535 4536 0
-4533 -4534 0
-4533 -4535 0
-4533 -4536 0
-4534 -4535 0
-4534 -4536 0
-4535 -4536 0
4537 4538 4539 4540 0
-4537 -4538 0
-4537 -4539 0
-4537 -4540 0
-4538 -4539 0
-4538 -4540 0
-4539 -4540 0
4541 4542 4543 4544 0
-4541 -4542 0
-4541 -4543 0
-4541 -4544 0
-4542 -4543 0
-4542 -4544 0
-4543 -4544 0
4545 4546 4547 4548 0
-4545 -4546 0
-4545 -4547 0
-4545 -4548 0
-4546 -4547 0
-4546 -4548 0
-4547 -4548 0
4549 4550 4551 4552 0
-4549 -4550 0
-4549 -4551 0
-4549 -4552 0
-4550 -4551 0
-4550 -4552 0
-4551 -4552 0
4553 4554 4555 4556 0
-4553 -4554 0
-4553 -4555 0
-4553 -4556 0
-4554 -4555 0
-4554 -4556 0
-4555 -4556 0
4557 4558 4559 4560 0
-4557 -4558 0
-4557 -4559 0
-4557 -4560 0
-4558 -4559 0
-4558 -4560 0
-4559 -4560 0
4561 4562 4563 4564 0
-4561 -4562 0
-4561 -4563 0
-4561 -4564 0
-4562 -4563 0
-4562 -4564 0
-4563 -4564 0
4565 4566 4567 4568 0
-4565 -4566 0
-4565 -4567 0
-4565 -4568 0
-4566 -4567 0
-4566 -4568 0
-4567 -4568 0
4569 4570 4571 4572 0
-4569 -4570 0
-4569 -4571 0
-4569 -4572 0
-4570 -4571 0
-4570 -4572 0
-4571 -4572 0
4573 4574 4575 4576 0
-4573 -4574 0
-4573 -4575 0
-4573 -4576 0
-4574 -4575 0
-4574 -4576 0
-4575 -4576 0
4577 4578 4579 4580 0
-4577 -4578 0
-4577 -4579 0
-4577 -4580 0
-4578 -4579 0
-4578 -4580 0
-4579 -4580 0
4581 4582 4583 4584 0
-4581 -4582 0
-4581 -4583 0
-4581 -4584 0
-4582 -4583 0
-4582 -4584 0
-4583 -4584 0
4585 4586 4587 4588 0
-4585 -4586 0
-4585 -4587 0
-4585 -4588 0
-4586 -4587 0
-4586 -4588 0
-4587 -4588 0
4589 4590 4591 4592 0
-4589 -4590 0
-4589 -4591 0
-4589 -4592 0
-4590 -4591 0
-4590 -4592 0
-4591 -4592 0
4593 4594 4595 4596 0
-4593 -4594 0
-4593 -4595 0
-4593 -4596 0
-4594 -4595 0
-4594 -4596 0
-4595 -4596 0
4597 4598 4599 4600 0
-4597 -4598 0
-4597 -4599 0
-4597 -4600 0
-4598 -4599 0
-4598 -4600 0
-4599 -4600 0
4601 4602 4603 4604 0
-4601 -4602 0
-4601 -4603 0
-4601 -4604 0
-4602 -4603 0
-4602 -4604 0
-4603 -4604 0
4605 4606 4607 4608 0
-4605 -4606 0
-4605 -4607 0
-4605 -4608 0
-4606 -4607 0
-4606 -4608 0
-4607 -4608 0
4609 4610 4611 4612 0
-4609 -4610 0
-4609 -4611 0
-4609 -4612 0
-4610 -4611 0
-4610 -4612 0
-4611 -4612 0
4613 4614 4615 4616 0
-4613 -4614 0
-4613 -4615 0
-4613 -4616 0
-4614 -4615 0
-4614 -4616 0
-4615 -4616 0
4617 4618 4619 4620 0
-4617 -4618 0
-4617 -4619 0
-4617 -4620 0
-4618 -4619 0
-4618 -4620 0
-4619 -4620 0
4621 4622 4623 4624 0
-4621 -4622 0
-4621 -4623 0
-4621 -4624 0
-4622 -4623 0
-4622 -4624 0
-4623 -4624 0
4625 4626 4627 4628 0
-4625 -4626 0
-4625 -4627 0
-4625 -4628 0
-4626 -4627 0
-4626 -4628 0
-4627 -4628 0
4629 4630 4631 4632 0
-4629 -4630 0
-4629 -4631 0
-4629 -4632 0
-4630 -4631 0
-4630 -4632 0
-4631 -4632 0
4633 4634 4635 4636 0
-4633 -4634 0
-4633 -4635 0
-4633 -4636 0
-4634 -4635 0
-4634 -4636 0
-4635 -4636 0
4637 4638 4639 4640 0
-4637 -4638 0
-4637 -4639 0
-4637 -4640 0
-4638 -4639 0
-4638 -4640 0
-4639 -4640 0
4641 4642 4643 4644 0
-4641 -4642 0
-4641 -4643 0
-4641 -4644 0
-4642 -4643 0
-4642 -4644 0
-4643 -4644 0
4645 4646 4647 4648 0
-4645 -4646 0
-4645 -4647 0
-4645 -4648 0
-4646 -4647 0
-4646 -4648 0
-4647 -4648 0
4649 4650 4651 4652 0
-4649 -4650 0
-4649 -4651 0
-4649 -4652 0
-4650 -4651 0
-4650 -4652 0
-4651 -4652 0
4653 4654 4655 4656 0
-4653 -4654 0
-4653 -4655 0
-4653 -4656 0
-4654 -4655 0
-4654 -4656 0
-4655 -4656 0
4657 4658 4659 4660 0
-4657 -4658 0
-4657 -4659 0
-4657 -4660 0
-4658 -4659 0
-4658 -4660 0
-4659 -4660 0
4661 4662 4663 4664 0
-4661 -4662 0
-4661 -4663 0
-4661 -4664 0
-4662 -4663 0
-4662 -4664 0
-4663 -4664 0
4665 4666 4667 4668 0
-4665 -4666 0
-4665 -4667 0
-4665 -4668 0
-4666 -4667 0
-4666 -4668 0
-4667 -4668 0
4669 4670 4671 4672 0
-4669 -4670 0
-4669 -4671 0
-4669 -4672 0
-4670 -4671 0
-4670 -4672 0
-4671 -4672 0
4673 4674 4675 4676 0
-4673 -4674 0
-4673 -4675 0
-4673 -4676 0
-4674 -4675 0
-4674 -4676 0
-4675 -4676 0
4677 4678 4679 4680 0
-4677 -4678 0
-4677 -4679 0
-4677 -4680 0
-4678 -4679 0
-4678 -4680 0
-4679 -4680 0
4681 4682 4683 4684 0
-4681 -4682 0
-4681 -4683 0
-4681 -4684 0
-4682 -4683 0
-4682 -4684 0
-4683 -4684 0
4685 4686 4687 4688 0
-4685 -4686 0
-4685 -4687 0
-4685 -4688 0
-4686 -4687 0
-4686 -4688 0
-4687 -4688 0
4689 4690 4691 4692 0
-4689 -4690 0
-4689 -4691 0
-4689 -4692 0
-4690 -4691 0
-4690 -4692 0
-4691 -4692 0
4693 4694 4695 4696 0
-4693 -4694 0
-4693 -4695 0
-4693 -4696 0
-4694 -4695 0
-4694 -4696 0
-4695 -4696 0
4697 4698 4699 4700 0
-4697 -4698 0
-4697 -4699 0
-4697 -4700 0
-4698 -4699 0
-4698 -4700 0
-4699 -4700 0
4701 4702 4703 4704 0
-4701 -4702 0
-4701 -4703 0
-4701 -4704 0
-4702 -4703 0
-4702 -4704 0
-4703 -4704 0
4705 4706 4707 4708 0
-4705 -4706 0
-4705 -4707 0
-4705 -4708 0
-4706 -4707 0
-4706 -4708 0
-4707 -4708 0
4709 4710 4711 4712 0
-4709 -4710 0
-4709 -4711 0
-4709 -4712 0
-4710 -4711 0
-4710 -4712 0
-4711 -4712 0
4713 4714 4715 4716 0
-4713 -4714 0
-4713 -4715 0
-4713 -4716 0
-4714 -4715 0
-4714 -4716 0
-4715 -4716 0
4717 4718 4719 4720 0
-4717 -4718 0
-4717 -4719 0
-4717 -4720 0
-4718 -4719 0
-4718 -4720 0
-4719 -4720 0
4721 4722 4723 4724 0
-4721 -4722 0
-4721 -4723 0
-4721 -4724 0
-4722 -4723 0
-4722 -4724 0
-4723 -4724 0
4725 4726 4727 4728 0
-4725 -4726 0
-4725 -4727 0
-4725 -4728 0
-4726 -4727 0
-4726 -4728 0
-4727 -4728 0
4729 4730 4731 4732 0
-4729 -4730 0
-4729 -4731 0
-4729 -4732 0
-4730 -4731 0
-4730 -4732 0
-4731 -4732 0
4733 4734 4735 4736 0
-4733 -4734 0
-4733 -4735 0
-4733 -4736 0
-4734 -4735 0
-4734 -4736 0
-4735 -4736 0
4737 4738 4739 4740 0
-4737 -4738 0
-4737 -4739 0
-4737 -4740 0
-4738 -4739 0
-4738 -4740 0
-4739 -4740 0
4741 4742 4743 4744 0
-4741 -4742 0
-4741 -4743 0
-4741 -4744 0
-4742 -4743 0
-4742 -4744 0
-4743 -4744 0
4745 4746 4747 4748 0
-4745 -4746 0
-4745 -4747 0
-4745 -4748 0
-4746 -4747 0
-4746 -4748 0
-4747 -4748 0
4749 4750 4751 4752 0
-4749 -4750 0
-4749 -4751 0
-4749 -4752 0
-4750 -4751 0
-4750 -4752 0
-4751 -4752 0
4753 4754 4755 4756 0
-4753 -4754 0
-4753 -4755 0
-4753 -4756 0
-4754 -4755 0
-4754 -4756 0
-4755 -4756 0
4757 4758 4759 4760 0
-4757 -4758 0
-4757 -4759 0
-4757 -4760 0
-4758 -4759 0
-4758 -4760 0
-4759 -4760 0
4761 4762 4763 4764 0
-4761 -4762 0
-4761 -4763 0
-4761 -4764 0
-4762 -4763 0
-4762 -4764 0
-4763 -4764 0
4765 4766 4767 4768 0
-4765 -4766 0
-4765 -4767 0
-4765 -4768 0
-4766 -4767 0
-4766 -4768 0
-4767 -4768 0
4769 4770 4771 4772 0
-4769 -4770 0
-4769 -4771 0
-4769 -4772 0
-4770 -4771 0
-4770 -4772 0
-4771 -4772 0
4773 4774 4775 4776 0
-4773 -4774 0
-4773 -4775 0
-4773 -4776 0
-4774 -4775 0
-4774 -4776 0
-4775 -4776 0
4777 4778 4779 4780 0
-4777 -4778 0
-4777 -4779 0
-4777 -4780 0
-4778 -4779 0
-4778 -4780 0
-4779 -4780 0
4781 4782 4783 4784 0
-4781 -4782 0
-4781 -4783 0
-4781 -4784 0
-4782 -4783 0
-4782 -4784 0
-4783 -4784 0
4785 4786 4787 4788 0
-4785 -4786 0
-4785 -4787 0
-4785 -4788 0
-4786 -4787 0
-4786 -4788 0
-4787 -4788 0
4789 4790 4791 4792 0
-4789 -4790 0
-4789 -4791 0
-4789 -4792 0
-4790 -4791 0
-4790 -4792 0
-4791 -4792 0
4793 4794 4795 4796 0
-4793 -4794 0
-4793 -4795 0
-4793 -4796 0
-4794 -4795 0
-4794 -4796 0
-4795 -4796 0
4797 4798 4799 4800 0
-4797 -4798 0
-4797 -4799 0
-4797 -4800 0
-4798 -4799 0
-4798 -4800 0
-4799 -4800 0
4801 4802 4803 4804 0
-4801 -4802 0
-4801 -4803 0
-4801 -4804 0
-4802 -4803 0
-4802 -4804 0
-4803 -4804 0
4805 4806 4807 4808 0
-4805 -4806 0
-4805 -4807 0
-4805 -4808 0
-4806 -4807 0
-4806 -4808 0
-4807 -4808 0
4809 4810 4811 4812 0
-4809 -4810 0
-4809 -4811 0
-4809 -4812 0
-4810 -4811 0
-4810 -4812 0
-4811 -4812 0
4813 4814 4815 4816 0
-4813 -4814 0
-4813 -4815 0
-4813 -4816 0
-4814 -4815 0
-4814 -4816 0
-4815 -4816 0
4817 4818 4819 4820 0
-4817 -4818 0
-4817 -4819 0
-4817 -4820 0
-4818 -4819 0
-4818 -4820 0
-4819 -4820 0
4821 4822 4823 4824 0
-4821 -4822 0
-4821 -4823 0
-4821 -4824 0
-4822 -4823 0
-4822 -4824 0
-4823 -4824 0
4825 4826 4827 4828 0
-4825 -4826 0
-4825 -4827 0
-4825 -4828 0
-4826 -4827 0
-4826 -4828 0
-4827 -4828 0
4829 4830 4831 4832 0
-4829 -4830 0
-4829 -4831 0
-4829 -4832 0
-4830 -4831 0
-4830 -4832 0
-4831 -4832 0
4833 4834 4835 4836 0
-4833 -4834 0
-4833 -4835 0
-4833 -4836 0
-4834 -4835 0
-4834 -4836 0
-4835 -4836 0
4837 4838 4839 4840 0
-4837 -4838 0
-4837 -4839 0
-4837 -4840 0
-4838 -4839 0
-4838 -4840 0
-4839 -4840 0
4841 4842 4843 4844 0
-4841 -4842 0
-4841 -4843 0
-4841 -4844 0
-4842 -4843 0
-4842 -4844 0
-4843 -4844 0
4845 4846 4847 4848 0
-4845 -4846 0
-4845 -4847 0
-4845 -4848 0
-4846 -4847 0
-4846 -4848 0
-4847 -4848 0
4849 4850 4851 4852 0
-4849 -4850 0
-4849 -4851 0
-4849 -4852 0
-4850 -4851 0
-4850 -4852 0
-4851 -4852 0
4853 4854 4855 4856 0
-4853 -4854 0
-4853 -4855 0
-4853 -4856 0
-4854 -4855 0
-4854 -4856 0
-4855 -4856 0
4857 4858 4859 4860 0
-4857 -4858 0
-4857 -4859 0
-4857 -4860 0
-4858 -4859 0
-4858 -4860 0
-4859 -4860 0
4861 4862 4863 4864 0
-4861 -4862 0
-4861 -4863 0
-4861 -4864 0
-4862 -4863 0
-4862 -4864 0
-4863 -4864 0
4865 4866 4867 4868 0
-4865 -4866 0
-4865 -4867 0
-4865 -4868 0
-4866 -4867 0
-4866 -4868 0
-4867 -4868 0
4869 4870 4871 4872 0
-4869 -4870 0
-4869 -4871 0
-4869 -4872 0
-4870 -4871 0
-4870 -4872 0
-4871 -4872 0
4873 4874 4875 4876 0
-4873 -4874 0
-4873 -4875 0
-4873 -4876 0
-4874 -4875 0
-4874 -4876 0
-4875 -4876 0
4877 4878 4879 4880 0
-4877 -4878 0
-4877 -4879 0
-4877 -4880 0
-4878 -4879 0
-4878 -4880 0
-4879 -4880 0
4881 4882 4883 4884 0
-4881 -4882 0
-4881 -4883 0
-4881 -4884 0
-4882 -4883 0
-4882 -4884 0
-4883 -4884 0
4885 4886 4887 4888 0
-4885 -4886 0
-4885 -4887 0
-4885 -4888 0
-4886 -4887 0
-4886 -4888 0
-4887 -4888 0
4889 4890 4891 4892 0
-4889 -4890 0
-4889 -4891 0
-4889 -4892 0
-4890 -4891 0
-4890 -4892 0
-4891 -4892 0
4893 4894 4895 4896 0
-4893 -4894 0
-4893 -4895 0
-4893 -4896 0
-4894 -4895 0
-4894 -4896 0
-4895 -4896 0
4897 4898 4899 4900 0
-4897 -4898 0
-4897 -4899 0
-4897 -4900 0
-4898 -4899 0
-4898 -4900 0
-4899 -4900 0
4901 4902 4903 4904 0
-4901 -4902 0
-4901 -4903 0
-4901 -4904 0
-4902 -4903 0
-4902 -4904 0
-4903 -4904 0
4905 4906 4907 4908 0
-4905 -4906 0
-4905 -4907 0
-4905 -4908 0
-4906 -4907 0
-4906 -4908 0
-4907 -4908 0
4909 4910 4911 4912 0
-4909 -4910 0
-4909 -4911 0
-4909 -4912 0
-4910 -4911 0
-4910 -4912 0
-4911 -4912 0
4913 4914 4915 4916 0
-4913 -4914 0
-4913 -4915 0
-4913 -4916 0
-4914 -4915 0
-4914 -4916 0
-4915 -4916 0
4917 4918 4919 4920 0
-4917 -4918 0
-4917 -4919 0
-4917 -4920 0
-4918 -4919 0
-4918 -4920 0
-4919 -4920 0
4921 4922 4923 4924 0
-4921 -4922 0
-4921 -4923 0
-4921 -4924 0
-4922 -4923 0
-4922 -4924 0
-4923 -4924 0
4925 4926 4927 4928 0
-4925 -4926 0
-4925 -4927 0
-4925 -4928 0
-4926 -4927 0
-4926 -4928 0
-4927 -4928 0
4929 4930 4931 4932 0
-4929 -4930 0
-4929 -4931 0
-4929 -4932 0
-4930 -4931 0
-4930 -4932 0
-4931 -4932 0
4933 4934 4935 4936 0
-4933 -4934 0
-4933 -4935 0
-4933 -4936 0
-4934 -4935 0
-4934 -4936 0
-4935 -4936 0
4937 4938 4939 4940 0
-4937 -4938 0
-4937 -4939 0
-4937 -4940 0
-4938 -4939 0
-4938 -4940 0
-4939 -4940 0
4941 4942 4943 4944 0
-4941 -4942 0
-4941 -4943 0
-4941 -4944 0
-4942 -4943 0
-4942 -4944 0
-4943 -4944 0
4945 4946 4947 4948 0
-4945 -4946 0
-4945 -4947 0
-4945 -4948 0
-4946 -4947 0
-4946 -4948 0
-4947 -4948 0
4949 4950 4951 4952 0
-4949 -4950 0
-4949 -4951 0
-4949 -4952 0
-4950 -4951 0
-4950 -4952 0
-4951 -4952 0
4953 4954 4955 4956 0
-4953 -4954 0
-4953 -4955 0
-4953 -4956 0
-4954 -4955 0
-4954 -4956 0
-4955 -4956 0
4957 4958 4959 4960 0
-4957 -4958 0
-4957 -4959 0
-4957 -4960 0
-4958 -4959 0
-4958 -4960 0
-4959 -4960 0
4961 4962 4963 4964 0
-4961 -4962 0
-4961 -4963 0
-4961 -4964 0
-4962 -4963 0
-4962 -4964 0
-4963 -4964 0
4965 4966 4967 4968 0
-4965 -4966 0
-4965 -4967 0
-4965 -4968 0
-4966 -4967 0
-4966 -4968 0
-4967 -4968 0
4969 4970 4971 4972 0
-4969 -4970 0
-4969 -4971 0
-4969 -4972 0
-4970 -4971 0
-4970 -4972 0
-4971 -4972 0
4973 4974 4975 4976 0
-4973 -4974 0
-4973 -4975 0
-4973 -4976 0
-4974 -4975 0
-4974 -4976 0
-4975 -4976 0
4977 4978 4979 4980 0
-4977 -4978 0
-4977 -4979 0
-4977 -4980 0
-4978 -4979 0
-4978 -4980 0
-4979 -4980 0
4981 4982 4983 4984 0
-4981 -4982 0
-4981 -4983 0
-4981 -4984 0
-4982 -4983 0
-4982 -4984 0
-4983 -4984 0
4985 4986 4987 4988 0
-4985 -4986 0
-4985 -4987 0
-4985 -4988 0
-4986 -4987 0
-4986 -4988 0
-4987 -4988 0
4989 4990 4991 4992 0
-4989 -4990 0
-4989 -4991 0
-4989 -4992 0
-4990 -4991 0
-4990 -4992 0
-4991 -4992 0
4993 4994 4995 4996 0
-4993 -4994 0
-4993 -4995 0
-4993 -4996 0
-4994 -4995 0
-4994 -4996 0
-4995 -4996 0
4997 4998 4999 5000 0
-4997 -4998 0
-4997 -4999 0
-4997 -5000 0
-4998 -4999 0
-4998 -5000 0
-4999 -5000 0
5001 5002 5003 5004 0
-5001 -5002 0
-5001 -5003 0
-5001 -5004 0
-5002 -5003 0
-5002 -5004 0
-5003 -5004 0
5005 5006 5007 5008 0
-5005 -5006 0
-5005 -5007 0
-5005 -5008 0
-5006 -5007 0
-5006 -5008 0
-5007 -5008 0
5009 5010 5011 5012 0
-5009 -5010 0
-5009 -5011 0
-5009 -5012 0
-5010 -5011 0
-5010 -5012 0
-5011 -5012 0
5013 5014 5015 5016 0
-5013 -5014 0
-5013 -5015 0
-5013 -5016 0
-5014 -5015 0
-5014 -5016 0
-5015 -5016 0
5017 5018 5019 5020 0
-5017 -5018 0
-5017 -5019 0
-5017 -5020 0
-5018 -5019 0
-5018 -5020 0
-5019 -5020 0
5021 5022 5023 5024 0
-5021 -5022 0
-5021 -5023 0
-5021 -5024 0
-5022 -5023 0
-5022 -5024 0
-5023 -5024 0
5025 5026 5027 5028 0
-5025 -5026 0
-5025 -5027 0
-5025 -5028 0
-5026 -5027 0
-5026 -5028 0
-5027 -5028 0
5029 5030 5031 5032 0
-5029 -5030 0
-5029 -5031 0
-5029 -5032 0
-5030 -5031 0
-5030 -5032 0
-5031 -5032 0
5033 5034 5035 5036 0
-5033 -5034 0
-5033 -5035 0
-5033 -5036 0
-5034 -5035 0
-5034 -5036 0
-5035 -5036 0
5037 5038 5039 5040 0
-5037 -5038 0
-5037 -5039 0
-5037 -5040 0
-5038 -5039 0
-5038 -5040 0
-5039 -5040 0
5041 5042 5043 5044 0
-5041 -5042 0
-5041 -5043 0
-5041 -5044 0
-5042 -5043 0
-5042 -5044 0
-5043 -5044 0
5045 5046 5047 5048 0
-5045 -5046 0
-5045 -5047 0
-5045 -5048 0
-5046 -5047 0
-5046 -5048 0
-5047 -5048 0
5049 5050 5051 5052 0
-5049 -5050 0
-5049 -5051 0
-5049 -5052 0
-5050 -5051 0
-5050 -5052 0
-5051 -5052 0
5053 5054 5055 5056 0
-5053 -5054 0
-5053 -5055 0
-5053 -5056 0
-5054 -5055 0
-5054 -5056 0
-5055 -5056 0
5057 5058 5059 5060 0
-5057 -5058 0
-5057 -5059 0
-5057 -5060 0
-5058 -5059 0
-5058 -5060 0
-5059 -5060 0
5061 5062 5063 5064 0
-5061 -5062 0
-5061 -5063 0
-5061 -5064 0
-5062 -5063 0
-5062 -5064 0
-5063 -5064 0
5065 5066 5067 5068 0
-5065 -5066 0
-5065 -5067 0
-5065 -5068 0
-5066 -5067 0
-5066 -5068 0
-5067 -5068 0
5069 5070 5071 5072 0
-5069 -5070 0
-5069 -5071 0
-5069 -5072 0
-5070 -5071 0
-5070 -5072 0
-5071 -5072 0
5073 5074 5075 5076 0
-5073 -5074 0
-5073 -5075 0
-5073 -5076 0
-5074 -5075 0
-5074 -5076 0
-5075 -5076 0
5077 5078 5079 5080 0
-5077 -5078 0
-5077 -5079 0
-5077 -5080 0
-5078 -5079 0
-5078 -5080 0
-5079 -5080 0
5081 5082 5083 5084 0
-5081 -5082 0
-5081 -5083 0
-5081 -5084 0
-5082 -5083 0
-5082 -5084 0
-5083 -5084 0
5085 5086 5087 5088 0
-5085 -5086 0
-5085 -5087 0
-5085 -5088 0
-5086 -5087 0
-5086 -5088 0
-5087 -5088 0
5089 5090 5091 5092 0
-5089 -5090 0
-5089 -5091 0
-5089 -5092 0
-5090 -5091 0
-5090 -5092 0
-5091 -5092 0
5093 5094 5095 5096 0
-5093 -5094 0
-5093 -5095 0
-5093 -5096 0
-5094 -5095 0
-5094 -5096 0
-5095 -5096 0
5097 5098 5099 5100 0
-5097 -5098 0
-5097 -5099 0
-5097 -5100 0
-5098 -5099 0
-5098 -5100 0
-5099 -5100 0
5101 5102 5103 5104 0
-5101 -5102 0
-5101 -5103 0
-5101 -5104 0
-5102 -5103 0
-5102 -5104 0
-5103 -5104 0
5105 5106 5107 5108 0
-5105 -5106 0
-5105 -5107 0
-5105 -5108 0
-5106 -5107 0
-5106 -5108 0
-5107 -5108 0
5109 5110 5111 5112 0
-5109 -5110 0
-5109 -5111 0
-5109 -5112 0
-5110 -5111 0
-5110 -5112 0
-5111 -5112 0
5113 5114 5115 5116 0
-5113 -5114 0
-5113 -5115 0
-5113 -5116 0
-5114 -5115 0
-5114 -5116 0
-5115 -5116 0
5117 5118 5119 5120 0
-5117 -5118 0
-5117 -5119 0
-5117 -5120 0
-5118 -5119 0
-5118 -5120 0
-5119 -5120 0
5121 5122 5123 5124 0
-5121 -5122 0
-5121 -5123 0
-5121 -5124 0
-5122 -5123 0
-5122 -5124 0
-5123 -5124 0
5125 5126 5127 5128 0
-5125 -5126 0
-5125 -5127 0
-5125 -5128 0
-5126 -5127 0
-5126 -5128 0
-5127 -5128 0
5129 5130 5131 5132 0
-5129 -5130 0
-5129 -5131 0
-5129 -5132 0
-5130 -5131 0
-5130 -5132 0
-5131 -5132 0
5133 5134 5135 5136 0
-5133 -5134 0
-5133 -5135 0
-5133 -5136 0
-5134 -5135 0
-5134 -5136 0
-5135 -5136 0
5137 5138 5139 5140 0
-5137 -5138 0
-5137 -5139 0
-5137 -5140 0
-5138 -5139 0
-5138 -5140 0
-5139 -5140 0
5141 5142 5143 5144 0
-5141 -5142 0
-5141 -5143 0
-5141 -5144 0
-5142 -5143 0
-5142 -5144 0
-5143 -5144 0
5145 5146 5147 5148 0
-5145 -5146 0
-5145 -5147 0
-5145 -5148 0
-5146 -5147 0
-5146 -5148 0
-5147 -5148 0
5149 5150 5151 5152 0
-5149 -5150 0
-5149 -5151 0
-5149 -5152 0
-5150 -5151 0
-5150 -5152 0
-5151 -5152 0
5153 5154 5155 5156 0
-5153 -5154 0
-5153 -5155 0
-5153 -5156 0
-5154 -5155 0
-5154 -5156 0
-5155 -5156 0
5157 5158 5159 5160 0
-5157 -5158 0
-5157 -5159 0
-5157 -5160 0
-5158 -5159 0
-5158 -5160 0
-5159 -5160 0
5161 5162 5163 5164 0
-5161 -5162 0
-5161 -5163 0
-5161 -5164 0
-5162 -5163 0
-5162 -5164 0
-5163 -5164 0
5165 5166 5167 5168 0
-5165 -5166 0
-5165 -5167 0
-5165 -5168 0
-5166 -5167 0
-5166 -5168 0
-5167 -5168 0
5169 5170 5171 5172 0
-5169 -5170 0
-5169 -5171 0
-5169 -5172 0
-5170 -5171 0
-5170 -5172 0
-5171 -5172 0
5173 5174 5175 5176 0
-5173 -5174 0
-5173 -5175 0
-5173 -5176 0
-5174 -5175 0
-5174 -5176 0
-5175 -5176 0
5177 5178 5179 5180 0
-5177 -5178 0
-5177 -5179 0
-5177 -5180 0
-5178 -5179 0
-5178 -5180 0
-5179 -5180 0
5181 5182 5183 5184 0
-5181 -5182 0
-5181 -5183 0
-5181 -5184 0
-5182 -5183 0
-5182 -5184 0
-5183 -5184 0
5185 5186 5187 5188 0
-5185 -5186 0
-5185 -5187 0
-5185 -5188 0
-5186 -5187 0
-5186 -5188 0
-5187 -5188 0
5189 5190 5191 5192 0
-5189 -5190 0
-5189 -5191 0
-5189 -5192 0
-5190 -5191 0
-5190 -5192 0
-5191 -5192 0
5193 5194 5195 5196 0
-5193 -5194 0
-5193 -5195 0
-5193 -5196 0
-5194 -5195 0
-5194 -5196 0
-5195 -5196 0
5197 5198 5199 5200 0
-5197 -5198 0
-5197 -5199 0
-5197 -5200 0
-5198 -5199 0
-5198 -5200 0
-5199 -5200 0
5201 5202 5203 5204 0
-5201 -5202 0
-5201 -5203 0
-5201 -5204 0
-5202 -5203 0
-5202 -5204 0
-5203 -5204 0
5205 5206 5207 5208 0
-5205 -5206 0
-5205 -5207 0
-5205 -5208 0
-5206 -5207 0
-5206 -5208 0
-5207 -5208 0
5209 5210 5211 5212 0
-5209 -5210 0
-5209 -5211 0
-5209 -5212 0
-5210 -5211 0
-5210 -5212 0
-5211 -5212 0
5213 5214 5215 5216 0
-5213 -5214 0
-5213 -5215 0
-5213 -5216 0
-5214 -5215 0
-5214 -5216 0
-5215 -5216 0
5217 5218 5219 5220 0
-5217 -5218 0
-5217 -5219 0
-5217 -5220 0
-5218 -5219 0
-5218 -5220 0
-5219 -5220 0
5221 5222 5223 5224 0
-5221 -5222 0
-5221 -5223 0
-5221 -5224 0
-5222 -5223 0
-5222 -5224 0
-5223 -5224 0
5225 5226 5227 5228 0
-5225 -5226 0
-5225 -5227 0
-5225 -5228 0
-5226 -5227 0
-5226 -5228 0
-5227 -5228 0
5229 5230 5231 5232 0
-5229 -5230 0
-5229 -5231 0
-5229 -5232 0
-5230 -5231 0
-5230 -5232 0
-5231 -5232 0
5233 5234 5235 5236 0
-5233 -5234 0
-5233 -5235 0
-5233 -5236 0
-5234 -5235 0
-5234 -5236 0
-5235 -5236 0
5237 5238 5239 5240 0
-5237 -5238 0
-5237 -5239 0
-5237 -5240 0
-5238 -5239 0
-5238 -5240 0
-5239 -5240 0
5241 5242 5243 5244 0
-5241 -5242 0
-5241 -5243 0
-5241 -5244 0
-5242 -5243 0
-5242 -5244 0
-5243 -5244 0
5245 5246 5247 5248 0
-5245 -5246 0
-5245 -5247 0
-5245 -5248 0
-5246 -5247 0
-5246 -5248 0
-5247 -5248 0
5249 5250 5251 5252 0
-5249 -5250 0
-5249 -5251 0
-5249 -5252 0
-5250 -5251 0
-5250 -5252 0
-5251 -5252 0
5253 5254 5255 5256 0
-5253 -5254 0
-5253 -5255 0
-5253 -5256 0
-5254 -5255 0
-5254 -5256 0
-5255 -5256 0
5257 5258 5259 5260 0
-5257 -5258 0
-5257 -5259 0
-5257 -5260 0
-5258 -5259 0
-5258 -5260 0
-5259 -5260 0
5261 5262 5263 5264 0
-5261 -5262 0
-5261 -5263 0
-5261 -5264 0
-5262 -5263 0
-5262 -5264 0
-5263 -5264 0
5265 5266 5267 5268 0
-5265 -5266 0
-5265 -5267 0
-5265 -5268 0
-5266 -5267 0
-5266 -5268 0
-5267 -5268 0
5269 5270 5271 5272 0
-5269 -5270 0
-5269 -5271 0
-5269 -5272 0
-5270 -5271 0
-5270 -5272 0
-5271 -5272 0
5273 5274 5275 5276 0
-5273 -5274 0
-5273 -5275 0
-5273 -5276 0
-5274 -5275 0
-5274 -5276 0
-5275 -5276 0
5277 5278 5279 5280 0
-5277 -5278 0
-5277 -5279 0
-5277 -5280 0
-5278 -5279 0
-5278 -5280 0
-5279 -5280 0
5281 5282 5283 5284 0
-5281 -5282 0
-5281 -5283 0
-5281 -5284 0
-5282 -5283 0
-5282 -5284 0
-5283 -5284 0
5285 5286 5287 5288 0
-5285 -5286 0
-5285 -5287 0
-5285 -5288 0
-5286 -5287 0
-5286 -5288 0
-5287 -5288 0
5289 5290 5291 5292 0
-5289 -5290 0
-5289 -5291 0
-5289 -5292 0
-5290 -5291 0
-5290 -5292 0
-5291 -5292 0
5293 5294 5295 5296 0
-5293 -5294 0
-5293 -5295 0
-5293 -5296 0
-5294 -5295 0
-5294 -5296 0
-5295 -5296 0
5297 5298 5299 5300 0
-5297 -5298 0
-5297 -5299 0
-5297 -5300 0
-5298 -5299 0
-5298 -5300 0
-5299 -5300 0
5301 5302 5303 5304 0
-5301 -5302 0
-5301 -5303 0
-5301 -5304 0
-5302 -5303 0
-5302 -5304 0
-5303 -5304 0
5305 5306 5307 5308 0
-5305 -5306 0
-5305 -5307 0
-5305 -5308 0
-5306 -5307 0
-5306 -5308 0
-5307 -5308 0
5309 5310 5311 5312 0
-5309 -5310 0
-5309 -5311 0
-5309 -5312 0
-5310 -5311 0
-5310 -5312 0
-5311 -5312 0
5313 5314 5315 5316 0
-5313 -5314 0
-5313 -5315 0
-5313 -5316 0
-5314 -5315 0
-5314 -5316 0
-5315 -5316 0
5317 5318 5319 5320 0
-5317 -5318 0
-5317 -5319 0
-5317 -5320 0
-5318 -5319 0
-5318 -5320 0
-5319 -5320 0
5321 5322 5323 5324 0
-5321 -5322 0
-5321 -5323 0
-5321 -5324 0
-5322 -5323 0
-5322 -5324 0
-5323 -5324 0
5325 5326 5327 5328 0
-5325 -5326 0
-5325 -5327 0
-5325 -5328 0
-5326 -5327 0
-5326 -5328 0
-5327 -5328 0
5329 5330 5331 5332 0
-5329 -5330 0
-5329 -5331 0
-5329 -5332 0
-5330 -5331 0
-5330 -5332 0
-5331 -5332 0
5333 5334 5335 5336 0
-5333 -5334 0
-5333 -5335 0
-5333 -5336 0
-5334 -5335 0
-5334 -5336 0
-5335 -5336 0
5337 5338 5339 5340 0
-5337 -5338 0
-5337 -5339 0
-5337 -5340 0
-5338 -5339 0
-5338 -5340 0
-5339 -5340 0
5341 5342 5343 5344 0
-5341 -5342 0
-5341 -5343 0
-5341 -5344 0
-5342 -5343 0
-5342 -5344 0
-5343 -5344 0
5345 5346 5347 5348 0
-5345 -5346 0
-5345 -5347 0
-5345 -5348 0
-5346 -5347 0
-5346 -5348 0
-5347 -5348 0
5349 5350 5351 5352 0
-5349 -5350 0
-5349 -5351 0
-5349 -5352 0
-5350 -5351 0
-5350 -5352 0
-5351 -5352 0
5353 5354 5355 5356 0
-5353 -5354 0
-5353 -5355 0
-5353 -5356 0
-5354 -5355 0
-5354 -5356 0
-5355 -5356 0
5357 5358 5359 5360 0
-5357 -5358 0
-5357 -5359 0
-5357 -5360 0
-5358 -5359 0
-5358 -5360 0
-5359 -5360 0
5361 5362 5363 5364 0
-5361 -5362 0
-5361 -5363 0
-5361 -5364 0
-5362 -5363 0
-5362 -5364 0
-5363 -5364 0
5365 5366 5367 5368 0
-5365 -5366 0
-5365 -5367 0
-5365 -5368 0
-5366 -5367 0
-5366 -5368 0
-5367 -5368 0
5369 5370 5371 5372 0
-5369 -5370 0
-5369 -5371 0
-5369 -5372 0
-5370 -5371 0
-5370 -5372 0
-5371 -5372 0
5373 5374 5375 5376 0
-5373 -5374 0
-5373 -5375 0
-5373 -5376 0
-5374 -5375 0
-5374 -5376 0
-5375 -5376 0
5377 5378 5379 5380 0
-5377 -5378 0
-5377 -5379 0
-5377 -5380 0
-5378 -5379 0
-5378 -5380 0
-5379 -5380 0
5381 5382 5383 5384 0
-5381 -5382 0
-5381 -5383 0
-5381 -5384 0
-5382 -5383 0
-5382 -5384 0
-5383 -5384 0
5385 5386 5387 5388 0
-5385 -5386 0
-5385 -5387 0
-5385 -5388 0
-5386 -5387 0
-5386 -5388 0
-5387 -5388 0
5389 5390 5391 5392 0
-5389 -5390 0
-5389 -5391 0
-5389 -5392 0
-5390 -5391 0
-5390 -5392 0
-5391 -5392 0
5393 5394 5395 5396 0
-5393 -5394 0
-5393 -5395 0
-5393 -5396 0
-5394 -5395 0
-5394 -5396 0
-5395 -5396 0
5397 5398 5399 5400 0
-5397 -5398 0
-5397 -5399 0
-5397 -5400 0
-5398 -5399 0
-5398 -5400 0
-5399 -5400 0
5401 5402 5403 5404 0
-5401 -5402 0
-5401 -5403 0
-5401 -5404 0
-5402 -5403 0
-5402 -5404 0
-5403 -5404 0
5405 5406 5407 5408 0
-5405 -5406 0
-5405 -5407 0
-5405 -5408 0
-5406 -5407 0
-5406 -5408 0
-5407 -5408 0
5409 5410 5411 5412 0
-5409 -5410 0
-5409 -5411 0
-5409 -5412 0
-5410 -5411 0
-5410 -5412 0
-5411 -5412 0
5413 5414 5415 5416 0
-5413 -5414 0
-5413 -5415 0
-5413 -5416 0
-5414 -5415 0
-5414 -5416 0
-5415 -5416 0
5417 5418 5419 5420 0
-5417 -5418 0
-5417 -5419 0
-5417 -5420 0
-5418 -5419 0
-5418 -5420 0
-5419 -5420 0
5421 5422 5423 5424 0
-5421 -5422 0
-5421 -5423 0
-5421 -5424 0
-5422 -5423 0
-5422 -5424 0
-5423 -5424 0
5425 5426 5427 5428 0
-5425 -5426 0
-5425 -5427 0
-5425 -5428 0
-5426 -5427 0
-5426 -5428 0
-5427 -5428 0
5429 5430 5431 5432 0
-5429 -5430 0
-5429 -5431 0
-5429 -5432 0
-5430 -5431 0
-5430 -5432 0
-5431 -5432 0
5433 5434 5435 5436 0
-5433 -5434 0
-5433 -5435 0
-5433 -5436 0
-5434 -5435 0
-5434 -5436 0
-5435 -5436 0
5437 5438 5439 5440 0
-5437 -5438 0
-5437 -5439 0
-5437 -5440 0
-5438 -5439 0
-5438 -5440 0
-5439 -5440 0
5441 5442 5443 5444 0
-5441 -5442 0
-5441 -5443 0
-5441 -5444 0
-5442 -5443 0
-5442 -5444 0
-5443 -5444 0
5445 5446 5447 5448 0
-5445 -5446 0
-5445 -5447 0
-5445 -5448 0
-5446 -5447 0
-5446 -5448 0
-5447 -5448 0
5449 5450 5451 5452 0
-5449 -5450 0
-5449 -5451 0
-5449 -5452 0
-5450 -5451 0
-5450 -5452 0
-5451 -5452 0
5453 5454 5455 5456 0
-5453 -5454 0
-5453 -5455 0
-5453 -5456 0
-5454 -5455 0
-5454 -5456 0
-5455 -5456 0
5457 5458 5459 5460 0
-5457 -5458 0
-5457 -5459 0
-5457 -5460 0
-5458 -5459 0
-5458 -5460 0
-5459 -5460 0
5461 5462 5463 5464 0
-5461 -5462 0
-5461 -5463 0
-5461 -5464 0
-5462 -5463 0
-5462 -5464 0
-5463 -5464 0
5465 5466 5467 5468 0
-5465 -5466 0
-5465 -5467 0
-5465 -5468 0
-5466 -5467 0
-5466 -5468 0
-5467 -5468 0
5469 5470 5471 5472 0
-5469 -5470 0
-5469 -5471 0
-5469 -5472 0
-5470 -5471 0
-5470 -5472 0
-5471 -5472 0
5473 5474 5475 5476 0
-5473 -5474 0
-5473 -5475 0
-5473 -5476 0
-5474 -5475 0
-5474 -5476 0
-5475 -5476 0
5477 5478 5479 5480 0
-5477 -5478 0
-5477 -5479 0
-5477 -5480 0
-5478 -5479 0
-5478 -5480 0
-5479 -5480 0
5481 5482 5483 5484 0
-5481 -5482 0
-5481 -5483 0
-5481 -5484 0
-5482 -5483 0
-5482 -5484 0
-5483 -5484 0
5485 5486 5487 5488 0
-5485 -5486 0
-5485 -5487 0
-5485 -5488 0
-5486 -5487 0
-5486 -5488 0
-5487 -5488 0
5489 5490 5491 5492 0
-5489 -5490 0
-5489 -5491 0
-5489 -5492 0
-5490 -5491 0
-5490 -5492 0
-5491 -5492 0
5493 5494 5495 5496 0
-5493 -5494 0
-5493 -5495 0
-5493 -5496 0
-5494 -5495 0
-5494 -5496 0
-5495 -5496 0
5497 5498 5499 5500 0
-5497 -5498 0
-5497 -5499 0
-5497 -5500 0
-5498 -5499 0
-5498 -5500 0
-5499 -5500 0
5501 5502 5503 5504 0
-5501 -5502 0
-5501 -5503 0
-5501 -5504 0
-5502 -5503 0
-5502 -5504 0
-5503 -5504 0
5505 5506 5507 5508 0
-5505 -5506 0
-5505 -5507 0
-5505 -5508 0
-5506 -5507 0
-5506 -5508 0
-5507 -5508 0
5509 5510 5511 5512 0
-5509 -5510 0
-5509 -5511 0
-5509 -5512 0
-5510 -5511 0
-5510 -5512 0
-5511 -5512 0
5513 5514 5515 5516 0
-5513 -5514 0
-5513 -5515 0
-5513 -5516 0
-5514 -5515 0
-5514 -5516 0
-5515 -5516 0
5517 5518 5519 5520 0
-5517 -5518 0
-5517 -5519 0
-5517 -5520 0
-5518 -5519 0
-5518 -5520 0
-5519 -5520 0
5521 5522 5523 5524 0
-5521 -5522 0
-5521 -5523 0
-5521 -5524 0
-5522 -5523 0
-5522 -5524 0
-5523 -5524 0
5525 5526 5527 5528 0
-5525 -5526 0
-5525 -5527 0
-5525 -5528 0
-5526 -5527 0
-5526 -5528 0
-5527 -5528 0
5529 5530 5531 5532 0
-5529 -5530 0
-5529 -5531 0
-5529 -5532 0
-5530 -5531 0
-5530 -5532 0
-5531 -5532 0
5533 5534 5535 5536 0
-5533 -5534 0
-5533 -5535 0
-5533 -5536 0
-5534 -5535 0
-5534 -5536 0
-5535 -5536 0
5537 5538 5539 5540 0
-5537 -5538 0
-5537 -5539 0
-5537 -5540 0
-5538 -5539 0
-5538 -5540 0
-5539 -5540 0
5541 5542 5543 5544 0
-5541 -5542 0
-5541 -5543 0
-5541 -5544 0
-5542 -5543 0
-5542 -5544 0
-5543 -5544 0
5545 5546 5547 5548 0
-5545 -5546 0
-5545 -5547 0
-5545 -5548 0
-5546 -5547 0
-5546 -5548 0
-5547 -5548 0
5549 5550 5551 5552 0
-5549 -5550 0
-5549 -5551 0
-5549 -5552 0
-5550 -5551 0
-5550 -5552 0
-5551 -5552 0
5553 5554 5555 5556 0
-5553 -5554 0
-5553 -5555 0
-5553 -5556 0
-5554 -5555 0
-5554 -5556 0
-5555 -5556 0
5557 5558 5559 5560 0
-5557 -5558 0
-5557 -5559 0
-5557 -5560 0
-5558 -5559 0
-5558 -5560 0
-5559 -5560 0
5561 5562 5563 5564 0
-5561 -5562 0
-5561 -5563 0
-5561 -5564 0
-5562 -5563 0
-5562 -5564 0
-5563 -5564 0
5565 5566 5567 5568 0
-5565 -5566 0
-5565 -5567 0
-5565 -5568 0
-5566 -5567 0
-5566 -5568 0
-5567 -5568 0
5569 5570 5571 5572 0
-5569 -5570 0
-5569 -5571 0
-5569 -5572 0
-5570 -5571 0
-5570 -5572 0
-5571 -5572 0
5573 5574 5575 5576 0
-5573 -5574 0
-5573 -5575 0
-5573 -5576 0
-5574 -5575 0
-5574 -5576 0
-5575 -5576 0
5577 5578 5579 5580 0
-5577 -5578 0
-5577 -5579 0
-5577 -5580 0
-5578 -5579 0
-5578 -5580 0
-5579 -5580 0
5581 5582 5583 5584 0
-5581 -5582 0
-5581 -5583 0
-5581 -5584 0
-5582 -5583 0
-5582 -5584 0
-5583 -5584 0
5585 5586 5587 5588 0
-5585 -5586 0
-5585 -5587 0
-5585 -5588 0
-5586 -5587 0
-5586 -5588 0
-5587 -5588 0
5589 5590 5591 5592 0
-5589 -5590 0
-5589 -5591 0
-5589 -5592 0
-5590 -5591 0
-5590 -5592 0
-5591 -5592 0
5593 5594 5595 5596 0
-5593 -5594 0
-5593 -5595 0
-5593 -5596 0
-5594 -5595 0
-5594 -5596 0
-5595 -5596 0
5597 5598 5599 5600 0
-5597 -5598 0
-5597 -5599 0
-5597 -5600 0
-5598 -5599 0
-5598 -5600 0
-5599 -5600 0
5601 5602 5603 5604 0
-5601 -5602 0
-5601 -5603 0
-5601 -5604 0
-5602 -5603 0
-5602 -5604 0
-5603 -5604 0
5605 5606 5607 5608 0
-5605 -5606 0
-5605 -5607 0
-5605 -5608 0
-5606 -5607 0
-5606 -5608 0
-5607 -5608 0
5609 5610 5611 5612 0
-5609 -5610 0
-5609 -5611 0
-5609 -5612 0
-5610 -5611 0
-5610 -5612 0
-5611 -5612 0
5613 5614 5615 5616 0
-5613 -5614 0
-5613 -5615 0
-5613 -5616 0
-5614 -5615 0
-5614 -5616 0
-5615 -5616 0
5617 5618 5619 5620 0
-5617 -5618 0
-5617 -5619 0
-5617 -5620 0
-5618 -5619 0
-5618 -5620 0
-5619 -5620 0
5621 5622 5623 5624 0
-5621 -5622 0
-5621 -5623 0
-5621 -5624 0
-5622 -5623 0
-5622 -5624 0
-5623 -5624 0
5625 5626 5627 5628 0
-5625 -5626 0
-5625 -5627 0
-5625 -5628 0
-5626 -5627 0
-5626 -5628 0
-5627 -5628 0
5629 5630 5631 5632 0
-5629 -5630 0
-5629 -5631 0
-5629 -5632 0
-5630 -5631 0
-5630 -5632 0
-5631 -5632 0
-1 -5 0
-2 -6 0
-3 -7 0
-4 -8 0
-1 -9 0
-2 -10 0
-3 -11 0
-4 -12 0
-1 -13 0
-2 -14 0
-3 -15 0
-4 -16 0
-1 -17 0
-2 -18 0
-3 -19 0
-4 -20 0
-1 -21 0
-2 -22 0
-3 -23 0
-4 -24 0
-1 -25 0
-2 -26 0
-3 -27 0
-4 -28 0
-1 -29 0
-2 -30 0
-3 -31 0
-4 -32 0
-1 -33 0
-2 -34 0
-3 -35 0
-4 -36 0
-1 -37 0
-2 -38 0
-3 -39 0
-4 -40 0
-1 -41 0
-2 -42 0
-3 -43 0
-4 -44 0
-1 -45 0
-2 -46 0
-3 -47 0
-4 -48 0
-1 -49 0
-2 -50 0
-3 -51 0
-4 -52 0
-1 -53 0
-2 -54 0
-3 -55 0
-4 -56 0
-1 -57 0
-2 -58 0
-3 -59 0
-4 -60 0
-1 -61 0
-2 -62 0
-3 -63 0
-4 -64 0
-1 -65 0
-2 -66 0
-3 -67 0
-4 -68 0
-1 -69 0
-2 -70 0
-3 -71 0
-4 -72 0
-1 -73 0
-2 -74 0
-3 -75 0
-4 -76 0
-1 -77 0
-2 -78 0
-3 -79 0
-4 -80 0
-1 -81 0
-2 -82 0
-3 -83 0
-4 -84 0
-1 -85 0
-2 -86 0
-3 -87 0
-4 -88 0
-1 -2817 0
-2 -2818 0
-3 -2819 0
-4 -2820 0
-1 -2821 0
-2 -2822 0
-3 -2823 0
-4 -2824 0
-1 -2825 0
-2 -2826 0
-3 -2827 0
-4 -2828 0
-1 -2829 0
-2 -2830 0
-3 -2831 0
-4 -2832 0
-1 -2833 0
-2 -2834 0
-3 -2835 0
-4 -2836 0
-1 -2837 0
-2 -2838 0
-3 -2839 0
-4 -2840 0
-1 -2841 0
-2 -2842 0
-3 -2843 0
-4 -2844 0
-1 -2845 0
-2 -2846 0
-3 -2847 0
-4 -2848 0
-1 -2849 0
-2 -2850 0
-3 -2851 0
-4 -2852 0
-1 -2853 0
-2 -2854 0
-3 -2855 0
-4 -2856 0
-1 -2857 0
-2 -2858 0
-3 -2859 0
-4 -2860 0
-1 -2861 0
-2 -2862 0
-3 -2863 0
-4 -2864 0
-1 -2865 0
-2 -2866 0
-3 -2867 0
-4 -2868 0
-1 -2869 0
-2 -2870 0
-3 -2871 0
-4 -2872 0
-1 -2873 0
-2 -2874 0
-3 -2875 0
-4 -2876 0
-1 -2877 0
-2 -2878 0
-3 -2879 0
-4 -2880 0
-1 -2881 0
-2 -2882 0
-3 -2883 0
-4 -2884 0
-1 -2885 0
-2 -2886 0
-3 -2887 0
-4 -2888 0
-1 -2889 0
-2 -2890 0
-3 -2891 0
-4 -2892 0
-1 -2893 0
-2 -2894 0
-3 -2895 0
-4 -2896 0
-1 -2897 0
-2 -2898 0
-3 -2899 0
-4 -2900 0
-1 -2901 0
-2 -2902 0
-3 -2903 0
-4 -2904 0
-5 -9 0
-6 -10 0
-7 -11 0
-8 -12 0
-5 -17 0
-6 -18 0
-7 -19 0
-8 -20 0
-5 -89 0
-6 -90 0
-7 -91 0
-8 -92 0
-5 -93 0
-6 -94 0
-7 -95 0
-8 -96 0
-5 -97 0
-6 -98 0
-7 -99 0
-8 -100 0
-5 -101 0
-6 -102 0
-7 -103 0
-8 -104 0
-5 -105 0
-6 -106 0
-7 -107 0
-8 -108 0
-5 -109 0
-6 -110 0
-7 -111 0
-8 -112 0
-5 -113 0
-6 -114 0
-7 -115 0
-8 -116 0
-5 -117 0
-6 -118 0
-7 -119 0
-8 -120 0
-5 -121 0
-6 -122 0
-7 -123 0
-8 -124 0
-5 -125 0
-6 -126 0
-7 -127 0
-8 -128 0
-5 -129 0
-6 -130 0
-7 -131 0
-8 -132 0
-5 -133 0
-6 -134 0
-7 -135 0
-8 -136 0
-5 -137 0
-6 -138 0
-7 -139 0
-8 -140 0
-5 -141 0
-6 -142 0
-7 -143 0
-8 -144 0
-5 -145 0
-6 -146 0
-7 -147 0
-8 -148 0
-5 -149 0
-6 -150 0
-7 -151 0
-8 -152 0
-9 -13 0
-10 -14 0
-11 -15 0
-12 -16 0
-9 -89 0
-10 -90 0
-11 -91 0
-12 -92 0
-9 -153 0
-10 -154 0
-11 -155 0
-12 -156 0
-9 -157 0
-10 -158 0
-11 -159 0
-12 -160 0
-9 -161 0
-10 -162 0
-11 -163 0
-12 -164 0
-9 -165 0
-10 -166 0
-11 -167 0
-12 -168 0
-9 -169 0
-10 -170 0
-11 -171 0
-12 -172 0
-9 -173 0
-10 -174 0
-11 -175 0
-12 -176 0
-9 -177 0
-10 -178 0
-11 -179 0
-12 -180 0
-9 -181 0
-10 -182 0
-11 -183 0
-12 -184 0
-9 -185 0
-10 -186 0
-11 -187 0
-12 -188 0
-9 -189 0
-10 -190 0
-11 -191 0
-12 -192 0
-9 -193 0
-10 -194 0
-11 -195 0
-12 -196 0
-9 -197 0
-10 -198 0
-11 -199 0
-12 -200 0
-9 -201 0
-10 -202 0
-11 -203 0
-12 -204 0
-13 -153 0
-14 -154 0
-15 -155 0
-16 -156 0
-13 -205 0
-14 -206 0
-15 -207 0
-16 -208 0
-13 -209 0
-14 -210 0
-15 -211 0
-16 -212 0
-13 -213 0
-14 -214 0
-15 -215 0
-16 -216 0
-13 -217 0
-14 -218 0
-15 -219 0
-16 -220 0
-13 -221 0
-14 -222 0
-15 -223 0
-16 -224 0
-13 -225 0
-14 -226 0
-15 -227 0
-16 -228 0
-13 -229 0
-14 -230 0
-15 -231 0
-16 -232 0
-13 -233 0
-14 -234 0
-15 -235 0
-16 -236 0
-13 -237 0
-14 -238 0
-15 -239 0
-16 -240 0
-13 -241 0
-14 -242 0
-15 -243 0
-16 -244 0
-13 -245 0
-14 -246 0
-15 -247 0
-16 -248 0
-13 -249 0
-14 -250 0
-15 -251 0
-16 -252 0
-13 -253 0
-14 -254 0
-15 -255 0
-16 -256 0
-13 -257 0
-14 -258 0
-15 -259 0
-16 -260 0
-13 -261 0
-14 -262 0
-15 -263 0
-16 -264 0
-17 -93 0
-18 -94 0
-19 -95 0
-20 -96 0
-17 -309 0
-18 -310 0
-19 -311 0
-20 -312 0
-17 -361 0
-18 -362 0
-19 -363 0
-20 -364 0
-17 -365 0
-18 -366 0
-19 -367 0
-20 -368 0
-17 -369 0
-18 -370 0
-19 -371 0
-20 -372 0
-17 -373 0
-18 -374 0
-19 -375 0
-20 -376 0
-17 -377 0
-18 -378 0
-19 -379 0
-20 -380 0
-17 -381 0
-18 -382 0
-19 -383 0
-20 -384 0
-17 -385 0
-18 -386 0
-19 -387 0
-20 -388 0
-17 -389 0
-18 -390 0
-19 -391 0
-20 -392 0
-17 -393 0
-18 -394 0
-19 -395 0
-20 -396 0
-17 -397 0
-18 -398 0
-19 -399 0
-20 -400 0
-17 -401 0
-18 -402 0
-19 -403 0
-20 -404 0
-17 -405 0
-18 -406 0
-19 -407 0
-20 -408 0
-17 -409 0
-18 -410 0
-19 -411 0
-20 -412 0
-17 -413 0
-18 -414 0
-19 -415 0
-20 -416 0
-17 -417 0
-18 -418 0
-19 -419 0
-20 -420 0
-17 -421 0
-18 -422 0
-19 -423 0
-20 -424 0
-17 -425 0
-18 -426 0
-19 -427 0
-20 -428 0
-17 -429 0
-18 -430 0
-19 -431 0
-20 -432 0
-21 -25 0
-22 -26 0
-23 -27 0
-24 -28 0
-21 -33 0
-22 -34 0
-23 -35 0
-24 -36 0
-21 -97 0
-22 -98 0
-23 -99 0
-24 -100 0
-21 -157 0
-22 -158 0
-23 -159 0
-24 -160 0
-21 -209 0
-22 -210 0
-23 -211 0
-24 -212 0
-21 -361 0
-22 -362 0
-23 -363 0
-24 -364 0
-21 -433 0
-22 -434 0
-23 -435 0
-24 -436 0
-21 -437 0
-22 -438 0
-23 -439 0
-24 -440 0
-21 -441 0
-22 -442 0
-23 -443 0
-24 -444 0
-21 -445 0
-22 -446 0
-23 -447 0
-24 -448 0
-21 -449 0
-22 -450 0
-23 -451 0
-24 -452 0
-21 -453 0
-22 -454 0
-23 -455 0
-24 -456 0
-21 -457 0
-22 -458 0
-23 -459 0
-24 -460 0
-21 -461 0
-22 -462 0
-23 -463 0
-24 -464 0
-21 -465 0
-22 -466 0
-23 -467 0
-24 -468 0
-21 -469 0
-22 -470 0
-23 -471 0
-24 -472 0
-21 -473 0
-22 -474 0
-23 -475 0
-24 -476 0
-21 -477 0
-22 -478 0
-23 -479 0
-24 -480 0
-21 -481 0
-22 -482 0
-23 -483 0
-24 -484 0
-21 -485 0
-22 -486 0
-23 -487 0
-24 -488 0
-25 -161 0
-26 -162 0
-27 -163 0
-28 -164 0
-25 -213 0
-26 -214 0
-27 -215 0
-28 -216 0
-25 -365 0
-26 -366 0
-27 -367 0
-28 -368 0
-25 -433 0
-26 -434 0
-27 -435 0
-28 -436 0
-25 -489 0
-26 -490 0
-27 -491 0
-28 -492 0
-25 -493 0
-26 -494 0
-27 -495 0
-28 -496 0
-25 -497 0
-26 -498 0
-27 -499 0
-28 -500 0
-25 -501 0
-26 -502 0
-27 -503 0
-28 -504 0
-25 -505 0
-26 -506 0
-27 -507 0
-28 -508 0
-25 -509 0
-26 -510 0
-27 -511 0
-28 -512 0
-25 -513 0
-26 -514 0
-27 -515 0
-28 -516 0
-25 -517 0
-26 -518 0
-27 -519 0
-28 -520 0
-25 -521 0
-26 -522 0
-27 -523 0
-28 -524 0
-29 -165 0
-30 -166 0
-31 -167 0
-32 -168 0
-29 -221 0
-30 -222 0
-31 -223 0
-32 -224 0
-29 -265 0
-30 -266 0
-31 -267 0
-32 -268 0
-29 -313 0
-30 -314 0
-31 -315 0
-32 -316 0
-29 -529 0
-30 -530 0
-31 -531 0
-32 -532 0
-29 -581 0
-30 -582 0
-31 -583 0
-32 -584 0
-29 -585 0
-30 -586 0
-31 -587 0
-32 -588 0
-29 -589 0
-30 -590 0
-31 -591 0
-32 -592 0
-29 -593 0
-30 -594 0
-31 -595 0
-32 -596 0
-29 -597 0
-30 -598 0
-31 -599 0
-32 -600 0
-29 -601 0
-30 -602 0
-31 -603 0
-32 -604 0
-29 -605 0
-30 -606 0
-31 -607 0
-32 -608 0
-29 -609 0
-30 -610 0
-31 -611 0
-32 -612 0
-29 -613 0
-30 -614 0
-31 -615 0
-32 -616 0
-29 -617 0
-30 -618 0
-31 -619 0
-32 -620 0
-29 -621 0
-30 -622 0
-31 -623 0
-32 -624 0
-29 -625 0
-30 -626 0
-31 -627 0
-32 -628 0
-33 -229 0
-34 -230 0
-35 -231 0
-36 -232 0
-33 -273 0
-34 -274 0
-35 -275 0
-36 -276 0
-33 -321 0
-34 -322 0
-35 -323 0
-36 -324 0
-33 -377 0
-34 -378 0
-35 -379 0
-36 -380 0
-33 -437 0
-34 -438 0
-35 -439 0
-36 -440 0
-33 -633 0
-34 -634 0
-35 -635 0
-36 -636 0
-33 -681 0
-34 -682 0
-35 -683 0
-36 -684 0
-33 -685 0
-34 -686 0
-35 -687 0
-36 -688 0
-33 -689 0
-34 -690 0
-35 -691 0
-36 -692 0
-33 -693 0
-34 -694 0
-35 -695 0
-36 -696 0
-33 -697 0
-34 -698 0
-35 -699 0
-36 -700 0
-33 -701 0
-34 -702 0
-35 -703 0
-36 -704 0
-33 -705 0
-34 -706 0
-35 -707 0
-36 -708 0
-33 -709 0
-34 -710 0
-35 -711 0
-36 -712 0
-33 -713 0
-34 -714 0
-35 -715 0
-36 -716 0
-37 -41 0
-38 -42 0
-39 -43 0
-40 -44 0
-37 -57 0
-38 -58 0
-39 -59 0
-40 -60 0
-37 -277 0
-38 -278 0
-39 -279 0
-40 -280 0
-37 -325 0
-38 -326 0
-39 -327 0
-40 -328 0
-37 -441 0
-38 -442 0
-39 -443 0
-40 -444 0
-37 -489 0
-38 -490 0
-39 -491 0
-40 -492 0
-37 -533 0
-38 -534 0
-39 -535 0
-40 -536 0
-37 -585 0
-38 -586 0
-39 -587 0
-40 -588 0
-37 -637 0
-38 -638 0
-39 -639 0
-40 -640 0
-37 -681 0
-38 -682 0
-39 -683 0
-40 -684 0
-37 -717 0
-38 -718 0
-39 -719 0
-40 -720 0
-37 -721 0
-38 -722 0
-39 -723 0
-40 -724 0
-37 -725 0
-38 -726 0
-39 -727 0
-40 -728 0
-37 -729 0
-38 -730 0
-39 -731 0
-40 -732 0
-37 -733 0
-38 -734 0
-39 -735 0
-40 -736 0
-37 -737 0
-38 -738 0
-39 -739 0
-40 -740 0
-37 -741 0
-38 -742 0
-39 -743 0
-40 -744 0
-37 -745 0
-38 -746 0
-39 -747 0
-40 -748 0
-37 -749 0
-38 -750 0
-39 -751 0
-40 -752 0
-41 -45 0
-42 -46 0
-43 -47 0
-44 -48 0
-41 -109 0
-42 -110 0
-43 -111 0
-44 -112 0
-41 -281 0
-42 -282 0
-43 -283 0
-44 -284 0
-41 -329 0
-42 -330 0
-43 -331 0
-44 -332 0
-41 -381 0
-42 -382 0
-43 -383 0
-44 -384 0
-41 -445 0
-42 -446 0
-43 -447 0
-44 -448 0
-41 -537 0
-42 -538 0
-43 -539 0
-44 -540 0
-41 -641 0
-42 -642 0
-43 -643 0
-44 -644 0
-41 -717 0
-42 -718 0
-43 -719 0
-44 -720 0
-41 -753 0
-42 -754 0
-43 -755 0
-44 -756 0
-41 -757 0
-42 -758 0
-43 -759 0
-44 -760 0
-41 -761 0
-42 -762 0
-43 -763 0
-44 -764 0
-41 -765 0
-42 -766 0
-43 -767 0
-44 -768 0
-41 -769 0
-42 -770 0
-43 -771 0
-44 -772 0
-41 -773 0
-42 -774 0
-43 -775 0
-44 -776 0
-41 -777 0
-42 -778 0
-43 -779 0
-44 -780 0
-41 -781 0
-42 -782 0
-43 -783 0
-44 -784 0
-41 -785 0
-42 -786 0
-43 -787 0
-44 -788 0
-41 -789 0
-42 -790 0
-43 -791 0
-44 -792 0
-45 -49 0
-46 -50 0
-47 -51 0
-48 -52 0
-45 -113 0
-46 -114 0
-47 -115 0
-48 -116 0
-45 -333 0
-46 -334 0
-47 -335 0
-48 -336 0
-45 -385 0
-46 -386 0
-47 -387 0
-48 -388 0
-45 -449 0
-46 -450 0
-47 -451 0
-48 -452 0
-45 -541 0
-46 -542 0
-47 -543 0
-48 -544 0
-45 -589 0
-46 -590 0
-47 -591 0
-48 -592 0
-45 -685 0
-46 -686 0
-47 -687 0
-48 -688 0
-45 -757 0
-46 -758 0
-47 -759 0
-48 -760 0
-45 -793 0
-46 -794 0
-47 -795 0
-48 -796 0
-45 -797 0
-46 -798 0
-47 -799 0
-48 -800 0
-45 -801 0
-46 -802 0
-47 -803 0
-48 -804 0
-45 -805 0
-46 -806 0
-47 -807 0
-48 -808 0
-45 -809 0
-46 -810 0
-47 -811 0
-48 -812 0
-45 -813 0
-46 -814 0
-47 -815 0
-48 -816 0
-45 -817 0
-46 -818 0
-47 -819 0
-48 -820 0
-49 -53 0
-50 -54 0
-51 -55 0
-52 -56 0
-49 -117 0
-50 -118 0
-51 -119 0
-52 -120 0
-49 -173 0
-50 -174 0
-51 -175 0
-52 -176 0
-49 -337 0
-50 -338 0
-51 -339 0
-52 -340 0
-49 -389 0
-50 -390 0
-51 -391 0
-52 -392 0
-49 -453 0
-50 -454 0
-51 -455 0
-52 -456 0
-49 -645 0
-50 -646 0
-51 -647 0
-52 -648 0
-49 -793 0
-50 -794 0
-51 -795 0
-52 -796 0
-49 -821 0
-50 -822 0
-51 -823 0
-52 -824 0
-49 -825 0
-50 -826 0
-51 -827 0
-52 -828 0
-49 -829 0
-50 -830 0
-51 -831 0
-52 -832 0
-49 -833 0
-50 -834 0
-51 -835 0
-52 -836 0
-49 -837 0
-50 -838 0
-51 -839 0
-52 -840 0
-49 -841 0
-50 -842 0
-51 -843 0
-52 -844 0
-49 -845 0
-50 -846 0
-51 -847 0
-52 -848 0
-49 -849 0
-50 -850 0
-51 -851 0
-52 -852 0
-49 -853 0
-50 -854 0
-51 -855 0
-52 -856 0
-49 -857 0
-50 -858 0
-51 -859 0
-52 -860 0
-53 -57 0
-54 -58 0
-55 -59 0
-56 -60 0
-53 -121 0
-54 -122 0
-55 -123 0
-56 -124 0
-53 -177 0
-54 -178 0
-55 -179 0
-56 -180 0
-53 -233 0
-54 -234 0
-55 -235 0
-56 -236 0
-53 -393 0
-54 -394 0
-55 -395 0
-56 -396 0
-53 -457 0
-54 -458 0
-55 -459 0
-56 -460 0
-53 -545 0
-54 -546 0
-55 -547 0
-56 -548 0
-53 -593 0
-54 -594 0
-55 -595 0
-56 -596 0
-53 -649 0
-54 -650 0
-55 -651 0
-56 -652 0
-53 -689 0
-54 -690 0
-55 -691 0
-56 -692 0
-53 -825 0
-54 -826 0
-55 -827 0
-56 -828 0
-53 -861 0
-54 -862 0
-55 -863 0
-56 -864 0
-53 -865 0
-54 -866 0
-55 -867 0
-56 -868 0
-53 -869 0
-54 -870 0
-55 -871 0
-56 -872 0
-53 -873 0
-54 -874 0
-55 -875 0
-56 -876 0
-53 -877 0
-54 -878 0
-55 -879 0
-56 -880 0
-53 -881 0
-54 -882 0
-55 -883 0
-56 -884 0
-53 -885 0
-54 -886 0
-55 -887 0
-56 -888 0
-53 -889 0
-54 -890 0
-55 -891 0
-56 -892 0
-53 -893 0
-54 -894 0
-55 -895 0
-56 -896 0
-57 -125 0
-58 -126 0
-59 -127 0
-60 -128 0
-57 -181 0
-58 -182 0
-59 -183 0
-60 -184 0
-57 -237 0
-58 -238 0
-59 -239 0
-60 -240 0
-57 -285 0
-58 -286 0
-59 -287 0
-60 -288 0
-57 -341 0
-58 -342 0
-59 -343 0
-60 -344 0
-57 -397 0
-58 -398 0
-59 -399 0
-60 -400 0
-57 -493 0
-58 -494 0
-59 -495 0
-60 -496 0
-57 -549 0
-58 -550 0
-59 -551 0
-60 -552 0
-57 -597 0
-58 -598 0
-59 -599 0
-60 -600 0
-57 -653 0
-58 -654 0
-59 -655 0
-60 -656 0
-57 -693 0
-58 -694 0
-59 -695 0
-60 -696 0
-57 -721 0
-58 -722 0
-59 -723 0
-60 -724 0
-57 -865 0
-58 -866 0
-59 -867 0
-60 -868 0
-57 -897 0
-58 -898 0
-59 -899 0
-60 -900 0
-57 -901 0
-58 -902 0
-59 -903 0
-60 -904 0
-57 -905 0
-58 -906 0
-59 -907 0
-60 -908 0
-57 -909 0
-58 -910 0
-59 -911 0
-60 -912 0
-57 -913 0
-58 -914 0
-59 -915 0
-60 -916 0
-57 -917 0
-58 -918 0
-59 -919 0
-60 -920 0
-57 -921 0
-58 -922 0
-59 -923 0
-60 -924 0
-57 -925 0
-58 -926 0
-59 -927 0
-60 -928 0
-57 -929 0
-58 -930 0
-59 -931 0
-60 -932 0
-61 -65 0
-62 -66 0
-63 -67 0
-64 -68 0
-61 -133 0
-62 -134 0
-63 -135 0
-64 -136 0
-61 -293 0
-62 -294 0
-63 -295 0
-64 -296 0
-61 -345 0
-62 -346 0
-63 -347 0
-64 -348 0
-61 -405 0
-62 -406 0
-63 -407 0
-64 -408 0
-61 -557 0
-62 -558 0
-63 -559 0
-64 -560 0
-61 -605 0
-62 -606 0
-63 -607 0
-64 -608 0
-61 -661 0
-62 -662 0
-63 -663 0
-64 -664 0
-61 -697 0
-62 -698 0
-63 -699 0
-64 -700 0
-61 -761 0
-62 -762 0
-63 -763 0
-64 -764 0
-61 -801 0
-62 -802 0
-63 -803 0
-64 -804 0
-61 -873 0
-62 -874 0
-63 -875 0
-64 -876 0
-61 -905 0
-62 -906 0
-63 -907 0
-64 -908 0
-61 -949 0
-62 -950 0
-63 -951 0
-64 -952 0
-61 -953 0
-62 -954 0
-63 -955 0
-64 -956 0
-61 -957 0
-62 -958 0
-63 -959 0
-64 -960 0
-65 -69 0
-66 -70 0
-67 -71 0
-68 -72 0
-65 -137 0
-66 -138 0
-67 -139 0
-68 -140 0
-65 -185 0
-66 -186 0
-67 -187 0
-68 -188 0
-65 -241 0
-66 -242 0
-67 -243 0
-68 -244 0
-65 -409 0
-66 -410 0
-67 -411 0
-68 -412 0
-65 -461 0
-66 -462 0
-67 -463 0
-68 -464 0
-65 -497 0
-66 -498 0
-67 -499 0
-68 -500 0
-65 -665 0
-66 -666 0
-67 -667 0
-68 -668 0
-65 -765 0
-66 -766 0
-67 -767 0
-68 -768 0
-65 -833 0
-66 -834 0
-67 -835 0
-68 -836 0
-65 -877 0
-66 -878 0
-67 -879 0
-68 -880 0
-65 -961 0
-66 -962 0
-67 -963 0
-68 -964 0
-65 -965 0
-66 -966 0
-67 -967 0
-68 -968 0
-65 -969 0
-66 -970 0
-67 -971 0
-68 -972 0
-65 -973 0
-66 -974 0
-67 -975 0
-68 -976 0
-69 -73 0
-70 -74 0
-71 -75 0
-72 -76 0
-69 -141 0
-70 -142 0
-71 -143 0
-72 -144 0
-69 -245 0
-70 -246 0
-71 -247 0
-72 -248 0
-69 -465 0
-70 -466 0
-71 -467 0
-72 -468 0
-69 -561 0
-70 -562 0
-71 -563 0
-72 -564 0
-69 -609 0
-70 -610 0
-71 -611 0
-72 -612 0
-69 -669 0
-70 -670 0
-71 -671 0
-72 -672 0
-69 -701 0
-70 -702 0
-71 -703 0
-72 -704 0
-69 -729 0
-70 -730 0
-71 -731 0
-72 -732 0
-69 -769 0
-70 -770 0
-71 -771 0
-72 -772 0
-69 -805 0
-70 -806 0
-71 -807 0
-72 -808 0
-69 -837 0
-70 -838 0
-71 -839 0
-72 -840 0
-69 -977 0
-70 -978 0
-71 -979 0
-72 -980 0
-69 -981 0
-70 -982 0
-71 -983 0
-72 -984 0
-69 -985 0
-70 -986 0
-71 -987 0
-72 -988 0
-73 -189 0
-74 -190 0
-75 -191 0
-76 -192 0
-73 -249 0
-74 -250 0
-75 -251 0
-76 -252 0
-73 -297 0
-74 -298 0
-75 -299 0
-76 -300 0
-73 -349 0
-74 -350 0
-75 -351 0
-76 -352 0
-73 -469 0
-74 -470 0
-75 -471 0
-76 -472 0
-73 -501 0
-74 -502 0
-75 -503 0
-76 -504 0
-73 -565 0
-74 -566 0
-75 -567 0
-76 -568 0
-73 -613 0
-74 -614 0
-75 -615 0
-76 -616 0
-73 -809 0
-74 -810 0
-75 -811 0
-76 -812 0
-73 -841 0
-74 -842 0
-75 -843 0
-76 -844 0
-73 -881 0
-74 -882 0
-75 -883 0
-76 -884 0
-73 -909 0
-74 -910 0
-75 -911 0
-76 -912 0
-73 -977 0
-74 -978 0
-75 -979 0
-76 -980 0
-73 -989 0
-74 -990 0
-75 -991 0
-76 -992 0
-73 -993 0
-74 -994 0
-75 -995 0
-76 -996 0
-73 -997 0
-74 -998 0
-75 -999 0
-76 -1000 0
-73 -1001 0
-74 -1002 0
-75 -1003 0
-76 -1004 0
-73 -1005 0
-74 -1006 0
-75 -1007 0
-76 -1008 0
-77 -81 0
-78 -82 0
-79 -83 0
-80 -84 0
-77 -85 0
-78 -86 0
-79 -87 0
-80 -88 0
-77 -145 0
-78 -146 0
-79 -147 0
-80 -148 0
-77 -193 0
-78 -194 0
-79 -195 0
-80 -196 0
-77 -253 0
-78 -254 0
-79 -255 0
-80 -256 0
-77 -305 0
-78 -306 0
-79 -307 0
-80 -308 0
-77 -357 0
-78 -358 0
-79 -359 0
-80 -360 0
-77 -417 0
-78 -418 0
-79 -419 0
-80 -420 0
-77 -477 0
-78 -478 0
-79 -479 0
-80 -480 0
-77 -673 0
-78 -674 0
-79 -675 0
-80 -676 0
-77 -733 0
-78 -734 0
-79 -735 0
-80 -736 0
-77 -777 0
-78 -778 0
-79 -779 0
-80 -780 0
-77 -849 0
-78 -850 0
-79 -851 0
-80 -852 0
-77 -889 0
-78 -890 0
-79 -891 0
-80 -892 0
-77 -913 0
-78 -914 0
-79 -915 0
-80 -916 0
-77 -933 0
-78 -934 0
-79 -935 0
-80 -936 0
-77 -989 0
-78 -990 0
-79 -991 0
-80 -992 0
-77 -1009 0
-78 -1010 0
-79 -1011 0
-80 -1012 0
-77 -1029 0
-78 -1030 0
-79 -1031 0
-80 -1032 0
-77 -1033 0
-78 -1034 0
-79 -1035 0
-80 -1036 0
-77 -1037 0
-78 -1038 0
-79 -1039 0
-80 -1040 0
-81 -149 0
-82 -150 0
-83 -151 0
-84 -152 0
-81 -421 0
-82 -422 0
-83 -423 0
-84 -424 0
-81 -509 0
-82 -510 0
-83 -511 0
-84 -512 0
-81 -737 0
-82 -738 0
-83 -739 0
-84 -740 0
-81 -853 0
-82 -854 0
-83 -855 0
-84 -856 0
-81 -893 0
-82 -894 0
-83 -895 0
-84 -896 0
-81 -917 0
-82 -918 0
-83 -919 0
-84 -920 0
-81 -949 0
-82 -950 0
-83 -951 0
-84 -952 0
-81 -993 0
-82 -994 0
-83 -995 0
-84 -996 0
-81 -1013 0
-82 -1014 0
-83 -1015 0
-84 -1016 0
-81 -1033 0
-82 -1034 0
-83 -1035 0
-84 -1036 0
-81 -1041 0
-82 -1042 0
-83 -1043 0
-84 -1044 0
-85 -201 0
-86 -202 0
-87 -203 0
-88 -204 0
-85 -261 0
-86 -262 0
-87 -263 0
-88 -264 0
-85 -429 0
-86 -430 0
-87 -431 0
-88 -432 0
-85 -521 0
-86 -522 0
-87 -523 0
-88 -524 0
-85 -625 0
-86 -626 0
-87 -627 0
-88 -628 0
-85 -677 0
-86 -678 0
-87 -679 0
-88 -680 0
-85 -713 0
-86 -714 0
-87 -715 0
-88 -716 0
-85 -749 0
-86 -750 0
-87 -751 0
-88 -752 0
-85 -789 0
-86 -790 0
-87 -791 0
-88 -792 0
-85 -817 0
-86 -818 0
-87 -819 0
-88 -820 0
-85 -857 0
-86 -858 0
-87 -859 0
-88 -860 0
-85 -945 0
-86 -946 0
-87 -947 0
-88 -948 0
-85 -973 0
-86 -974 0
-87 -975 0
-88 -976 0
-85 -985 0
-86 -986 0
-87 -987 0
-88 -988 0
-85 -1005 0
-86 -1006 0
-87 -1007 0
-88 -1008 0
-85 -1025 0
-86 -1026 0
-87 -1027 0
-88 -1028 0
-85 -1037 0
-86 -1038 0
-87 -1039 0
-88 -1040 0
-85 -1045 0
-86 -1046 0
-87 -1047 0
-88 -1048 0
-89 -681 0
-90 -682 0
-91 -683 0
-92 -684 0
-89 -717 0
-90 -718 0
-91 -719 0
-92 -720 0
-89 -1053 0
-90 -1054 0
-91 -1055 0
-92 -1056 0
-89 -1057 0
-90 -1058 0
-91 -1059 0
-92 -1060 0
-89 -1061 0
-90 -1062 0
-91 -1063 0
-92 -1064 0
-93 -637 0
-94 -638 0
-95 -639 0
-96 -640 0
-93 -653 0
-94 -654 0
-95 -655 0
-96 -656 0
-93 -721 0
-94 -722 0
-95 -723 0
-96 -724 0
-93 -1065 0
-94 -1066 0
-95 -1067 0
-96 -1068 0
-93 -1069 0
-94 -1070 0
-95 -1071 0
-96 -1072 0
-93 -1073 0
-94 -1074 0
-95 -1075 0
-96 -1076 0
-93 -1077 0
-94 -1078 0
-95 -1079 0
-96 -1080 0
-97 -157 0
-98 -158 0
-99 -159 0
-100 -160 0
-97 -361 0
-98 -362 0
-99 -363 0
-100 -364 0
-97 -1065 0
-98 -1066 0
-99 -1067 0
-100 -1068 0
-97 -1081 0
-98 -1082 0
-99 -1083 0
-100 -1084 0
-97 -1085 0
-98 -1086 0
-99 -1087 0
-100 -1088 0
-97 -1089 0
-98 -1090 0
-99 -1091 0
-100 -1092 0
-101 -325 0
-102 -326 0
-103 -327 0
-104 -328 0
-101 -329 0
-102 -330 0
-103 -331 0
-104 -332 0
-101 -369 0
-102 -370 0
-103 -371 0
-104 -372 0
-101 -717 0
-102 -718 0
-103 -719 0
-104 -720 0
-101 -1113 0
-102 -1114 0
-103 -1115 0
-104 -1116 0
-101 -1117 0
-102 -1118 0
-103 -1119 0
-104 -1120 0
-101 -1121 0
-102 -1122 0
-103 -1123 0
-104 -1124 0
-101 -1125 0
-102 -1126 0
-103 -1127 0
-104 -1128 0
-105 -169 0
-106 -170 0
-107 -171 0
-108 -172 0
-105 -373 0
-106 -374 0
-107 -375 0
-108 -376 0
-105 -1145 0
-106 -1146 0
-107 -1147 0
-108 -1148 0
-105 -1149 0
-106 -1150 0
-107 -1151 0
-108 -1152 0
-105 -1153 0
-106 -1154 0
-107 -1155 0
-108 -1156 0
-105 -1157 0
-106 -1158 0
-107 -1159 0
-108 -1160 0
-109 -113 0
-110 -114 0
-111 -115 0
-112 -116 0
-109 -381 0
-110 -382 0
-111 -383 0
-112 -384 0
-109 -1173 0
-110 -1174 0
-111 -1175 0
-112 -1176 0
-109 -1177 0
-110 -1178 0
-111 -1179 0
-112 -1180 0
-113 -117 0
-114 -118 0
-115 -119 0
-116 -120 0
-113 -225 0
-114 -226 0
-115 -227 0
-116 -228 0
-113 -385 0
-114 -386 0
-115 -387 0
-116 -388 0
-113 -637 0
-114 -638 0
-115 -639 0
-116 -640 0
-113 -1081 0
-114 -1082 0
-115 -1083 0
-116 -1084 0
-113 -1181 0
-114 -1182 0
-115 -1183 0
-116 -1184 0
-113 -1185 0
-114 -1186 0
-115 -1187 0
-116 -1188 0
-113 -1189 0
-114 -1190 0
-115 -1191 0
-116 -1192 0
-113 -1193 0
-114 -1194 0
-115 -1195 0
-116 -1196 0
-113 -1197 0
-114 -1198 0
-115 -1199 0
-116 -1200 0
-117 -121 0
-118 -122 0
-119 -123 0
-120 -124 0
-117 -173 0
-118 -174 0
-119 -175 0
-120 -176 0
-117 -225 0
-118 -226 0
-119 -227 0
-120 -228 0
-117 -237 0
-118 -238 0
-119 -239 0
-120 -240 0
-117 -321 0
-118 -322 0
-119 -323 0
-120 -324 0
-117 -329 0
-118 -330 0
-119 -331 0
-120 -332 0
-117 -389 0
-118 -390 0
-119 -391 0
-120 -392 0
-117 -653 0
-118 -654 0
-119 -655 0
-120 -656 0
-117 -1049 0
-118 -1050 0
-119 -1051 0
-120 -1052 0
-117 -1085 0
-118 -1086 0
-119 -1087 0
-120 -1088 0
-117 -1129 0
-118 -1130 0
-119 -1131 0
-120 -1132 0
-117 -1201 0
-118 -1202 0
-119 -1203 0
-120 -1204 0
-117 -1205 0
-118 -1206 0
-119 -1207 0
-120 -1208 0
-117 -1209 0
-118 -1210 0
-119 -1211 0
-120 -1212 0
-117 -1213 0
-118 -1214 0
-119 -1215 0
-120 -1216 0
-117 -1217 0
-118 -1218 0
-119 -1219 0
-120 -1220 0
-117 -1221 0
-118 -1222 0
-119 -1223 0
-120 -1224 0
-121 -125 0
-122 -126 0
-123 -127 0
-124 -128 0
-121 -177 0
-122 -178 0
-123 -179 0
-124 -180 0
-121 -321 0
-122 -322 0
-123 -323 0
-124 -324 0
-121 -325 0
-122 -326 0
-123 -327 0
-124 -328 0
-121 -393 0
-122 -394 0
-123 -395 0
-124 -396 0
-121 -681 0
-122 -682 0
-123 -683 0
-124 -684 0
-121 -1069 0
-122 -1070 0
-123 -1071 0
-124 -1072 0
-121 -1133 0
-122 -1134 0
-123 -1135 0
-124 -1136 0
-121 -1145 0
-122 -1146 0
-123 -1147 0
-124 -1148 0
-121 -1225 0
-122 -1226 0
-123 -1227 0
-124 -1228 0
-121 -1229 0
-122 -1230 0
-123 -1231 0
-124 -1232 0
-121 -1233 0
-122 -1234 0
-123 -1235 0
-124 -1236 0
-121 -1237 0
-122 -1238 0
-123 -1239 0
-124 -1240 0
-121 -1241 0
-122 -1242 0
-123 -1243 0
-124 -1244 0
-125 -181 0
-126 -182 0
-127 -183 0
-128 -184 0
-125 -397 0
-126 -398 0
-127 -399 0
-128 -400 0
-125 -1053 0
-126 -1054 0
-127 -1055 0
-128 -1056 0
-125 -1245 0
-126 -1246 0
-127 -1247 0
-128 -1248 0
-125 -1249 0
-126 -1250 0
-127 -1251 0
-128 -1252 0
-129 -133 0
-130 -134 0
-131 -135 0
-132 -136 0
-129 -401 0
-130 -402 0
-131 -403 0
-132 -404 0
-129 -1073 0
-130 -1074 0
-131 -1075 0
-132 -1076 0
-129 -1093 0
-130 -1094 0
-131 -1095 0
-132 -1096 0
-129 -1113 0
-130 -1114 0
-131 -1115 0
-132 -1116 0
-129 -1137 0
-130 -1138 0
-131 -1139 0
-132 -1140 0
-129 -1149 0
-130 -1150 0
-131 -1151 0
-132 -1152 0
-129 -1205 0
-130 -1206 0
-131 -1207 0
-132 -1208 0
-129 -1225 0
-130 -1226 0
-131 -1227 0
-132 -1228 0
-133 -137 0
-134 -138 0
-135 -139 0
-136 -140 0
-133 -405 0
-134 -406 0
-135 -407 0
-136 -408 0
-133 -1077 0
-134 -1078 0
-135 -1079 0
-136 -1080 0
-133 -1097 0
-134 -1098 0
-135 -1099 0
-136 -1100 0
-133 -1141 0
-134 -1142 0
-135 -1143 0
-136 -1144 0
-133 -1153 0
-134 -1154 0
-135 -1155 0
-136 -1156 0
-133 -1181 0
-134 -1182 0
-135 -1183 0
-136 -1184 0
-133 -1209 0
-134 -1210 0
-135 -1211 0
-136 -1212 0
-133 -1229 0
-134 -1230 0
-135 -1231 0
-136 -1232 0
-133 -1253 0
-134 -1254 0
-135 -1255 0
-136 -1256 0
-133 -1257 0
-134 -1258 0
-135 -1259 0
-136 -1260 0
-137 -141 0
-138 -142 0
-139 -143 0
-140 -144 0
-137 -185 0
-138 -186 0
-139 -187 0
-140 -188 0
-137 -409 0
-138 -410 0
-139 -411 0
-140 -412 0
-137 -1057 0
-138 -1058 0
-139 -1059 0
-140 -1060 0
-137 -1101 0
-138 -1102 0
-139 -1103 0
-140 -1104 0
-137 -1117 0
-138 -1118 0
-139 -1119 0
-140 -1120 0
-137 -1157 0
-138 -1158 0
-139 -1159 0
-140 -1160 0
-137 -1161 0
-138 -1162 0
-139 -1163 0
-140 -1164 0
-137 -1173 0
-138 -1174 0
-139 -1175 0
-140 -1176 0
-137 -1185 0
-138 -1186 0
-139 -1187 0
-140 -1188 0
-137 -1213 0
-138 -1214 0
-139 -1215 0
-140 -1216 0
-137 -1233 0
-138 -1234 0
-139 -1235 0
-140 -1236 0
-137 -1253 0
-138 -1254 0
-139 -1255 0
-140 -1256 0
-141 -1061 0
-142 -1062 0
-143 -1063 0
-144 -1064 0
-141 -1089 0
-142 -1090 0
-143 -1091 0
-144 -1092 0
-141 -1105 0
-142 -1106 0
-143 -1107 0
-144 -1108 0
-141 -1165 0
-142 -1166 0
-143 -1167 0
-144 -1168 0
-141 -1189 0
-142 -1190 0
-143 -1191 0
-144 -1192 0
-141 -1217 0
-142 -1218 0
-143 -1219 0
-144 -1220 0
-145 -149 0
-146 -150 0
-147 -151 0
-148 -152 0
-145 -193 0
-146 -194 0
-147 -195 0
-148 -196 0
-145 -417 0
-146 -418 0
-147 -419 0
-148 -420 0
-145 -1169 0
-146 -1170 0
-147 -1171 0
-148 -1172 0
-145 -1177 0
-146 -1178 0
-147 -1179 0
-148 -1180 0
-145 -1193 0
-146 -1194 0
-147 -1195 0
-148 -1196 0
-145 -1221 0
-146 -1222 0
-147 -1223 0
-148 -1224 0
-145 -1237 0
-146 -1238 0
-147 -1239 0
-148 -1240 0
-145 -1245 0
-146 -1246 0
-147 -1247 0
-148 -1248 0
-149 -421 0
-150 -422 0
-151 -423 0
-152 -424 0
-149 -1241 0
-150 -1242 0
-151 -1243 0
-152 -1244 0
-149 -1249 0
-150 -1250 0
-151 -1251 0
-152 -1252 0
-153 -445 0
-154 -446 0
-155 -447 0
-156 -448 0
-153 -449 0
-154 -450 0
-155 -451 0
-156 -452 0
-153 -757 0
-154 -758 0
-155 -759 0
-156 -760 0
-153 -1261 0
-154 -1262 0
-155 -1263 0
-156 -1264 0
-153 -1265 0
-154 -1266 0
-155 -1267 0
-156 -1268 0
-153 -1269 0
-154 -1270 0
-155 -1271 0
-156 -1272 0
-153 -1273 0
-154 -1274 0
-155 -1275 0
-156 -1276 0
-153 -1277 0
-154 -1278 0
-155 -1279 0
-156 -1280 0
-157 -161 0
-158 -162 0
-159 -163 0
-160 -164 0
-157 -209 0
-158 -210 0
-159 -211 0
-160 -212 0
-157 -1261 0
-158 -1262 0
-159 -1263 0
-160 -1264 0
-157 -1281 0
-158 -1282 0
-159 -1283 0
-160 -1284 0
-157 -1285 0
-158 -1286 0
-159 -1287 0
-160 -1288 0
-157 -1289 0
-158 -1290 0
-159 -1291 0
-160 -1292 0
-157 -1293 0
-158 -1294 0
-159 -1295 0
-160 -1296 0
-161 -213 0
-162 -214 0
-163 -215 0
-164 -216 0
-161 -1297 0
-162 -1298 0
-163 -1299 0
-164 -1300 0
-161 -1301 0
-162 -1302 0
-163 -1303 0
-164 -1304 0
-161 -1305 0
-162 -1306 0
-163 -1307 0
-164 -1308 0
-161 -1309 0
-162 -1310 0
-163 -1311 0
-164 -1312 0
-161 -1313 0
-162 -1314 0
-163 -1315 0
-164 -1316 0
-165 -169 0
-166 -170 0
-167 -171 0
-168 -172 0
-165 -221 0
-166 -222 0
-167 -223 0
-168 -224 0
-165 -381 0
-166 -382 0
-167 -383 0
-168 -384 0
-165 -385 0
-166 -386 0
-167 -387 0
-168 -388 0
-165 -757 0
-166 -758 0
-167 -759 0
-168 -760 0
-165 -1341 0
-166 -1342 0
-167 -1343 0
-168 -1344 0
-165 -1345 0
-166 -1346 0
-167 -1347 0
-168 -1348 0
-165 -1349 0
-166 -1350 0
-167 -1351 0
-168 -1352 0
-165 -1353 0
-166 -1354 0
-167 -1355 0
-168 -1356 0
-165 -1357 0
-166 -1358 0
-167 -1359 0
-168 -1360 0
-169 -225 0
-170 -226 0
-171 -227 0
-172 -228 0
-169 -1049 0
-170 -1050 0
-171 -1051 0
-172 -1052 0
-169 -1361 0
-170 -1362 0
-171 -1363 0
-172 -1364 0
-173 -177 0
-174 -178 0
-175 -179 0
-176 -180 0
-173 -273 0
-174 -274 0
-175 -275 0
-176 -276 0
-173 -281 0
-174 -282 0
-175 -283 0
-176 -284 0
-173 -1297 0
-174 -1298 0
-175 -1299 0
-176 -1300 0
-173 -1381 0
-174 -1382 0
-175 -1383 0
-176 -1384 0
-173 -1385 0
-174 -1386 0
-175 -1387 0
-176 -1388 0
-173 -1389 0
-174 -1390 0
-175 -1391 0
-176 -1392 0
-173 -1393 0
-174 -1394 0
-175 -1395 0
-176 -1396 0
-173 -1397 0
-174 -1398 0
-175 -1399 0
-176 -1400 0
-173 -1401 0
-174 -1402 0
-175 -1403 0
-176 -1404 0
-177 -181 0
-178 -182 0
-179 -183 0
-180 -184 0
-177 -233 0
-178 -234 0
-179 -235 0
-180 -236 0
-177 -273 0
-178 -274 0
-179 -275 0
-180 -276 0
-177 -277 0
-178 -278 0
-179 -279 0
-180 -280 0
-177 -361 0
-178 -362 0
-179 -363 0
-180 -364 0
-177 -385 0
-178 -386 0
-179 -387 0
-180 -388 0
-177 -449 0
-178 -450 0
-179 -451 0
-180 -452 0
-177 -681 0
-178 -682 0
-179 -683 0
-180 -684 0
-177 -1081 0
-178 -1082 0
-179 -1083 0
-180 -1084 0
-177 -1281 0
-178 -1282 0
-179 -1283 0
-180 -1284 0
-177 -1301 0
-178 -1302 0
-179 -1303 0
-180 -1304 0
-177 -1361 0
-178 -1362 0
-179 -1363 0
-180 -1364 0
-177 -1405 0
-178 -1406 0
-179 -1407 0
-180 -1408 0
-177 -1409 0
-178 -1410 0
-179 -1411 0
-180 -1412 0
-177 -1413 0
-178 -1414 0
-179 -1415 0
-180 -1416 0
-177 -1417 0
-178 -1418 0
-179 -1419 0
-180 -1420 0
-177 -1421 0
-178 -1422 0
-179 -1423 0
-180 -1424 0
-177 -1425 0
-178 -1426 0
-179 -1427 0
-180 -1428 0
-181 -237 0
-182 -238 0
-183 -239 0
-184 -240 0
-181 -361 0
-182 -362 0
-183 -363 0
-184 -364 0
-181 -381 0
-182 -382 0
-183 -383 0
-184 -384 0
-181 -445 0
-182 -446 0
-183 -447 0
-184 -448 0
-181 -1049 0
-182 -1050 0
-183 -1051 0
-184 -1052 0
-181 -1053 0
-182 -1054 0
-183 -1055 0
-184 -1056 0
-181 -1285 0
-182 -1286 0
-183 -1287 0
-184 -1288 0
-181 -1317 0
-182 -1318 0
-183 -1319 0
-184 -1320 0
-181 -1365 0
-182 -1366 0
-183 -1367 0
-184 -1368 0
-181 -1429 0
-182 -1430 0
-183 -1431 0
-184 -1432 0
-181 -1433 0
-182 -1434 0
-183 -1435 0
-184 -1436 0
-181 -1437 0
-182 -1438 0
-183 -1439 0
-184 -1440 0
-181 -1441 0
-182 -1442 0
-183 -1443 0
-184 -1444 0
-181 -1445 0
-182 -1446 0
-183 -1447 0
-184 -1448 0
-185 -241 0
-186 -242 0
-187 -243 0
-188 -244 0
-185 -1057 0
-186 -1058 0
-187 -1059 0
-188 -1060 0
-185 -1269 0
-186 -1270 0
-187 -1271 0
-188 -1272 0
-185 -1289 0
-186 -1290 0
-187 -1291 0
-188 -1292 0
-185 -1305 0
-186 -1306 0
-187 -1307 0
-188 -1308 0
-185 -1369 0
-186 -1370 0
-187 -1371 0
-188 -1372 0
-185 -1385 0
-186 -1386 0
-187 -1387 0
-188 -1388 0
-185 -1417 0
-186 -1418 0
-187 -1419 0
-188 -1420 0
-185 -1449 0
-186 -1450 0
-187 -1451 0
-188 -1452 0
-185 -1453 0
-186 -1454 0
-187 -1455 0
-188 -1456 0
-189 -249 0
-190 -250 0
-191 -251 0
-192 -252 0
-189 -1273 0
-190 -1274 0
-191 -1275 0
-192 -1276 0
-189 -1313 0
-190 -1314 0
-191 -1315 0
-192 -1316 0
-189 -1329 0
-190 -1330 0
-191 -1331 0
-192 -1332 0
-189 -1393 0
-190 -1394 0
-191 -1395 0
-192 -1396 0
-189 -1421 0
-190 -1422 0
-191 -1423 0
-192 -1424 0
-189 -1437 0
-190 -1438 0
-191 -1439 0
-192 -1440 0
-189 -1457 0
-190 -1458 0
-191 -1459 0
-192 -1460 0
-193 -201 0
-194 -202 0
-195 -203 0
-196 -204 0
-193 -253 0
-194 -254 0
-195 -255 0
-196 -256 0
-193 -1397 0
-194 -1398 0
-195 -1399 0
-196 -1400 0
-193 -1425 0
-194 -1426 0
-195 -1427 0
-196 -1428 0
-197 -201 0
-198 -202 0
-199 -203 0
-200 -204 0
-197 -257 0
-198 -258 0
-199 -259 0
-200 -260 0
-197 -1333 0
-198 -1334 0
-199 -1335 0
-200 -1336 0
-197 -1353 0
-198 -1354 0
-199 -1355 0
-200 -1356 0
-197 -1453 0
-198 -1454 0
-199 -1455 0
-200 -1456 0
-197 -1461 0
-198 -1462 0
-199 -1463 0
-200 -1464 0
-197 -1465 0
-198 -1466 0
-199 -1467 0
-200 -1468 0
-201 -261 0
-202 -262 0
-203 -263 0
-204 -264 0
-201 -1277 0
-202 -1278 0
-203 -1279 0
-204 -1280 0
-201 -1337 0
-202 -1338 0
-203 -1339 0
-204 -1340 0
-201 -1357 0
-202 -1358 0
-203 -1359 0
-204 -1360 0
-201 -1401 0
-202 -1402 0
-203 -1403 0
-204 -1404 0
-205 -793 0
-206 -794 0
-207 -795 0
-208 -796 0
-205 -1473 0
-206 -1474 0
-207 -1475 0
-208 -1476 0
-205 -1477 0
-206 -1478 0
-207 -1479 0
-208 -1480 0
-205 -1481 0
-206 -1482 0
-207 -1483 0
-208 -1484 0
-209 -213 0
-210 -214 0
-211 -215 0
-212 -216 0
-209 -229 0
-210 -230 0
-211 -231 0
-212 -232 0
-209 -1205 0
-210 -1206 0
-211 -1207 0
-212 -1208 0
-209 -1209 0
-210 -1210 0
-211 -1211 0
-212 -1212 0
-209 -1261 0
-210 -1262 0
-211 -1263 0
-212 -1264 0
-213 -217 0
-214 -218 0
-215 -219 0
-216 -220 0
-213 -1485 0
-214 -1486 0
-215 -1487 0
-216 -1488 0
-213 -1489 0
-214 -1490 0
-215 -1491 0
-216 -1492 0
-217 -221 0
-218 -222 0
-219 -223 0
-220 -224 0
-217 -1181 0
-218 -1182 0
-219 -1183 0
-220 -1184 0
-217 -1185 0
-218 -1186 0
-219 -1187 0
-220 -1188 0
-217 -1253 0
-218 -1254 0
-219 -1255 0
-220 -1256 0
-217 -1265 0
-218 -1266 0
-219 -1267 0
-220 -1268 0
-217 -1493 0
-218 -1494 0
-219 -1495 0
-220 -1496 0
-217 -1497 0
-218 -1498 0
-219 -1499 0
-220 -1500 0
-217 -1501 0
-218 -1502 0
-219 -1503 0
-220 -1504 0
-217 -1505 0
-218 -1506 0
-219 -1507 0
-220 -1508 0
-221 -225 0
-222 -226 0
-223 -227 0
-224 -228 0
-221 -265 0
-222 -266 0
-223 -267 0
-224 -268 0
-221 -329 0
-222 -330 0
-223 -331 0
-224 -332 0
-221 -333 0
-222 -334 0
-223 -335 0
-224 -336 0
-221 -757 0
-222 -758 0
-223 -759 0
-224 -760 0
-221 -1473 0
-222 -1474 0
-223 -1475 0
-224 -1476 0
-221 -1509 0
-222 -1510 0
-223 -1511 0
-224 -1512 0
-221 -1513 0
-222 -1514 0
-223 -1515 0
-224 -1516 0
-221 -1517 0
-222 -1518 0
-223 -1519 0
-224 -1520 0
-225 -229 0
-226 -230 0
-227 -231 0
-228 -232 0
-225 -269 0
-226 -270 0
-227 -271 0
-228 -272 0
-225 -793 0
-226 -794 0
-227 -795 0
-228 -796 0
-225 -1201 0
-226 -1202 0
-227 -1203 0
-228 -1204 0
-225 -1257 0
-226 -1258 0
-227 -1259 0
-228 -1260 0
-225 -1521 0
-226 -1522 0
-227 -1523 0
-228 -1524 0
-225 -1525 0
-226 -1526 0
-227 -1527 0
-228 -1528 0
-229 -273 0
-230 -274 0
-231 -275 0
-232 -276 0
-229 -1081 0
-230 -1082 0
-231 -1083 0
-232 -1084 0
-229 -1085 0
-230 -1086 0
-231 -1087 0
-232 -1088 0
-229 -1477 0
-230 -1478 0
-231 -1479 0
-232 -1480 0
-229 -1529 0
-230 -1530 0
-231 -1531 0
-232 -1532 0
-229 -1533 0
-230 -1534 0
-231 -1535 0
-232 -1536 0
-233 -237 0
-234 -238 0
-235 -239 0
-236 -240 0
-233 -333 0
-234 -334 0
-235 -335 0
-236 -336 0
-233 -449 0
-234 -450 0
-235 -451 0
-236 -452 0
-233 -1201 0
-234 -1202 0
-235 -1203 0
-236 -1204 0
-233 -1485 0
-234 -1486 0
-235 -1487 0
-236 -1488 0
-233 -1493 0
-234 -1494 0
-235 -1495 0
-236 -1496 0
-233 -1549 0
-234 -1550 0
-235 -1551 0
-236 -1552 0
-233 -1553 0
-234 -1554 0
-235 -1555 0
-236 -1556 0
-233 -1557 0
-234 -1558 0
-235 -1559 0
-236 -1560 0
-233 -1561 0
-234 -1562 0
-235 -1563 0
-236 -1564 0
-237 -285 0
-238 -286 0
-239 -287 0
-240 -288 0
-237 -329 0
-238 -330 0
-239 -331 0
-240 -332 0
-237 -445 0
-238 -446 0
-239 -447 0
-240 -448 0
-237 -1085 0
-238 -1086 0
-239 -1087 0
-240 -1088 0
-237 -1161 0
-238 -1162 0
-239 -1163 0
-240 -1164 0
-237 -1253 0
-238 -1254 0
-239 -1255 0
-240 -1256 0
-237 -1297 0
-238 -1298 0
-239 -1299 0
-240 -1300 0
-237 -1565 0
-238 -1566 0
-239 -1567 0
-240 -1568 0
-237 -1569 0
-238 -1570 0
-239 -1571 0
-240 -1572 0
-237 -1573 0
-238 -1574 0
-239 -1575 0
-240 -1576 0
-237 -1577 0
-238 -1578 0
-239 -1579 0
-240 -1580 0
-237 -1581 0
-238 -1582 0
-239 -1583 0
-240 -1584 0
-237 -1585 0
-238 -1586 0
-239 -1587 0
-240 -1588 0
-237 -1589 0
-238 -1590 0
-239 -1591 0
-240 -1592 0
-241 -245 0
-242 -246 0
-243 -247 0
-244 -248 0
-241 -1269 0
-242 -1270 0
-243 -1271 0
-244 -1272 0
-241 -1541 0
-242 -1542 0
-243 -1543 0
-244 -1544 0
-241 -1549 0
-242 -1550 0
-243 -1551 0
-244 -1552 0
-241 -1565 0
-242 -1566 0
-243 -1567 0
-244 -1568 0
-245 -249 0
-246 -250 0
-247 -251 0
-248 -252 0
-245 -1129 0
-246 -1130 0
-247 -1131 0
-248 -1132 0
-245 -1141 0
-246 -1142 0
-247 -1143 0
-248 -1144 0
-245 -1209 0
-246 -1210 0
-247 -1211 0
-248 -1212 0
-245 -1469 0
-246 -1470 0
-247 -1471 0
-248 -1472 0
-245 -1481 0
-246 -1482 0
-247 -1483 0
-248 -1484 0
-245 -1497 0
-246 -1498 0
-247 -1499 0
-248 -1500 0
-245 -1525 0
-246 -1526 0
-247 -1527 0
-248 -1528 0
-245 -1529 0
-246 -1530 0
-247 -1531 0
-248 -1532 0
-245 -1553 0
-246 -1554 0
-247 -1555 0
-248 -1556 0
-245 -1569 0
-246 -1570 0
-247 -1571 0
-248 -1572 0
-245 -1593 0
-246 -1594 0
-247 -1595 0
-248 -1596 0
-249 -297 0
-250 -298 0
-251 -299 0
-252 -300 0
-249 -1109 0
-250 -1110 0
-251 -1111 0
-252 -1112 0
-249 -1129 0
-250 -1130 0
-251 -1131 0
-252 -1132 0
-249 -1137 0
-250 -1138 0
-251 -1139 0
-252 -1140 0
-249 -1161 0
-250 -1162 0
-251 -1163 0
-252 -1164 0
-249 -1185 0
-250 -1186 0
-251 -1187 0
-252 -1188 0
-249 -1205 0
-250 -1206 0
-251 -1207 0
-252 -1208 0
-249 -1273 0
-250 -1274 0
-251 -1275 0
-252 -1276 0
-249 -1489 0
-250 -1490 0
-251 -1491 0
-252 -1492 0
-249 -1557 0
-250 -1558 0
-251 -1559 0
-252 -1560 0
-253 -261 0
-254 -262 0
-255 -263 0
-256 -264 0
-253 -305 0
-254 -306 0
-255 -307 0
-256 -308 0
-253 -1097 0
-254 -1098 0
-255 -1099 0
-256 -1100 0
-257 -261 0
-258 -262 0
-259 -263 0
-260 -264 0
-257 -1501 0
-258 -1502 0
-259 -1503 0
-260 -1504 0
-257 -1585 0
-258 -1586 0
-259 -1587 0
-260 -1588 0
-257 -1593 0
-258 -1594 0
-259 -1595 0
-260 -1596 0
-257 -1601 0
-258 -1602 0
-259 -1603 0
-260 -1604 0
-261 -1097 0
-262 -1098 0
-263 -1099 0
-264 -1100 0
-261 -1109 0
-262 -1110 0
-263 -1111 0
-264 -1112 0
-261 -1257 0
-262 -1258 0
-263 -1259 0
-264 -1260 0
-261 -1277 0
-262 -1278 0
-263 -1279 0
-264 -1280 0
-261 -1505 0
-262 -1506 0
-263 -1507 0
-264 -1508 0
-261 -1517 0
-262 -1518 0
-263 -1519 0
-264 -1520 0
-261 -1533 0
-262 -1534 0
-263 -1535 0
-264 -1536 0
-261 -1545 0
-262 -1546 0
-263 -1547 0
-264 -1548 0
-261 -1589 0
-262 -1590 0
-263 -1591 0
-264 -1592 0
-261 -1597 0
-262 -1598 0
-263 -1599 0
-264 -1600 0
-261 -1601 0
-262 -1602 0
-263 -1603 0
-264 -1604 0
-265 -269 0
-266 -270 0
-267 -271 0
-268 -272 0
-265 -313 0
-266 -314 0
-267 -315 0
-268 -316 0
-265 -1385 0
-266 -1386 0
-267 -1387 0
-268 -1388 0
-265 -1389 0
-266 -1390 0
-267 -1391 0
-268 -1392 0
-265 -1449 0
-266 -1450 0
-267 -1451 0
-268 -1452 0
-265 -1473 0
-266 -1474 0
-267 -1475 0
-268 -1476 0
-269 -273 0
-270 -274 0
-271 -275 0
-272 -276 0
-269 -317 0
-270 -318 0
-271 -319 0
-272 -320 0
-269 -385 0
-270 -386 0
-271 -387 0
-272 -388 0
-269 -389 0
-270 -390 0
-271 -391 0
-272 -392 0
-269 -793 0
-270 -794 0
-271 -795 0
-272 -796 0
-269 -1609 0
-270 -1610 0
-271 -1611 0
-272 -1612 0
-269 -1653 0
-270 -1654 0
-271 -1655 0
-272 -1656 0
-269 -1657 0
-270 -1658 0
-271 -1659 0
-272 -1660 0
-269 -1661 0
-270 -1662 0
-271 -1663 0
-272 -1664 0
-269 -1665 0
-270 -1666 0
-271 -1667 0
-272 -1668 0
-269 -1669 0
-270 -1670 0
-271 -1671 0
-272 -1672 0
-273 -321 0
-274 -322 0
-275 -323 0
-276 -324 0
-273 -825 0
-274 -826 0
-275 -827 0
-276 -828 0
-273 -1405 0
-274 -1406 0
-275 -1407 0
-276 -1408 0
-273 -1453 0
-274 -1454 0
-275 -1455 0
-276 -1456 0
-273 -1465 0
-274 -1466 0
-275 -1467 0
-276 -1468 0
-273 -1477 0
-274 -1478 0
-275 -1479 0
-276 -1480 0
-273 -1673 0
-274 -1674 0
-275 -1675 0
-276 -1676 0
-273 -1677 0
-274 -1678 0
-275 -1679 0
-276 -1680 0
-277 -281 0
-278 -282 0
-279 -283 0
-280 -284 0
-277 -285 0
-278 -286 0
-279 -287 0
-280 -288 0
-277 -325 0
-278 -326 0
-279 -327 0
-280 -328 0
-277 -365 0
-278 -366 0
-279 -367 0
-280 -368 0
-277 -385 0
-278 -386 0
-279 -387 0
-280 -388 0
-277 -545 0
-278 -546 0
-279 -547 0
-280 -548 0
-277 -1289 0
-278 -1290 0
-279 -1291 0
-280 -1292 0
-277 -1293 0
-278 -1294 0
-279 -1295 0
-280 -1296 0
-277 -1301 0
-278 -1302 0
-279 -1303 0
-280 -1304 0
-277 -1317 0
-278 -1318 0
-279 -1319 0
-280 -1320 0
-277 -1449 0
-278 -1450 0
-279 -1451 0
-280 -1452 0
-277 -1493 0
-278 -1494 0
-279 -1495 0
-280 -1496 0
-277 -1641 0
-278 -1642 0
-279 -1643 0
-280 -1644 0
-277 -1681 0
-278 -1682 0
-279 -1683 0
-280 -1684 0
-277 -1685 0
-278 -1686 0
-279 -1687 0
-280 -1688 0
-277 -1689 0
-278 -1690 0
-279 -1691 0
-280 -1692 0
-281 -329 0
-282 -330 0
-283 -331 0
-284 -332 0
-281 -1297 0
-282 -1298 0
-283 -1299 0
-284 -1300 0
-281 -1693 0
-282 -1694 0
-283 -1695 0
-284 -1696 0
-281 -1697 0
-282 -1698 0
-283 -1699 0
-284 -1700 0
-285 -341 0
-286 -342 0
-287 -343 0
-288 -344 0
-285 -365 0
-286 -366 0
-287 -367 0
-288 -368 0
-285 -389 0
-286 -390 0
-287 -391 0
-288 -392 0
-285 -1405 0
-286 -1406 0
-287 -1407 0
-288 -1408 0
-285 -1705 0
-286 -1706 0
-287 -1707 0
-288 -1708 0
-285 -1709 0
-286 -1710 0
-287 -1711 0
-288 -1712 0
-285 -1713 0
-286 -1714 0
-287 -1715 0
-288 -1716 0
-289 -293 0
-290 -294 0
-291 -295 0
-292 -296 0
-289 -301 0
-290 -302 0
-291 -303 0
-292 -304 0
-289 -1289 0
-290 -1290 0
-291 -1291 0
-292 -1292 0
-289 -1385 0
-290 -1386 0
-291 -1387 0
-292 -1388 0
-289 -1613 0
-290 -1614 0
-291 -1615 0
-292 -1616 0
-289 -1653 0
-290 -1654 0
-291 -1655 0
-292 -1656 0
-289 -1705 0
-290 -1706 0
-291 -1707 0
-292 -1708 0
-293 -345 0
-294 -346 0
-295 -347 0
-296 -348 0
-293 -1617 0
-294 -1618 0
-295 -1619 0
-296 -1620 0
-293 -1657 0
-294 -1658 0
-295 -1659 0
-296 -1660 0
-293 -1673 0
-294 -1674 0
-295 -1675 0
-296 -1676 0
-293 -1681 0
-294 -1682 0
-295 -1683 0
-296 -1684 0
-297 -301 0
-298 -302 0
-299 -303 0
-300 -304 0
-297 -349 0
-298 -350 0
-299 -351 0
-300 -352 0
-297 -1361 0
-298 -1362 0
-299 -1363 0
-300 -1364 0
-297 -1417 0
-298 -1418 0
-299 -1419 0
-300 -1420 0
-297 -1621 0
-298 -1622 0
-299 -1623 0
-300 -1624 0
-297 -1637 0
-298 -1638 0
-299 -1639 0
-300 -1640 0
-297 -1645 0
-298 -1646 0
-299 -1647 0
-300 -1648 0
-297 -1685 0
-298 -1686 0
-299 -1687 0
-300 -1688 0
-297 -1709 0
-298 -1710 0
-299 -1711 0
-300 -1712 0
-301 -353 0
-302 -354 0
-303 -355 0
-304 -356 0
-301 -1293 0
-302 -1294 0
-303 -1295 0
-304 -1296 0
-301 -1333 0
-302 -1334 0
-303 -1335 0
-304 -1336 0
-301 -1361 0
-302 -1362 0
-303 -1363 0
-304 -1364 0
-301 -1389 0
-302 -1390 0
-303 -1391 0
-304 -1392 0
-301 -1413 0
-302 -1414 0
-303 -1415 0
-304 -1416 0
-301 -1465 0
-302 -1466 0
-303 -1467 0
-304 -1468 0
-301 -1605 0
-302 -1606 0
-303 -1607 0
-304 -1608 0
-301 -1625 0
-302 -1626 0
-303 -1627 0
-304 -1628 0
-301 -1649 0
-302 -1650 0
-303 -1651 0
-304 -1652 0
-301 -1661 0
-302 -1662 0
-303 -1663 0
-304 -1664 0
-301 -1701 0
-302 -1702 0
-303 -1703 0
-304 -1704 0
-301 -1713 0
-302 -1714 0
-303 -1715 0
-304 -1716 0
-305 -357 0
-306 -358 0
-307 -359 0
-308 -360 0
-305 -1333 0
-306 -1334 0
-307 -1335 0
-308 -1336 0
-305 -1453 0
-306 -1454 0
-307 -1455 0
-308 -1456 0
-305 -1629 0
-306 -1630 0
-307 -1631 0
-308 -1632 0
-305 -1665 0
-306 -1666 0
-307 -1667 0
-308 -1668 0
-305 -1717 0
-306 -1718 0
-307 -1719 0
-308 -1720 0
-309 -593 0
-310 -594 0
-311 -595 0
-312 -596 0
-309 -597 0
-310 -598 0
-311 -599 0
-312 -600 0
-309 -865 0
-310 -866 0
-311 -867 0
-312 -868 0
-309 -1721 0
-310 -1722 0
-311 -1723 0
-312 -1724 0
-309 -1725 0
-310 -1726 0
-311 -1727 0
-312 -1728 0
-309 -1729 0
-310 -1730 0
-311 -1731 0
-312 -1732 0
-309 -1733 0
-310 -1734 0
-311 -1735 0
-312 -1736 0
-309 -1737 0
-310 -1738 0
-311 -1739 0
-312 -1740 0
-309 -1741 0
-310 -1742 0
-311 -1743 0
-312 -1744 0
-313 -317 0
-314 -318 0
-315 -319 0
-316 -320 0
-313 -1213 0
-314 -1214 0
-315 -1215 0
-316 -1216 0
-313 -1217 0
-314 -1218 0
-315 -1219 0
-316 -1220 0
-313 -1765 0
-314 -1766 0
-315 -1767 0
-316 -1768 0
-317 -321 0
-318 -322 0
-319 -323 0
-320 -324 0
-317 -373 0
-318 -374 0
-319 -375 0
-320 -376 0
-317 -1129 0
-318 -1130 0
-319 -1131 0
-320 -1132 0
-317 -1133 0
-318 -1134 0
-319 -1135 0
-320 -1136 0
-317 -1553 0
-318 -1554 0
-319 -1555 0
-320 -1556 0
-317 -1557 0
-318 -1558 0
-319 -1559 0
-320 -1560 0
-317 -1609 0
-318 -1610 0
-319 -1611 0
-320 -1612 0
-321 -377 0
-322 -378 0
-323 -379 0
-324 -380 0
-321 -825 0
-322 -826 0
-323 -827 0
-324 -828 0
-321 -1201 0
-322 -1202 0
-323 -1203 0
-324 -1204 0
-321 -1769 0
-322 -1770 0
-323 -1771 0
-324 -1772 0
-321 -1773 0
-322 -1774 0
-323 -1775 0
-324 -1776 0
-325 -329 0
-326 -330 0
-327 -331 0
-328 -332 0
-325 -341 0
-326 -342 0
-327 -343 0
-328 -344 0
-325 -545 0
-326 -546 0
-327 -547 0
-328 -548 0
-325 -1089 0
-326 -1090 0
-327 -1091 0
-328 -1092 0
-325 -1133 0
-326 -1134 0
-327 -1135 0
-328 -1136 0
-325 -1721 0
-326 -1722 0
-327 -1723 0
-328 -1724 0
-325 -1777 0
-326 -1778 0
-327 -1779 0
-328 -1780 0
-325 -1781 0
-326 -1782 0
-327 -1783 0
-328 -1784 0
-325 -1785 0
-326 -1786 0
-327 -1787 0
-328 -1788 0
-325 -1789 0
-326 -1790 0
-327 -1791 0
-328 -1792 0
-329 -333 0
-330 -334 0
-331 -335 0
-332 -336 0
-329 -381 0
-330 -382 0
-331 -383 0
-332 -384 0
-329 -597 0
-330 -598 0
-331 -599 0
-332 -600 0
-329 -1129 0
-330 -1130 0
-331 -1131 0
-332 -1132 0
-329 -1153 0
-330 -1154 0
-331 -1155 0
-332 -1156 0
-329 -1157 0
-330 -1158 0
-331 -1159 0
-332 -1160 0
-329 -1253 0
-330 -1254 0
-331 -1255 0
-332 -1256 0
-329 -1489 0
-330 -1490 0
-331 -1491 0
-332 -1492 0
-329 -1761 0
-330 -1762 0
-331 -1763 0
-332 -1764 0
-329 -1765 0
-330 -1766 0
-331 -1767 0
-332 -1768 0
-329 -1793 0
-330 -1794 0
-331 -1795 0
-332 -1796 0
-329 -1797 0
-330 -1798 0
-331 -1799 0
-332 -1800 0
-329 -1801 0
-330 -1802 0
-331 -1803 0
-332 -1804 0
-333 -337 0
-334 -338 0
-335 -339 0
-336 -340 0
-333 -385 0
-334 -386 0
-335 -387 0
-336 -388 0
-333 -593 0
-334 -594 0
-335 -595 0
-336 -596 0
-333 -1201 0
-334 -1202 0
-335 -1203 0
-336 -1204 0
-333 -1493 0
-334 -1494 0
-335 -1495 0
-336 -1496 0
-333 -1529 0
-334 -1530 0
-335 -1531 0
-336 -1532 0
-333 -1805 0
-334 -1806 0
-335 -1807 0
-336 -1808 0
-333 -1809 0
-334 -1810 0
-335 -1811 0
-336 -1812 0
-333 -1813 0
-334 -1814 0
-335 -1815 0
-336 -1816 0
-337 -389 0
-338 -390 0
-339 -391 0
-340 -392 0
-337 -1725 0
-338 -1726 0
-339 -1727 0
-340 -1728 0
-337 -1817 0
-338 -1818 0
-339 -1819 0
-340 -1820 0
-341 -397 0
-342 -398 0
-343 -399 0
-344 -400 0
-341 -1825 0
-342 -1826 0
-343 -1827 0
-344 -1828 0
-345 -405 0
-346 -406 0
-347 -407 0
-348 -408 0
-345 -1485 0
-346 -1486 0
-347 -1487 0
-348 -1488 0
-345 -1553 0
-346 -1554 0
-347 -1555 0
-348 -1556 0
-345 -1617 0
-346 -1618 0
-347 -1619 0
-348 -1620 0
-345 -1733 0
-346 -1734 0
-347 -1735 0
-348 -1736 0
-345 -1773 0
-346 -1774 0
-347 -1775 0
-348 -1776 0
-345 -1777 0
-346 -1778 0
-347 -1779 0
-348 -1780 0
-349 -353 0
-350 -354 0
-351 -355 0
-352 -356 0
-349 -1145 0
-350 -1146 0
-351 -1147 0
-352 -1148 0
-349 -1157 0
-350 -1158 0
-351 -1159 0
-352 -1160 0
-349 -1233 0
-350 -1234 0
-351 -1235 0
-352 -1236 0
-349 -1621 0
-350 -1622 0
-351 -1623 0
-352 -1624 0
-349 -1749 0
-350 -1750 0
-351 -1751 0
-352 -1752 0
-349 -1781 0
-350 -1782 0
-351 -1783 0
-352 -1784 0
-349 -1805 0
-350 -1806 0
-351 -1807 0
-352 -1808 0
-353 -413 0
-354 -414 0
-355 -415 0
-356 -416 0
-353 -1085 0
-354 -1086 0
-355 -1087 0
-356 -1088 0
-353 -1089 0
-354 -1090 0
-355 -1091 0
-356 -1092 0
-353 -1121 0
-354 -1122 0
-355 -1123 0
-356 -1124 0
-353 -1125 0
-354 -1126 0
-355 -1127 0
-356 -1128 0
-353 -1145 0
-354 -1146 0
-355 -1147 0
-356 -1148 0
-353 -1153 0
-354 -1154 0
-355 -1155 0
-356 -1156 0
-353 -1217 0
-354 -1218 0
-355 -1219 0
-356 -1220 0
-353 -1229 0
-354 -1230 0
-355 -1231 0
-356 -1232 0
-353 -1529 0
-354 -1530 0
-355 -1531 0
-356 -1532 0
-353 -1569 0
-354 -1570 0
-355 -1571 0
-356 -1572 0
-353 -1625 0
-354 -1626 0
-355 -1627 0
-356 -1628 0
-353 -1737 0
-354 -1738 0
-355 -1739 0
-356 -1740 0
-353 -1753 0
-354 -1754 0
-355 -1755 0
-356 -1756 0
-353 -1817 0
-354 -1818 0
-355 -1819 0
-356 -1820 0
-353 -1821 0
-354 -1822 0
-355 -1823 0
-356 -1824 0
-357 -417 0
-358 -418 0
-359 -419 0
-360 -420 0
-357 -1117 0
-358 -1118 0
-359 -1119 0
-360 -1120 0
-357 -1125 0
-358 -1126 0
-359 -1127 0
-360 -1128 0
-357 -1629 0
-358 -1630 0
-359 -1631 0
-360 -1632 0
-357 -1793 0
-358 -1794 0
-359 -1795 0
-360 -1796 0
-357 -1809 0
-358 -1810 0
-359 -1811 0
-360 -1812 0
-361 -365 0
-362 -366 0
-363 -367 0
-364 -368 0
-361 -377 0
-362 -378 0
-363 -379 0
-364 -380 0
-361 -865 0
-362 -866 0
-363 -867 0
-364 -868 0
-361 -1065 0
-362 -1066 0
-363 -1067 0
-364 -1068 0
-361 -1405 0
-362 -1406 0
-363 -1407 0
-364 -1408 0
-361 -1461 0
-362 -1462 0
-363 -1463 0
-364 -1464 0
-361 -1833 0
-362 -1834 0
-363 -1835 0
-364 -1836 0
-361 -1837 0
-362 -1838 0
-363 -1839 0
-364 -1840 0
-361 -1841 0
-362 -1842 0
-363 -1843 0
-364 -1844 0
-365 -369 0
-366 -370 0
-367 -371 0
-368 -372 0
-365 -721 0
-366 -722 0
-367 -723 0
-368 -724 0
-365 -1317 0
-366 -1318 0
-367 -1319 0
-368 -1320 0
-365 -1717 0
-366 -1718 0
-367 -1719 0
-368 -1720 0
-365 -1845 0
-366 -1846 0
-367 -1847 0
-368 -1848 0
-365 -1849 0
-366 -1850 0
-367 -1851 0
-368 -1852 0
-369 -1433 0
-370 -1434 0
-371 -1435 0
-372 -1436 0
-369 -1449 0
-370 -1450 0
-371 -1451 0
-372 -1452 0
-369 -1853 0
-370 -1854 0
-371 -1855 0
-372 -1856 0
-373 -377 0
-374 -378 0
-375 -379 0
-376 -380 0
-373 -1421 0
-374 -1422 0
-375 -1423 0
-376 -1424 0
-373 -1457 0
-374 -1458 0
-375 -1459 0
-376 -1460 0
-377 -1049 0
-378 -1050 0
-379 -1051 0
-380 -1052 0
-377 -1361 0
-378 -1362 0
-379 -1363 0
-380 -1364 0
-377 -1709 0
-378 -1710 0
-379 -1711 0
-380 -1712 0
-377 -1713 0
-378 -1714 0
-379 -1715 0
-380 -1716 0
-381 -385 0
-382 -386 0
-383 -387 0
-384 -388 0
-381 -597 0
-382 -598 0
-383 -599 0
-384 -600 0
-381 -1049 0
-382 -1050 0
-383 -1051 0
-384 -1052 0
-381 -1309 0
-382 -1310 0
-383 -1311 0
-384 -1312 0
-381 -1313 0
-382 -1314 0
-383 -1315 0
-384 -1316 0
-381 -1317 0
-382 -1318 0
-383 -1319 0
-384 -1320 0
-381 -1457 0
-382 -1458 0
-383 -1459 0
-384 -1460 0
-381 -1853 0
-382 -1854 0
-383 -1855 0
-384 -1856 0
-381 -1865 0
-382 -1866 0
-383 -1867 0
-384 -1868 0
-381 -1869 0
-382 -1870 0
-383 -1871 0
-384 -1872 0
-381 -1873 0
-382 -1874 0
-383 -1875 0
-384 -1876 0
-385 -389 0
-386 -390 0
-387 -391 0
-388 -392 0
-385 -593 0
-386 -594 0
-387 -595 0
-388 -596 0
-385 -637 0
-386 -638 0
-387 -639 0
-388 -640 0
-385 -1133 0
-386 -1134 0
-387 -1135 0
-388 -1136 0
-385 -1361 0
-386 -1362 0
-387 -1363 0
-388 -1364 0
-385 -1369 0
-386 -1370 0
-387 -1371 0
-388 -1372 0
-385 -1373 0
-386 -1374 0
-387 -1375 0
-388 -1376 0
-385 -1449 0
-386 -1450 0
-387 -1451 0
-388 -1452 0
-385 -1645 0
-386 -1646 0
-387 -1647 0
-388 -1648 0
-385 -1649 0
-386 -1650 0
-387 -1651 0
-388 -1652 0
-385 -1877 0
-386 -1878 0
-387 -1879 0
-388 -1880 0
-385 -1881 0
-386 -1882 0
-387 -1883 0
-388 -1884 0
-385 -1885 0
-386 -1886 0
-387 -1887 0
-388 -1888 0
-389 -393 0
-390 -394 0
-391 -395 0
-392 -396 0
-389 -653 0
-390 -654 0
-391 -655 0
-392 -656 0
-389 -1405 0
-390 -1406 0
-391 -1407 0
-392 -1408 0
-389 -1633 0
-390 -1634 0
-391 -1635 0
-392 -1636 0
-389 -1637 0
-390 -1638 0
-391 -1639 0
-392 -1640 0
-389 -1725 0
-390 -1726 0
-391 -1727 0
-392 -1728 0
-389 -1889 0
-390 -1890 0
-391 -1891 0
-392 -1892 0
-389 -1893 0
-390 -1894 0
-391 -1895 0
-392 -1896 0
-389 -1897 0
-390 -1898 0
-391 -1899 0
-392 -1900 0
-393 -397 0
-394 -398 0
-395 -399 0
-396 -400 0
-393 -1069 0
-394 -1070 0
-395 -1071 0
-396 -1072 0
-393 -1901 0
-394 -1902 0
-395 -1903 0
-396 -1904 0
-393 -1905 0
-394 -1906 0
-395 -1907 0
-396 -1908 0
-393 -1909 0
-394 -1910 0
-395 -1911 0
-396 -1912 0
-393 -1913 0
-394 -1914 0
-395 -1915 0
-396 -1916 0
-397 -1917 0
-398 -1918 0
-399 -1919 0
-400 -1920 0
-397 -1921 0
-398 -1922 0
-399 -1923 0
-400 -1924 0
-401 -405 0
-402 -406 0
-403 -407 0
-404 -408 0
-401 -413 0
-402 -414 0
-403 -415 0
-404 -416 0
-401 -1073 0
-402 -1074 0
-403 -1075 0
-404 -1076 0
-401 -1301 0
-402 -1302 0
-403 -1303 0
-404 -1304 0
-401 -1313 0
-402 -1314 0
-403 -1315 0
-404 -1316 0
-401 -1353 0
-402 -1354 0
-403 -1355 0
-404 -1356 0
-401 -1357 0
-402 -1358 0
-403 -1359 0
-404 -1360 0
-401 -1365 0
-402 -1366 0
-403 -1367 0
-404 -1368 0
-401 -1369 0
-402 -1370 0
-403 -1371 0
-404 -1372 0
-401 -1421 0
-402 -1422 0
-403 -1423 0
-404 -1424 0
-401 -1637 0
-402 -1638 0
-403 -1639 0
-404 -1640 0
-401 -1685 0
-402 -1686 0
-403 -1687 0
-404 -1688 0
-401 -1729 0
-402 -1730 0
-403 -1731 0
-404 -1732 0
-401 -1845 0
-402 -1846 0
-403 -1847 0
-404 -1848 0
-401 -1901 0
-402 -1902 0
-403 -1903 0
-404 -1904 0
-401 -1917 0
-402 -1918 0
-403 -1919 0
-404 -1920 0
-405 -409 0
-406 -410 0
-407 -411 0
-408 -412 0
-405 -1077 0
-406 -1078 0
-407 -1079 0
-408 -1080 0
-405 -1301 0
-406 -1302 0
-407 -1303 0
-408 -1304 0
-405 -1309 0
-406 -1310 0
-407 -1311 0
-408 -1312 0
-405 -1633 0
-406 -1634 0
-407 -1635 0
-408 -1636 0
-405 -1649 0
-406 -1650 0
-407 -1651 0
-408 -1652 0
-405 -1665 0
-406 -1666 0
-407 -1667 0
-408 -1668 0
-405 -1669 0
-406 -1670 0
-407 -1671 0
-408 -1672 0
-405 -1713 0
-406 -1714 0
-407 -1715 0
-408 -1716 0
-405 -1717 0
-406 -1718 0
-407 -1719 0
-408 -1720 0
-405 -1733 0
-406 -1734 0
-407 -1735 0
-408 -1736 0
-405 -1829 0
-406 -1830 0
-407 -1831 0
-408 -1832 0
-405 -1833 0
-406 -1834 0
-407 -1835 0
-408 -1836 0
-405 -1905 0
-406 -1906 0
-407 -1907 0
-408 -1908 0
-409 -1645 0
-410 -1646 0
-411 -1647 0
-412 -1648 0
-409 -1709 0
-410 -1710 0
-411 -1711 0
-412 -1712 0
-413 -1365 0
-414 -1366 0
-415 -1367 0
-416 -1368 0
-413 -1373 0
-414 -1374 0
-415 -1375 0
-416 -1376 0
-413 -1433 0
-414 -1434 0
-415 -1435 0
-416 -1436 0
-413 -1737 0
-414 -1738 0
-415 -1739 0
-416 -1740 0
-413 -1841 0
-414 -1842 0
-415 -1843 0
-416 -1844 0
-413 -1849 0
-414 -1850 0
-415 -1851 0
-416 -1852 0
-413 -1857 0
-414 -1858 0
-415 -1859 0
-416 -1860 0
-413 -1889 0
-414 -1890 0
-415 -1891 0
-416 -1892 0
-417 -421 0
-418 -422 0
-419 -423 0
-420 -424 0
-417 -429 0
-418 -430 0
-419 -431 0
-420 -432 0
-417 -1865 0
-418 -1866 0
-419 -1867 0
-420 -1868 0
-417 -1877 0
-418 -1878 0
-419 -1879 0
-420 -1880 0
-417 -1893 0
-418 -1894 0
-419 -1895 0
-420 -1896 0
-417 -1909 0
-418 -1910 0
-419 -1911 0
-420 -1912 0
-421 -425 0
-422 -426 0
-423 -427 0
-424 -428 0
-421 -1349 0
-422 -1350 0
-423 -1351 0
-424 -1352 0
-421 -1357 0
-422 -1358 0
-423 -1359 0
-424 -1360 0
-425 -1349 0
-426 -1350 0
-427 -1351 0
-428 -1352 0
-425 -1353 0
-426 -1354 0
-427 -1355 0
-428 -1356 0
-425 -1461 0
-426 -1462 0
-427 -1463 0
-428 -1464 0
-425 -1665 0
-426 -1666 0
-427 -1667 0
-428 -1668 0
-425 -1741 0
-426 -1742 0
-427 -1743 0
-428 -1744 0
-429 -1861 0
-430 -1862 0
-431 -1863 0
-432 -1864 0
-429 -1873 0
-430 -1874 0
-431 -1875 0
-432 -1876 0
-429 -1885 0
-430 -1886 0
-431 -1887 0
-432 -1888 0
-429 -1897 0
-430 -1898 0
-431 -1899 0
-432 -1900 0
-429 -1913 0
-430 -1914 0
-431 -1915 0
-432 -1916 0
-429 -1921 0
-430 -1922 0
-431 -1923 0
-432 -1924 0
-433 -901 0
-434 -902 0
-435 -903 0
-436 -904 0
-433 -905 0
-434 -906 0
-435 -907 0
-436 -908 0
-433 -1937 0
-434 -1938 0
-435 -1939 0
-436 -1940 0
-433 -1941 0
-434 -1942 0
-435 -1943 0
-436 -1944 0
-437 -869 0
-438 -870 0
-439 -871 0
-440 -872 0
-437 -885 0
-438 -886 0
-439 -887 0
-440 -888 0
-437 -1945 0
-438 -1946 0
-439 -1947 0
-440 -1948 0
-437 -1949 0
-438 -1950 0
-439 -1951 0
-440 -1952 0
-437 -1953 0
-438 -1954 0
-439 -1955 0
-440 -1956 0
-437 -1957 0
-438 -1958 0
-439 -1959 0
-440 -1960 0
-441 -445 0
-442 -446 0
-443 -447 0
-444 -448 0
-441 -489 0
-442 -490 0
-443 -491 0
-444 -492 0
-441 -681 0
-442 -682 0
-443 -683 0
-444 -684 0
-441 -1073 0
-442 -1074 0
-443 -1075 0
-444 -1076 0
-441 -1077 0
-442 -1078 0
-443 -1079 0
-444 -1080 0
-441 -1301 0
-442 -1302 0
-443 -1303 0
-444 -1304 0
-441 -1961 0
-442 -1962 0
-443 -1963 0
-444 -1964 0
-441 -1965 0
-442 -1966 0
-443 -1967 0
-444 -1968 0
-441 -1969 0
-442 -1970 0
-443 -1971 0
-444 -1972 0
-445 -449 0
-446 -450 0
-447 -451 0
-448 -452 0
-445 -553 0
-446 -554 0
-447 -555 0
-448 -556 0
-445 -569 0
-446 -570 0
-447 -571 0
-448 -572 0
-445 -1297 0
-446 -1298 0
-447 -1299 0
-448 -1300 0
-445 -1973 0
-446 -1974 0
-447 -1975 0
-448 -1976 0
-445 -1977 0
-446 -1978 0
-447 -1979 0
-448 -1980 0
-445 -1981 0
-446 -1982 0
-447 -1983 0
-448 -1984 0
-445 -1985 0
-446 -1986 0
-447 -1987 0
-448 -1988 0
-445 -1989 0
-446 -1990 0
-447 -1991 0
-448 -1992 0
-449 -453 0
-450 -454 0
-451 -455 0
-452 -456 0
-449 -657 0
-450 -658 0
-451 -659 0
-452 -660 0
-449 -661 0
-450 -662 0
-451 -663 0
-452 -664 0
-449 -685 0
-450 -686 0
-451 -687 0
-452 -688 0
-449 -1081 0
-450 -1082 0
-451 -1083 0
-452 -1084 0
-449 -1477 0
-450 -1478 0
-451 -1479 0
-452 -1480 0
-449 -1925 0
-450 -1926 0
-451 -1927 0
-452 -1928 0
-449 -1945 0
-450 -1946 0
-451 -1947 0
-452 -1948 0
-449 -1993 0
-450 -1994 0
-451 -1995 0
-452 -1996 0
-449 -1997 0
-450 -1998 0
-451 -1999 0
-452 -2000 0
-449 -2001 0
-450 -2002 0
-451 -2003 0
-452 -2004 0
-453 -457 0
-454 -458 0
-455 -459 0
-456 -460 0
-453 -1085 0
-454 -1086 0
-455 -1087 0
-456 -1088 0
-453 -1405 0
-454 -1406 0
-455 -1407 0
-456 -1408 0
-453 -1477 0
-454 -1478 0
-455 -1479 0
-456 -1480 0
-453 -1613 0
-454 -1614 0
-455 -1615 0
-456 -1616 0
-453 -1625 0
-454 -1626 0
-455 -1627 0
-456 -1628 0
-453 -1949 0
-454 -1950 0
-455 -1951 0
-456 -1952 0
-453 -2005 0
-454 -2006 0
-455 -2007 0
-456 -2008 0
-453 -2009 0
-454 -2010 0
-455 -2011 0
-456 -2012 0
-453 -2013 0
-454 -2014 0
-455 -2015 0
-456 -2016 0
-453 -2017 0
-454 -2018 0
-455 -2019 0
-456 -2020 0
-453 -2021 0
-454 -2022 0
-455 -2023 0
-456 -2024 0
-457 -689 0
-458 -690 0
-459 -691 0
-460 -692 0
-457 -1281 0
-458 -1282 0
-459 -1283 0
-460 -1284 0
-457 -2025 0
-458 -2026 0
-459 -2027 0
-460 -2028 0
-457 -2029 0
-458 -2030 0
-459 -2031 0
-460 -2032 0
-457 -2033 0
-458 -2034 0
-459 -2035 0
-460 -2036 0
-457 -2037 0
-458 -2038 0
-459 -2039 0
-460 -2040 0
-457 -2041 0
-458 -2042 0
-459 -2043 0
-460 -2044 0
-461 -465 0
-462 -466 0
-463 -467 0
-464 -468 0
-461 -497 0
-462 -498 0
-463 -499 0
-464 -500 0
-461 -545 0
-462 -546 0
-463 -547 0
-464 -548 0
-461 -553 0
-462 -554 0
-463 -555 0
-464 -556 0
-461 -869 0
-462 -870 0
-463 -871 0
-464 -872 0
-461 -1289 0
-462 -1290 0
-463 -1291 0
-464 -1292 0
-461 -1613 0
-462 -1614 0
-463 -1615 0
-464 -1616 0
-461 -1929 0
-462 -1930 0
-463 -1931 0
-464 -1932 0
-461 -1961 0
-462 -1962 0
-463 -1963 0
-464 -1964 0
-461 -1993 0
-462 -1994 0
-463 -1995 0
-464 -1996 0
-461 -2025 0
-462 -2026 0
-463 -2027 0
-464 -2028 0
-461 -2069 0
-462 -2070 0
-463 -2071 0
-464 -2072 0
-461 -2073 0
-462 -2074 0
-463 -2075 0
-464 -2076 0
-461 -2077 0
-462 -2078 0
-463 -2079 0
-464 -2080 0
-461 -2081 0
-462 -2082 0
-463 -2083 0
-464 -2084 0
-465 -469 0
-466 -470 0
-467 -471 0
-468 -472 0
-465 -545 0
-466 -546 0
-467 -547 0
-468 -548 0
-465 -569 0
-466 -570 0
-467 -571 0
-468 -572 0
-465 -653 0
-466 -654 0
-467 -655 0
-468 -656 0
-465 -661 0
-466 -662 0
-467 -663 0
-468 -664 0
-465 -701 0
-466 -702 0
-467 -703 0
-468 -704 0
-465 -885 0
-466 -886 0
-467 -887 0
-468 -888 0
-465 -905 0
-466 -906 0
-467 -907 0
-468 -908 0
-465 -1077 0
-466 -1078 0
-467 -1079 0
-468 -1080 0
-465 -1089 0
-466 -1090 0
-467 -1091 0
-468 -1092 0
-465 -1209 0
-466 -1210 0
-467 -1211 0
-468 -1212 0
-465 -1293 0
-466 -1294 0
-467 -1295 0
-468 -1296 0
-465 -1625 0
-466 -1626 0
-467 -1627 0
-468 -1628 0
-465 -1633 0
-466 -1634 0
-467 -1635 0
-468 -1636 0
-465 -1745 0
-466 -1746 0
-467 -1747 0
-468 -1748 0
-465 -1837 0
-466 -1838 0
-467 -1839 0
-468 -1840 0
-465 -1933 0
-466 -1934 0
-467 -1935 0
-468 -1936 0
-465 -2029 0
-466 -2030 0
-467 -2031 0
-468 -2032 0
-465 -2045 0
-466 -2046 0
-467 -2047 0
-468 -2048 0
-465 -2085 0
-466 -2086 0
-467 -2087 0
-468 -2088 0
-465 -2089 0
-466 -2090 0
-467 -2091 0
-468 -2092 0
-465 -2093 0
-466 -2094 0
-467 -2095 0
-468 -2096 0
-465 -2097 0
-466 -2098 0
-467 -2099 0
-468 -2100 0
-465 -2101 0
-466 -2102 0
-467 -2103 0
-468 -2104 0
-465 -2105 0
-466 -2106 0
-467 -2107 0
-468 -2108 0
-465 -2109 0
-466 -2110 0
-467 -2111 0
-468 -2112 0
-469 -473 0
-470 -474 0
-471 -475 0
-472 -476 0
-469 -501 0
-470 -502 0
-471 -503 0
-472 -504 0
-469 -653 0
-470 -654 0
-471 -655 0
-472 -656 0
-469 -657 0
-470 -658 0
-471 -659 0
-472 -660 0
-469 -901 0
-470 -902 0
-471 -903 0
-472 -904 0
-469 -1073 0
-470 -1074 0
-471 -1075 0
-472 -1076 0
-469 -1205 0
-470 -1206 0
-471 -1207 0
-472 -1208 0
-469 -1637 0
-470 -1638 0
-471 -1639 0
-472 -1640 0
-469 -1749 0
-470 -1750 0
-471 -1751 0
-472 -1752 0
-469 -1973 0
-470 -1974 0
-471 -1975 0
-472 -1976 0
-469 -2005 0
-470 -2006 0
-471 -2007 0
-472 -2008 0
-469 -2049 0
-470 -2050 0
-471 -2051 0
-472 -2052 0
-469 -2113 0
-470 -2114 0
-471 -2115 0
-472 -2116 0
-469 -2117 0
-470 -2118 0
-471 -2119 0
-472 -2120 0
-469 -2121 0
-470 -2122 0
-471 -2123 0
-472 -2124 0
-469 -2125 0
-470 -2126 0
-471 -2127 0
-472 -2128 0
-473 -505 0
-474 -506 0
-475 -507 0
-476 -508 0
-473 -705 0
-474 -706 0
-475 -707 0
-476 -708 0
-473 -1753 0
-474 -1754 0
-475 -1755 0
-476 -1756 0
-473 -1841 0
-474 -1842 0
-475 -1843 0
-476 -1844 0
-473 -1997 0
-474 -1998 0
-475 -1999 0
-476 -2000 0
-473 -2009 0
-474 -2010 0
-475 -2011 0
-476 -2012 0
-477 -2001 0
-478 -2002 0
-479 -2003 0
-480 -2004 0
-477 -2013 0
-478 -2014 0
-479 -2015 0
-480 -2016 0
-477 -2033 0
-478 -2034 0
-479 -2035 0
-480 -2036 0
-477 -2089 0
-478 -2090 0
-479 -2091 0
-480 -2092 0
-477 -2113 0
-478 -2114 0
-479 -2115 0
-480 -2116 0
-477 -2129 0
-478 -2130 0
-479 -2131 0
-480 -2132 0
-481 -485 0
-482 -486 0
-483 -487 0
-484 -488 0
-481 -709 0
-482 -710 0
-483 -711 0
-484 -712 0
-481 -1461 0
-482 -1462 0
-483 -1463 0
-484 -1464 0
-481 -1593 0
-482 -1594 0
-483 -1595 0
-484 -1596 0
-481 -1937 0
-482 -1938 0
-483 -1939 0
-484 -1940 0
-481 -1957 0
-482 -1958 0
-483 -1959 0
-484 -1960 0
-481 -1981 0
-482 -1982 0
-483 -1983 0
-484 -1984 0
-481 -2021 0
-482 -2022 0
-483 -2023 0
-484 -2024 0
-481 -2041 0
-482 -2042 0
-483 -2043 0
-484 -2044 0
-481 -2057 0
-482 -2058 0
-483 -2059 0
-484 -2060 0
-481 -2065 0
-482 -2066 0
-483 -2067 0
-484 -2068 0
-481 -2097 0
-482 -2098 0
-483 -2099 0
-484 -2100 0
-481 -2121 0
-482 -2122 0
-483 -2123 0
-484 -2124 0
-481 -2133 0
-482 -2134 0
-483 -2135 0
-484 -2136 0
-481 -2137 0
-482 -2138 0
-483 -2139 0
-484 -2140 0
-485 -513 0
-486 -514 0
-487 -515 0
-488 -516 0
-485 -1941 0
-486 -1942 0
-487 -1943 0
-488 -1944 0
-485 -1985 0
-486 -1986 0
-487 -1987 0
-488 -1988 0
-485 -2061 0
-486 -2062 0
-487 -2063 0
-488 -2064 0
-485 -2077 0
-486 -2078 0
-487 -2079 0
-488 -2080 0
-485 -2101 0
-486 -2102 0
-487 -2103 0
-488 -2104 0
-485 -2125 0
-486 -2126 0
-487 -2127 0
-488 -2128 0
-485 -2137 0
-486 -2138 0
-487 -2139 0
-488 -2140 0
-489 -493 0
-490 -494 0
-491 -495 0
-492 -496 0
-489 -533 0
-490 -534 0
-491 -535 0
-492 -536 0
-489 -1641 0
-490 -1642 0
-491 -1643 0
-492 -1644 0
-489 -2153 0
-490 -2154 0
-491 -2155 0
-492 -2156 0
-489 -2157 0
-490 -2158 0
-491 -2159 0
-492 -2160 0
-489 -2161 0
-490 -2162 0
-491 -2163 0
-492 -2164 0
-489 -2165 0
-490 -2166 0
-491 -2167 0
-492 -2168 0
-493 -549 0
-494 -550 0
-495 -551 0
-496 -552 0
-493 -2225 0
-494 -2226 0
-495 -2227 0
-496 -2228 0
-493 -2229 0
-494 -2230 0
-495 -2231 0
-496 -2232 0
-493 -2233 0
-494 -2234 0
-495 -2235 0
-496 -2236 0
-493 -2237 0
-494 -2238 0
-495 -2239 0
-496 -2240 0
-497 -1101 0
-498 -1102 0
-499 -1103 0
-500 -1104 0
-497 -1305 0
-498 -1306 0
-499 -1307 0
-500 -1308 0
-497 -2245 0
-498 -2246 0
-499 -2247 0
-500 -2248 0
-501 -505 0
-502 -506 0
-503 -507 0
-504 -508 0
-501 -565 0
-502 -566 0
-503 -567 0
-504 -568 0
-501 -597 0
-502 -598 0
-503 -599 0
-504 -600 0
-501 -601 0
-502 -602 0
-503 -603 0
-504 -604 0
-501 -681 0
-502 -682 0
-503 -683 0
-504 -684 0
-501 -901 0
-502 -902 0
-503 -903 0
-504 -904 0
-501 -1057 0
-502 -1058 0
-503 -1059 0
-504 -1060 0
-501 -1233 0
-502 -1234 0
-503 -1235 0
-504 -1236 0
-501 -1313 0
-502 -1314 0
-503 -1315 0
-504 -1316 0
-501 -1417 0
-502 -1418 0
-503 -1419 0
-504 -1420 0
-501 -1489 0
-502 -1490 0
-503 -1491 0
-504 -1492 0
-501 -1729 0
-502 -1730 0
-503 -1731 0
-504 -1732 0
-501 -1961 0
-502 -1962 0
-503 -1963 0
-504 -1964 0
-501 -2153 0
-502 -2154 0
-503 -2155 0
-504 -2156 0
-501 -2261 0
-502 -2262 0
-503 -2263 0
-504 -2264 0
-501 -2265 0
-502 -2266 0
-503 -2267 0
-504 -2268 0
-501 -2269 0
-502 -2270 0
-503 -2271 0
-504 -2272 0
-501 -2273 0
-502 -2274 0
-503 -2275 0
-504 -2276 0
-505 -569 0
-506 -570 0
-507 -571 0
-508 -572 0
-505 -681 0
-506 -682 0
-507 -683 0
-508 -684 0
-505 -697 0
-506 -698 0
-507 -699 0
-508 -700 0
-505 -1229 0
-506 -1230 0
-507 -1231 0
-508 -1232 0
-505 -1413 0
-506 -1414 0
-507 -1415 0
-508 -1416 0
-505 -1849 0
-506 -1850 0
-507 -1851 0
-508 -1852 0
-505 -1933 0
-506 -1934 0
-507 -1935 0
-508 -1936 0
-505 -2229 0
-506 -2230 0
-507 -2231 0
-508 -2232 0
-505 -2277 0
-506 -2278 0
-507 -2279 0
-508 -2280 0
-505 -2281 0
-506 -2282 0
-507 -2283 0
-508 -2284 0
-505 -2285 0
-506 -2286 0
-507 -2287 0
-508 -2288 0
-505 -2289 0
-506 -2290 0
-507 -2291 0
-508 -2292 0
-509 -2201 0
-510 -2202 0
-511 -2203 0
-512 -2204 0
-509 -2213 0
-510 -2214 0
-511 -2215 0
-512 -2216 0
-509 -2281 0
-510 -2282 0
-511 -2283 0
-512 -2284 0
-509 -2293 0
-510 -2294 0
-511 -2295 0
-512 -2296 0
-513 -517 0
-514 -518 0
-515 -519 0
-516 -520 0
-513 -1109 0
-514 -1110 0
-515 -1111 0
-516 -1112 0
-513 -1941 0
-514 -1942 0
-515 -1943 0
-516 -1944 0
-513 -2145 0
-514 -2146 0
-515 -2147 0
-516 -2148 0
-513 -2161 0
-514 -2162 0
-515 -2163 0
-516 -2164 0
-513 -2177 0
-514 -2178 0
-515 -2179 0
-516 -2180 0
-513 -2185 0
-514 -2186 0
-515 -2187 0
-516 -2188 0
-513 -2209 0
-514 -2210 0
-515 -2211 0
-516 -2212 0
-513 -2221 0
-514 -2222 0
-515 -2223 0
-516 -2224 0
-513 -2237 0
-514 -2238 0
-515 -2239 0
-516 -2240 0
-513 -2253 0
-514 -2254 0
-515 -2255 0
-516 -2256 0
-513 -2289 0
-514 -2290 0
-515 -2291 0
-516 -2292 0
-513 -2297 0
-514 -2298 0
-515 -2299 0
-516 -2300 0
-517 -521 0
-518 -522 0
-519 -523 0
-520 -524 0
-517 -577 0
-518 -578 0
-519 -579 0
-520 -580 0
-517 -2149 0
-518 -2150 0
-519 -2151 0
-520 -2152 0
-517 -2165 0
-518 -2166 0
-519 -2167 0
-520 -2168 0
-517 -2181 0
-518 -2182 0
-519 -2183 0
-520 -2184 0
-517 -2189 0
-518 -2190 0
-519 -2191 0
-520 -2192 0
-517 -2257 0
-518 -2258 0
-519 -2259 0
-520 -2260 0
-517 -2269 0
-518 -2270 0
-519 -2271 0
-520 -2272 0
-517 -2297 0
-518 -2298 0
-519 -2299 0
-520 -2300 0
-521 -2193 0
-522 -2194 0
-523 -2195 0
-524 -2196 0
-521 -2273 0
-522 -2274 0
-523 -2275 0
-524 -2276 0
-525 -529 0
-526 -530 0
-527 -531 0
-528 -532 0
-525 -2169 0
-526 -2170 0
-527 -2171 0
-528 -2172 0
-525 -2245 0
-526 -2246 0
-527 -2247 0
-528 -2248 0
-525 -2301 0
-526 -2302 0
-527 -2303 0
-528 -2304 0
-525 -2305 0
-526 -2306 0
-527 -2307 0
-528 -2308 0
-529 -765 0
-530 -766 0
-531 -767 0
-532 -768 0
-529 -769 0
-530 -770 0
-531 -771 0
-532 -772 0
-529 -2309 0
-530 -2310 0
-531 -2311 0
-532 -2312 0
-529 -2313 0
-530 -2314 0
-531 -2315 0
-532 -2316 0
-533 -537 0
-534 -538 0
-535 -539 0
-536 -540 0
-533 -549 0
-534 -550 0
-535 -551 0
-536 -552 0
-533 -585 0
-534 -586 0
-535 -587 0
-536 -588 0
-533 -2089 0
-534 -2090 0
-535 -2091 0
-536 -2092 0
-533 -2093 0
-534 -2094 0
-535 -2095 0
-536 -2096 0
-533 -2129 0
-534 -2130 0
-535 -2131 0
-536 -2132 0
-537 -541 0
-538 -542 0
-539 -543 0
-540 -544 0
-537 -1761 0
-538 -1762 0
-539 -1763 0
-540 -1764 0
-537 -1853 0
-538 -1854 0
-539 -1855 0
-540 -1856 0
-537 -2317 0
-538 -2318 0
-539 -2319 0
-540 -2320 0
-537 -2321 0
-538 -2322 0
-539 -2323 0
-540 -2324 0
-537 -2325 0
-538 -2326 0
-539 -2327 0
-540 -2328 0
-537 -2329 0
-538 -2330 0
-539 -2331 0
-540 -2332 0
-537 -2333 0
-538 -2334 0
-539 -2335 0
-540 -2336 0
-537 -2337 0
-538 -2338 0
-539 -2339 0
-540 -2340 0
-541 -589 0
-542 -590 0
-543 -591 0
-544 -592 0
-541 -1269 0
-542 -1270 0
-543 -1271 0
-544 -1272 0
-541 -1449 0
-542 -1450 0
-543 -1451 0
-544 -1452 0
-541 -1473 0
-542 -1474 0
-543 -1475 0
-544 -1476 0
-541 -2073 0
-542 -2074 0
-543 -2075 0
-544 -2076 0
-541 -2341 0
-542 -2342 0
-543 -2343 0
-544 -2344 0
-541 -2345 0
-542 -2346 0
-543 -2347 0
-544 -2348 0
-541 -2349 0
-542 -2350 0
-543 -2351 0
-544 -2352 0
-545 -549 0
-546 -550 0
-547 -551 0
-548 -552 0
-545 -593 0
-546 -594 0
-547 -595 0
-548 -596 0
-545 -1493 0
-546 -1494 0
-547 -1495 0
-548 -1496 0
-545 -2069 0
-546 -2070 0
-547 -2071 0
-548 -2072 0
-545 -2085 0
-546 -2086 0
-547 -2087 0
-548 -2088 0
-545 -2245 0
-546 -2246 0
-547 -2247 0
-548 -2248 0
-545 -2373 0
-546 -2374 0
-547 -2375 0
-548 -2376 0
-545 -2377 0
-546 -2378 0
-547 -2379 0
-548 -2380 0
-545 -2381 0
-546 -2382 0
-547 -2383 0
-548 -2384 0
-545 -2385 0
-546 -2386 0
-547 -2387 0
-548 -2388 0
-549 -597 0
-550 -598 0
-551 -599 0
-552 -600 0
-549 -1077 0
-550 -1078 0
-551 -1079 0
-552 -1080 0
-549 -1253 0
-550 -1254 0
-551 -1255 0
-552 -1256 0
-549 -1317 0
-550 -1318 0
-551 -1319 0
-552 -1320 0
-549 -1961 0
-550 -1962 0
-551 -1963 0
-552 -1964 0
-549 -2141 0
-550 -2142 0
-551 -2143 0
-552 -2144 0
-549 -2389 0
-550 -2390 0
-551 -2391 0
-552 -2392 0
-549 -2393 0
-550 -2394 0
-551 -2395 0
-552 -2396 0
-553 -557 0
-554 -558 0
-555 -559 0
-556 -560 0
-553 -569 0
-554 -570 0
-555 -571 0
-556 -572 0
-553 -601 0
-554 -602 0
-555 -603 0
-556 -604 0
-553 -765 0
-554 -766 0
-555 -767 0
-556 -768 0
-553 -1113 0
-554 -1114 0
-555 -1115 0
-556 -1116 0
-553 -1269 0
-554 -1270 0
-555 -1271 0
-556 -1272 0
-553 -1565 0
-554 -1566 0
-555 -1567 0
-556 -1568 0
-553 -1961 0
-554 -1962 0
-555 -1963 0
-556 -1964 0
-553 -1993 0
-554 -1994 0
-555 -1995 0
-556 -1996 0
-553 -2013 0
-554 -2014 0
-555 -2015 0
-556 -2016 0
-553 -2017 0
-554 -2018 0
-555 -2019 0
-556 -2020 0
-553 -2129 0
-554 -2130 0
-555 -2131 0
-556 -2132 0
-553 -2397 0
-554 -2398 0
-555 -2399 0
-556 -2400 0
-553 -2401 0
-554 -2402 0
-555 -2403 0
-556 -2404 0
-557 -605 0
-558 -606 0
-559 -607 0
-560 -608 0
-557 -1321 0
-558 -1322 0
-559 -1323 0
-560 -1324 0
-557 -2069 0
-558 -2070 0
-559 -2071 0
-560 -2072 0
-557 -2141 0
-558 -2142 0
-559 -2143 0
-560 -2144 0
-557 -2353 0
-558 -2354 0
-559 -2355 0
-560 -2356 0
-557 -2405 0
-558 -2406 0
-559 -2407 0
-560 -2408 0
-557 -2409 0
-558 -2410 0
-559 -2411 0
-560 -2412 0
-557 -2413 0
-558 -2414 0
-559 -2415 0
-560 -2416 0
-561 -565 0
-562 -566 0
-563 -567 0
-564 -568 0
-561 -609 0
-562 -610 0
-563 -611 0
-564 -612 0
-561 -1325 0
-562 -1326 0
-563 -1327 0
-564 -1328 0
-561 -1497 0
-562 -1498 0
-563 -1499 0
-564 -1500 0
-561 -2321 0
-562 -2322 0
-563 -2323 0
-564 -2324 0
-561 -2341 0
-562 -2342 0
-563 -2343 0
-564 -2344 0
-561 -2357 0
-562 -2358 0
-563 -2359 0
-564 -2360 0
-561 -2373 0
-562 -2374 0
-563 -2375 0
-564 -2376 0
-561 -2417 0
-562 -2418 0
-563 -2419 0
-564 -2420 0
-561 -2421 0
-562 -2422 0
-563 -2423 0
-564 -2424 0
-565 -569 0
-566 -570 0
-567 -571 0
-568 -572 0
-565 -613 0
-566 -614 0
-567 -615 0
-568 -616 0
-565 -637 0
-566 -638 0
-567 -639 0
-568 -640 0
-565 -665 0
-566 -666 0
-567 -667 0
-568 -668 0
-565 -1185 0
-566 -1186 0
-567 -1187 0
-568 -1188 0
-565 -1329 0
-566 -1330 0
-567 -1331 0
-568 -1332 0
-565 -1645 0
-566 -1646 0
-567 -1647 0
-568 -1648 0
-565 -2085 0
-566 -2086 0
-567 -2087 0
-568 -2088 0
-565 -2309 0
-566 -2310 0
-567 -2311 0
-568 -2312 0
-565 -2325 0
-566 -2326 0
-567 -2327 0
-568 -2328 0
-565 -2345 0
-566 -2346 0
-567 -2347 0
-568 -2348 0
-565 -2425 0
-566 -2426 0
-567 -2427 0
-568 -2428 0
-565 -2429 0
-566 -2430 0
-567 -2431 0
-568 -2432 0
-565 -2433 0
-566 -2434 0
-567 -2435 0
-568 -2436 0
-569 -617 0
-570 -618 0
-571 -619 0
-572 -620 0
-569 -637 0
-570 -638 0
-571 -639 0
-572 -640 0
-569 -661 0
-570 -662 0
-571 -663 0
-572 -664 0
-569 -769 0
-570 -770 0
-571 -771 0
-572 -772 0
-569 -1077 0
-570 -1078 0
-571 -1079 0
-572 -1080 0
-569 -1181 0
-570 -1182 0
-571 -1183 0
-572 -1184 0
-569 -1433 0
-570 -1434 0
-571 -1435 0
-572 -1436 0
-569 -1569 0
-570 -1570 0
-571 -1571 0
-572 -1572 0
-569 -1649 0
-570 -1650 0
-571 -1651 0
-572 -1652 0
-569 -1973 0
-570 -1974 0
-571 -1975 0
-572 -1976 0
-569 -2053 0
-570 -2054 0
-571 -2055 0
-572 -2056 0
-569 -2057 0
-570 -2058 0
-571 -2059 0
-572 -2060 0
-569 -2169 0
-570 -2170 0
-571 -2171 0
-572 -2172 0
-569 -2329 0
-570 -2330 0
-571 -2331 0
-572 -2332 0
-569 -2437 0
-570 -2438 0
-571 -2439 0
-572 -2440 0
-569 -2441 0
-570 -2442 0
-571 -2443 0
-572 -2444 0
-573 -2381 0
-574 -2382 0
-575 -2383 0
-576 -2384 0
-573 -2389 0
-574 -2390 0
-575 -2391 0
-576 -2392 0
-573 -2397 0
-574 -2398 0
-575 -2399 0
-576 -2400 0
-573 -2405 0
-574 -2406 0
-575 -2407 0
-576 -2408 0
-573 -2425 0
-574 -2426 0
-575 -2427 0
-576 -2428 0
-573 -2437 0
-574 -2438 0
-575 -2439 0
-576 -2440 0
-573 -2445 0
-574 -2446 0
-575 -2447 0
-576 -2448 0
-577 -621 0
-578 -622 0
-579 -623 0
-580 -624 0
-577 -1125 0
-578 -1126 0
-579 -1127 0
-580 -1128 0
-577 -1333 0
-578 -1334 0
-579 -1335 0
-580 -1336 0
-577 -1501 0
-578 -1502 0
-579 -1503 0
-580 -1504 0
-577 -1625 0
-578 -1626 0
-579 -1627 0
-580 -1628 0
-577 -1629 0
-578 -1630 0
-579 -1631 0
-580 -1632 0
-577 -2013 0
-578 -2014 0
-579 -2015 0
-580 -2016 0
-577 -2057 0
-578 -2058 0
-579 -2059 0
-580 -2060 0
-577 -2089 0
-578 -2090 0
-579 -2091 0
-580 -2092 0
-577 -2149 0
-578 -2150 0
-579 -2151 0
-580 -2152 0
-577 -2305 0
-578 -2306 0
-579 -2307 0
-580 -2308 0
-577 -2313 0
-578 -2314 0
-579 -2315 0
-580 -2316 0
-577 -2337 0
-578 -2338 0
-579 -2339 0
-580 -2340 0
-577 -2365 0
-578 -2366 0
-579 -2367 0
-580 -2368 0
-577 -2413 0
-578 -2414 0
-579 -2415 0
-580 -2416 0
-577 -2421 0
-578 -2422 0
-579 -2423 0
-580 -2424 0
-577 -2429 0
-578 -2430 0
-579 -2431 0
-580 -2432 0
-581 -629 0
-582 -630 0
-583 -631 0
-584 -632 0
-581 -805 0
-582 -806 0
-583 -807 0
-584 -808 0
-581 -809 0
-582 -810 0
-583 -811 0
-584 -812 0
-581 -977 0
-582 -978 0
-583 -979 0
-584 -980 0
-581 -2453 0
-582 -2454 0
-583 -2455 0
-584 -2456 0
-581 -2457 0
-582 -2458 0
-583 -2459 0
-584 -2460 0
-585 -597 0
-586 -598 0
-587 -599 0
-588 -600 0
-585 -637 0
-586 -638 0
-587 -639 0
-588 -640 0
-585 -1057 0
-586 -1058 0
-587 -1059 0
-588 -1060 0
-585 -1061 0
-586 -1062 0
-587 -1063 0
-588 -1064 0
-585 -1449 0
-586 -1450 0
-587 -1451 0
-588 -1452 0
-585 -2169 0
-586 -2170 0
-587 -2171 0
-588 -2172 0
-585 -2453 0
-586 -2454 0
-587 -2455 0
-588 -2456 0
-585 -2461 0
-586 -2462 0
-587 -2463 0
-588 -2464 0
-585 -2465 0
-586 -2466 0
-587 -2467 0
-588 -2468 0
-589 -2477 0
-590 -2478 0
-591 -2479 0
-592 -2480 0
-589 -2481 0
-590 -2482 0
-591 -2483 0
-592 -2484 0
-589 -2485 0
-590 -2486 0
-591 -2487 0
-592 -2488 0
-593 -597 0
-594 -598 0
-595 -599 0
-596 -600 0
-593 -649 0
-594 -650 0
-595 -651 0
-596 -652 0
-593 -701 0
-594 -702 0
-595 -703 0
-596 -704 0
-593 -1133 0
-594 -1134 0
-595 -1135 0
-596 -1136 0
-593 -1609 0
-594 -1610 0
-595 -1611 0
-596 -1612 0
-593 -1725 0
-594 -1726 0
-595 -1727 0
-596 -1728 0
-593 -2497 0
-594 -2498 0
-595 -2499 0
-596 -2500 0
-593 -2501 0
-594 -2502 0
-595 -2503 0
-596 -2504 0
-593 -2505 0
-594 -2506 0
-595 -2507 0
-596 -2508 0
-597 -653 0
-598 -654 0
-599 -655 0
-600 -656 0
-597 -977 0
-598 -978 0
-599 -979 0
-600 -980 0
-597 -1721 0
-598 -1722 0
-599 -1723 0
-600 -1724 0
-597 -2261 0
-598 -2262 0
-599 -2263 0
-600 -2264 0
-597 -2509 0
-598 -2510 0
-599 -2511 0
-600 -2512 0
-601 -605 0
-602 -606 0
-603 -607 0
-604 -608 0
-601 -617 0
-602 -618 0
-603 -619 0
-604 -620 0
-601 -657 0
-602 -658 0
-603 -659 0
-604 -660 0
-601 -765 0
-602 -766 0
-603 -767 0
-604 -768 0
-601 -809 0
-602 -810 0
-603 -811 0
-604 -812 0
-601 -1057 0
-602 -1058 0
-603 -1059 0
-604 -1060 0
-601 -1137 0
-602 -1138 0
-603 -1139 0
-604 -1140 0
-601 -1213 0
-602 -1214 0
-603 -1215 0
-604 -1216 0
-601 -1341 0
-602 -1342 0
-603 -1343 0
-604 -1344 0
-601 -1385 0
-602 -1386 0
-603 -1387 0
-604 -1388 0
-601 -1509 0
-602 -1510 0
-603 -1511 0
-604 -1512 0
-601 -1685 0
-602 -1686 0
-603 -1687 0
-604 -1688 0
-601 -2157 0
-602 -2158 0
-603 -2159 0
-604 -2160 0
-601 -2161 0
-602 -2162 0
-603 -2163 0
-604 -2164 0
-601 -2345 0
-602 -2346 0
-603 -2347 0
-604 -2348 0
-601 -2469 0
-602 -2470 0
-603 -2471 0
-604 -2472 0
-601 -2513 0
-602 -2514 0
-603 -2515 0
-604 -2516 0
-601 -2517 0
-602 -2518 0
-603 -2519 0
-604 -2520 0
-605 -661 0
-606 -662 0
-607 -663 0
-608 -664 0
-605 -805 0
-606 -806 0
-607 -807 0
-608 -808 0
-605 -1141 0
-606 -1142 0
-607 -1143 0
-608 -1144 0
-605 -1345 0
-606 -1346 0
-607 -1347 0
-608 -1348 0
-605 -1481 0
-606 -1482 0
-607 -1483 0
-608 -1484 0
-605 -2169 0
-606 -2170 0
-607 -2171 0
-608 -2172 0
-605 -2213 0
-606 -2214 0
-607 -2215 0
-608 -2216 0
-605 -2217 0
-606 -2218 0
-607 -2219 0
-608 -2220 0
-605 -2293 0
-606 -2294 0
-607 -2295 0
-608 -2296 0
-605 -2301 0
-606 -2302 0
-607 -2303 0
-608 -2304 0
-605 -2341 0
-606 -2342 0
-607 -2343 0
-608 -2344 0
-605 -2477 0
-606 -2478 0
-607 -2479 0
-608 -2480 0
-609 -613 0
-610 -614 0
-611 -615 0
-612 -616 0
-609 -669 0
-610 -670 0
-611 -671 0
-612 -672 0
-609 -1349 0
-610 -1350 0
-611 -1351 0
-612 -1352 0
-609 -1741 0
-610 -1742 0
-611 -1743 0
-612 -1744 0
-613 -617 0
-614 -618 0
-615 -619 0
-616 -620 0
-613 -2309 0
-614 -2310 0
-615 -2311 0
-616 -2312 0
-613 -2481 0
-614 -2482 0
-615 -2483 0
-616 -2484 0
-613 -2489 0
-614 -2490 0
-615 -2491 0
-616 -2492 0
-613 -2497 0
-614 -2498 0
-615 -2499 0
-616 -2500 0
-617 -701 0
-618 -702 0
-619 -703 0
-620 -704 0
-617 -769 0
-618 -770 0
-619 -771 0
-620 -772 0
-617 -1061 0
-618 -1062 0
-619 -1063 0
-620 -1064 0
-617 -1217 0
-618 -1218 0
-619 -1219 0
-620 -1220 0
-617 -1389 0
-618 -1390 0
-619 -1391 0
-620 -1392 0
-617 -1513 0
-618 -1514 0
-619 -1515 0
-620 -1516 0
-617 -1857 0
-618 -1858 0
-619 -1859 0
-620 -1860 0
-617 -2261 0
-618 -2262 0
-619 -2263 0
-620 -2264 0
-617 -2493 0
-618 -2494 0
-619 -2495 0
-620 -2496 0
-617 -2525 0
-618 -2526 0
-619 -2527 0
-620 -2528 0
-621 -625 0
-622 -626 0
-623 -627 0
-624 -628 0
-621 -1353 0
-622 -1354 0
-623 -1355 0
-624 -1356 0
-621 -1729 0
-622 -1730 0
-623 -1731 0
-624 -1732 0
-621 -1741 0
-622 -1742 0
-623 -1743 0
-624 -1744 0
-621 -2217 0
-622 -2218 0
-623 -2219 0
-624 -2220 0
-621 -2265 0
-622 -2266 0
-623 -2267 0
-624 -2268 0
-621 -2313 0
-622 -2314 0
-623 -2315 0
-624 -2316 0
-621 -2449 0
-622 -2450 0
-623 -2451 0
-624 -2452 0
-621 -2461 0
-622 -2462 0
-623 -2463 0
-624 -2464 0
-621 -2485 0
-622 -2486 0
-623 -2487 0
-624 -2488 0
-621 -2509 0
-622 -2510 0
-623 -2511 0
-624 -2512 0
-621 -2521 0
-622 -2522 0
-623 -2523 0
-624 -2524 0
-621 -2529 0
-622 -2530 0
-623 -2531 0
-624 -2532 0
-621 -2533 0
-622 -2534 0
-623 -2535 0
-624 -2536 0
-625 -677 0
-626 -678 0
-627 -679 0
-628 -680 0
-625 -1357 0
-626 -1358 0
-627 -1359 0
-628 -1360 0
-625 -1517 0
-626 -1518 0
-627 -1519 0
-628 -1520 0
-625 -1729 0
-626 -1730 0
-627 -1731 0
-628 -1732 0
-625 -2161 0
-626 -2162 0
-627 -2163 0
-628 -2164 0
-625 -2213 0
-626 -2214 0
-627 -2215 0
-628 -2216 0
-625 -2253 0
-626 -2254 0
-627 -2255 0
-628 -2256 0
-625 -2457 0
-626 -2458 0
-627 -2459 0
-628 -2460 0
-625 -2465 0
-626 -2466 0
-627 -2467 0
-628 -2468 0
-625 -2505 0
-626 -2506 0
-627 -2507 0
-628 -2508 0
-625 -2537 0
-626 -2538 0
-627 -2539 0
-628 -2540 0
-629 -633 0
-630 -634 0
-631 -635 0
-632 -636 0
-629 -2489 0
-630 -2490 0
-631 -2491 0
-632 -2492 0
-629 -2493 0
-630 -2494 0
-631 -2495 0
-632 -2496 0
-629 -2541 0
-630 -2542 0
-631 -2543 0
-632 -2544 0
-629 -2545 0
-630 -2546 0
-631 -2547 0
-632 -2548 0
-633 -841 0
-634 -842 0
-635 -843 0
-636 -844 0
-633 -845 0
-634 -846 0
-635 -847 0
-636 -848 0
-633 -2549 0
-634 -2550 0
-635 -2551 0
-636 -2552 0
-637 -641 0
-638 -642 0
-639 -643 0
-640 -644 0
-637 -653 0
-638 -654 0
-639 -655 0
-640 -656 0
-637 -681 0
-638 -682 0
-639 -683 0
-640 -684 0
-637 -1133 0
-638 -1134 0
-639 -1135 0
-640 -1136 0
-637 -1973 0
-638 -1974 0
-639 -1975 0
-640 -1976 0
-637 -2453 0
-638 -2454 0
-639 -2455 0
-640 -2456 0
-637 -2553 0
-638 -2554 0
-639 -2555 0
-640 -2556 0
-637 -2557 0
-638 -2558 0
-639 -2559 0
-640 -2560 0
-637 -2561 0
-638 -2562 0
-639 -2563 0
-640 -2564 0
-641 -1129 0
-642 -1130 0
-643 -1131 0
-644 -1132 0
-641 -1273 0
-642 -1274 0
-643 -1275 0
-644 -1276 0
-641 -1457 0
-642 -1458 0
-643 -1459 0
-644 -1460 0
-641 -2117 0
-642 -2118 0
-643 -2119 0
-644 -2120 0
-641 -2121 0
-642 -2122 0
-643 -2123 0
-644 -2124 0
-641 -2345 0
-642 -2346 0
-643 -2347 0
-644 -2348 0
-641 -2565 0
-642 -2566 0
-643 -2567 0
-644 -2568 0
-645 -649 0
-646 -650 0
-647 -651 0
-648 -652 0
-645 -2097 0
-646 -2098 0
-647 -2099 0
-648 -2100 0
-645 -2101 0
-646 -2102 0
-647 -2103 0
-648 -2104 0
-645 -2137 0
-646 -2138 0
-647 -2139 0
-648 -2140 0
-645 -2573 0
-646 -2574 0
-647 -2575 0
-648 -2576 0
-645 -2577 0
-646 -2578 0
-647 -2579 0
-648 -2580 0
-649 -653 0
-650 -654 0
-651 -655 0
-652 -656 0
-649 -689 0
-650 -690 0
-651 -691 0
-652 -692 0
-649 -1145 0
-650 -1146 0
-651 -1147 0
-652 -1148 0
-649 -1201 0
-650 -1202 0
-651 -1203 0
-652 -1204 0
-649 -1361 0
-650 -1362 0
-651 -1363 0
-652 -1364 0
-649 -1621 0
-650 -1622 0
-651 -1623 0
-652 -1624 0
-649 -1625 0
-650 -1626 0
-651 -1627 0
-652 -1628 0
-649 -2005 0
-650 -2006 0
-651 -2007 0
-652 -2008 0
-649 -2429 0
-650 -2430 0
-651 -2431 0
-652 -2432 0
-649 -2581 0
-650 -2582 0
-651 -2583 0
-652 -2584 0
-653 -693 0
-654 -694 0
-655 -695 0
-656 -696 0
-653 -977 0
-654 -978 0
-655 -979 0
-656 -980 0
-653 -1049 0
-654 -1050 0
-655 -1051 0
-656 -1052 0
-653 -1069 0
-654 -1070 0
-655 -1071 0
-656 -1072 0
-653 -2085 0
-654 -2086 0
-655 -2087 0
-656 -2088 0
-653 -2541 0
-654 -2542 0
-655 -2543 0
-656 -2544 0
-653 -2585 0
-654 -2586 0
-655 -2587 0
-656 -2588 0
-653 -2589 0
-654 -2590 0
-655 -2591 0
-656 -2592 0
-657 -661 0
-658 -662 0
-659 -663 0
-660 -664 0
-657 -809 0
-658 -810 0
-659 -811 0
-660 -812 0
-657 -1149 0
-658 -1150 0
-659 -1151 0
-660 -1152 0
-657 -1273 0
-658 -1274 0
-659 -1275 0
-660 -1276 0
-657 -1421 0
-658 -1422 0
-659 -1423 0
-660 -1424 0
-657 -1521 0
-658 -1522 0
-659 -1523 0
-660 -1524 0
-657 -1557 0
-658 -1558 0
-659 -1559 0
-660 -1560 0
-657 -1653 0
-658 -1654 0
-659 -1655 0
-660 -1656 0
-657 -1973 0
-658 -1974 0
-659 -1975 0
-660 -1976 0
-657 -1997 0
-658 -1998 0
-659 -1999 0
-660 -2000 0
-657 -2005 0
-658 -2006 0
-659 -2007 0
-660 -2008 0
-657 -2137 0
-658 -2138 0
-659 -2139 0
-660 -2140 0
-657 -2545 0
-658 -2546 0
-659 -2547 0
-660 -2548 0
-657 -2569 0
-658 -2570 0
-659 -2571 0
-660 -2572 0
-657 -2593 0
-658 -2594 0
-659 -2595 0
-660 -2596 0
-661 -665 0
-662 -666 0
-663 -667 0
-664 -668 0
-661 -697 0
-662 -698 0
-663 -699 0
-664 -700 0
-661 -805 0
-662 -806 0
-663 -807 0
-664 -808 0
-661 -845 0
-662 -846 0
-663 -847 0
-664 -848 0
-661 -1153 0
-662 -1154 0
-663 -1155 0
-664 -1156 0
-661 -1553 0
-662 -1554 0
-663 -1555 0
-664 -1556 0
-661 -1625 0
-662 -1626 0
-663 -1627 0
-664 -1628 0
-661 -1657 0
-662 -1658 0
-663 -1659 0
-664 -1660 0
-661 -1993 0
-662 -1994 0
-663 -1995 0
-664 -1996 0
-661 -2037 0
-662 -2038 0
-663 -2039 0
-664 -2040 0
-661 -2041 0
-662 -2042 0
-663 -2043 0
-664 -2044 0
-661 -2333 0
-662 -2334 0
-663 -2335 0
-664 -2336 0
-661 -2337 0
-662 -2338 0
-663 -2339 0
-664 -2340 0
-661 -2493 0
-662 -2494 0
-663 -2495 0
-664 -2496 0
-661 -2573 0
-662 -2574 0
-663 -2575 0
-664 -2576 0
-665 -669 0
-666 -670 0
-667 -671 0
-668 -672 0
-665 -841 0
-666 -842 0
-667 -843 0
-668 -844 0
-665 -1157 0
-666 -1158 0
-667 -1159 0
-668 -1160 0
-665 -1621 0
-666 -1622 0
-667 -1623 0
-668 -1624 0
-665 -2085 0
-666 -2086 0
-667 -2087 0
-668 -2088 0
-665 -2345 0
-666 -2346 0
-667 -2347 0
-668 -2348 0
-665 -2357 0
-666 -2358 0
-667 -2359 0
-668 -2360 0
-665 -2389 0
-666 -2390 0
-667 -2391 0
-668 -2392 0
-665 -2393 0
-666 -2394 0
-667 -2395 0
-668 -2396 0
-665 -2445 0
-666 -2446 0
-667 -2447 0
-668 -2448 0
-665 -2489 0
-666 -2490 0
-667 -2491 0
-668 -2492 0
-665 -2597 0
-666 -2598 0
-667 -2599 0
-668 -2600 0
-669 -701 0
-670 -702 0
-671 -703 0
-672 -704 0
-669 -1525 0
-670 -1526 0
-671 -1527 0
-672 -1528 0
-669 -2585 0
-670 -2586 0
-671 -2587 0
-672 -2588 0
-673 -677 0
-674 -678 0
-675 -679 0
-676 -680 0
-673 -1077 0
-674 -1078 0
-675 -1079 0
-676 -1080 0
-673 -1665 0
-674 -1666 0
-675 -1667 0
-676 -1668 0
-673 -2097 0
-674 -2098 0
-675 -2099 0
-676 -2100 0
-673 -2325 0
-674 -2326 0
-675 -2327 0
-676 -2328 0
-673 -2337 0
-674 -2338 0
-675 -2339 0
-676 -2340 0
-673 -2389 0
-674 -2390 0
-675 -2391 0
-676 -2392 0
-673 -2429 0
-674 -2430 0
-675 -2431 0
-676 -2432 0
-673 -2437 0
-674 -2438 0
-675 -2439 0
-676 -2440 0
-673 -2549 0
-674 -2550 0
-675 -2551 0
-676 -2552 0
-673 -2557 0
-674 -2558 0
-675 -2559 0
-676 -2560 0
-673 -2565 0
-674 -2566 0
-675 -2567 0
-676 -2568 0
-673 -2589 0
-674 -2590 0
-675 -2591 0
-676 -2592 0
-673 -2601 0
-674 -2602 0
-675 -2603 0
-676 -2604 0
-677 -713 0
-678 -714 0
-679 -715 0
-680 -716 0
-677 -1077 0
-678 -1078 0
-679 -1079 0
-680 -1080 0
-677 -1257 0
-678 -1258 0
-679 -1259 0
-680 -1260 0
-677 -1669 0
-678 -1670 0
-679 -1671 0
-680 -1672 0
-677 -2037 0
-678 -2038 0
-679 -2039 0
-680 -2040 0
-677 -2101 0
-678 -2102 0
-679 -2103 0
-680 -2104 0
-677 -2117 0
-678 -2118 0
-679 -2119 0
-680 -2120 0
-677 -2393 0
-678 -2394 0
-679 -2395 0
-680 -2396 0
-677 -2441 0
-678 -2442 0
-679 -2443 0
-680 -2444 0
-677 -2457 0
-678 -2458 0
-679 -2459 0
-680 -2460 0
-677 -2561 0
-678 -2562 0
-679 -2563 0
-680 -2564 0
-677 -2581 0
-678 -2582 0
-679 -2583 0
-680 -2584 0
-677 -2605 0
-678 -2606 0
-679 -2607 0
-680 -2608 0
-681 -693 0
-682 -694 0
-683 -695 0
-684 -696 0
-681 -1053 0
-682 -1054 0
-683 -1055 0
-684 -1056 0
-681 -1065 0
-682 -1066 0
-683 -1067 0
-684 -1068 0
-681 -1081 0
-682 -1082 0
-683 -1083 0
-684 -1084 0
-681 -2261 0
-682 -2262 0
-683 -2263 0
-684 -2264 0
-681 -2277 0
-682 -2278 0
-683 -2279 0
-684 -2280 0
-681 -2613 0
-682 -2614 0
-683 -2615 0
-684 -2616 0
-681 -2617 0
-682 -2618 0
-683 -2619 0
-684 -2620 0
-685 -1201 0
-686 -1202 0
-687 -1203 0
-688 -1204 0
-685 -1361 0
-686 -1362 0
-687 -1363 0
-688 -1364 0
-685 -1945 0
-686 -1946 0
-687 -1947 0
-688 -1948 0
-685 -2285 0
-686 -2286 0
-687 -2287 0
-688 -2288 0
-685 -2289 0
-686 -2290 0
-687 -2291 0
-688 -2292 0
-685 -2493 0
-686 -2494 0
-687 -2495 0
-688 -2496 0
-685 -2545 0
-686 -2546 0
-687 -2547 0
-688 -2548 0
-685 -2633 0
-686 -2634 0
-687 -2635 0
-688 -2636 0
-685 -2637 0
-686 -2638 0
-687 -2639 0
-688 -2640 0
-689 -693 0
-690 -694 0
-691 -695 0
-692 -696 0
-689 -2269 0
-690 -2270 0
-691 -2271 0
-692 -2272 0
-689 -2297 0
-690 -2298 0
-691 -2299 0
-692 -2300 0
-689 -2649 0
-690 -2650 0
-691 -2651 0
-692 -2652 0
-689 -2653 0
-690 -2654 0
-691 -2655 0
-692 -2656 0
-693 -1065 0
-694 -1066 0
-695 -1067 0
-696 -1068 0
-693 -1085 0
-694 -1086 0
-695 -1087 0
-696 -1088 0
-693 -1365 0
-694 -1366 0
-695 -1367 0
-696 -1368 0
-693 -1405 0
-694 -1406 0
-695 -1407 0
-696 -1408 0
-693 -1729 0
-694 -1730 0
-695 -1731 0
-696 -1732 0
-693 -1737 0
-694 -1738 0
-695 -1739 0
-696 -1740 0
-693 -1933 0
-694 -1934 0
-695 -1935 0
-696 -1936 0
-693 -2657 0
-694 -2658 0
-695 -2659 0
-696 -2660 0
-697 -845 0
-698 -846 0
-699 -847 0
-700 -848 0
-697 -1673 0
-698 -1674 0
-699 -1675 0
-700 -1676 0
-697 -1713 0
-698 -1714 0
-699 -1715 0
-700 -1716 0
-697 -1773 0
-698 -1774 0
-699 -1775 0
-700 -1776 0
-697 -1925 0
-698 -1926 0
-699 -1927 0
-700 -1928 0
-697 -1933 0
-698 -1934 0
-699 -1935 0
-700 -1936 0
-697 -2009 0
-698 -2010 0
-699 -2011 0
-700 -2012 0
-697 -2177 0
-698 -2178 0
-699 -2179 0
-700 -2180 0
-697 -2181 0
-698 -2182 0
-699 -2183 0
-700 -2184 0
-697 -2197 0
-698 -2198 0
-699 -2199 0
-700 -2200 0
-697 -2297 0
-698 -2298 0
-699 -2299 0
-700 -2300 0
-697 -2665 0
-698 -2666 0
-699 -2667 0
-700 -2668 0
-701 -885 0
-702 -886 0
-703 -887 0
-704 -888 0
-701 -1165 0
-702 -1166 0
-703 -1167 0
-704 -1168 0
-701 -1373 0
-702 -1374 0
-703 -1375 0
-704 -1376 0
-701 -1529 0
-702 -1530 0
-703 -1531 0
-704 -1532 0
-701 -1737 0
-702 -1738 0
-703 -1739 0
-704 -1740 0
-701 -2261 0
-702 -2262 0
-703 -2263 0
-704 -2264 0
-701 -2461 0
-702 -2462 0
-703 -2463 0
-704 -2464 0
-701 -2493 0
-702 -2494 0
-703 -2495 0
-704 -2496 0
-701 -2497 0
-702 -2498 0
-703 -2499 0
-704 -2500 0
-701 -2529 0
-702 -2530 0
-703 -2531 0
-704 -2532 0
-701 -2541 0
-702 -2542 0
-703 -2543 0
-704 -2544 0
-701 -2653 0
-702 -2654 0
-703 -2655 0
-704 -2656 0
-701 -2669 0
-702 -2670 0
-703 -2671 0
-704 -2672 0
-705 -1465 0
-706 -1466 0
-707 -1467 0
-708 -1468 0
-705 -2625 0
-706 -2626 0
-707 -2627 0
-708 -2628 0
-705 -2633 0
-706 -2634 0
-707 -2635 0
-708 -2636 0
-709 -1957 0
-710 -1958 0
-711 -1959 0
-712 -1960 0
-709 -2485 0
-710 -2486 0
-711 -2487 0
-712 -2488 0
-709 -2617 0
-710 -2618 0
-711 -2619 0
-712 -2620 0
-713 -1533 0
-714 -1534 0
-715 -1535 0
-716 -1536 0
-713 -1677 0
-714 -1678 0
-715 -1679 0
-716 -1680 0
-713 -2229 0
-714 -2230 0
-715 -2231 0
-716 -2232 0
-713 -2237 0
-714 -2238 0
-715 -2239 0
-716 -2240 0
-713 -2289 0
-714 -2290 0
-715 -2291 0
-716 -2292 0
-713 -2645 0
-714 -2646 0
-715 -2647 0
-716 -2648 0
-713 -2665 0
-714 -2666 0
-715 -2667 0
-716 -2668 0
-713 -2669 0
-714 -2670 0
-715 -2671 0
-716 -2672 0
-717 -753 0
-718 -754 0
-719 -755 0
-720 -756 0
-717 -1009 0
-718 -1010 0
-719 -1011 0
-720 -1012 0
-717 -1013 0
-718 -1014 0
-719 -1015 0
-720 -1016 0
-717 -1033 0
-718 -1034 0
-719 -1035 0
-720 -1036 0
-717 -2693 0
-718 -2694 0
-719 -2695 0
-720 -2696 0
-717 -2697 0
-718 -2698 0
-719 -2699 0
-720 -2700 0
-721 -897 0
-722 -898 0
-723 -899 0
-724 -900 0
-721 -989 0
-722 -990 0
-723 -991 0
-724 -992 0
-721 -1005 0
-722 -1006 0
-723 -1007 0
-724 -1008 0
-721 -1037 0
-722 -1038 0
-723 -1039 0
-724 -1040 0
-721 -1065 0
-722 -1066 0
-723 -1067 0
-724 -1068 0
-721 -2701 0
-722 -2702 0
-723 -2703 0
-724 -2704 0
-721 -2705 0
-722 -2706 0
-723 -2707 0
-724 -2708 0
-725 -901 0
-726 -902 0
-727 -903 0
-728 -904 0
-725 -1057 0
-726 -1058 0
-727 -1059 0
-728 -1060 0
-725 -1289 0
-726 -1290 0
-727 -1291 0
-728 -1292 0
-725 -1953 0
-726 -1954 0
-727 -1955 0
-728 -1956 0
-725 -1973 0
-726 -1974 0
-727 -1975 0
-728 -1976 0
-725 -2129 0
-726 -2130 0
-727 -2131 0
-728 -2132 0
-725 -2277 0
-726 -2278 0
-727 -2279 0
-728 -2280 0
-725 -2701 0
-726 -2702 0
-727 -2703 0
-728 -2704 0
-725 -2709 0
-726 -2710 0
-727 -2711 0
-728 -2712 0
-729 -769 0
-730 -770 0
-731 -771 0
-732 -772 0
-729 -1077 0
-730 -1078 0
-731 -1079 0
-732 -1080 0
-729 -1141 0
-730 -1142 0
-731 -1143 0
-732 -1144 0
-729 -1377 0
-730 -1378 0
-731 -1379 0
-732 -1380 0
-729 -2261 0
-730 -2262 0
-731 -2263 0
-732 -2264 0
-729 -2457 0
-730 -2458 0
-731 -2459 0
-732 -2460 0
-729 -2725 0
-730 -2726 0
-731 -2727 0
-732 -2728 0
-733 -737 0
-734 -738 0
-735 -739 0
-736 -740 0
-733 -749 0
-734 -750 0
-735 -751 0
-736 -752 0
-733 -777 0
-734 -778 0
-735 -779 0
-736 -780 0
-733 -913 0
-734 -914 0
-735 -915 0
-736 -916 0
-733 -1169 0
-734 -1170 0
-735 -1171 0
-736 -1172 0
-733 -2557 0
-734 -2558 0
-735 -2559 0
-736 -2560 0
-737 -741 0
-738 -742 0
-739 -743 0
-740 -744 0
-737 -917 0
-738 -918 0
-739 -919 0
-740 -920 0
-737 -1965 0
-738 -1966 0
-739 -1967 0
-740 -1968 0
-737 -2613 0
-738 -2614 0
-739 -2615 0
-740 -2616 0
-737 -2733 0
-738 -2734 0
-739 -2735 0
-740 -2736 0
-741 -745 0
-742 -746 0
-743 -747 0
-744 -748 0
-741 -809 0
-742 -810 0
-743 -811 0
-744 -812 0
-741 -921 0
-742 -922 0
-743 -923 0
-744 -924 0
-741 -989 0
-742 -990 0
-743 -991 0
-744 -992 0
-741 -1785 0
-742 -1786 0
-743 -1787 0
-744 -1788 0
-741 -2157 0
-742 -2158 0
-743 -2159 0
-744 -2160 0
-741 -2617 0
-742 -2618 0
-743 -2619 0
-744 -2620 0
-741 -2709 0
-742 -2710 0
-743 -2711 0
-744 -2712 0
-741 -2717 0
-742 -2718 0
-743 -2719 0
-744 -2720 0
-741 -2733 0
-742 -2734 0
-743 -2735 0
-744 -2736 0
-745 -781 0
-746 -782 0
-747 -783 0
-748 -784 0
-745 -809 0
-746 -810 0
-747 -811 0
-748 -812 0
-745 -817 0
-746 -818 0
-747 -819 0
-748 -820 0
-745 -885 0
-746 -886 0
-747 -887 0
-748 -888 0
-745 -893 0
-746 -894 0
-747 -895 0
-748 -896 0
-745 -925 0
-746 -926 0
-747 -927 0
-748 -928 0
-745 -1005 0
-746 -1006 0
-747 -1007 0
-748 -1008 0
-745 -1013 0
-746 -1014 0
-747 -1015 0
-748 -1016 0
-745 -1953 0
-746 -1954 0
-747 -1955 0
-748 -1956 0
-745 -2093 0
-746 -2094 0
-747 -2095 0
-748 -2096 0
-745 -2161 0
-746 -2162 0
-747 -2163 0
-748 -2164 0
-745 -2457 0
-746 -2458 0
-747 -2459 0
-748 -2460 0
-745 -2689 0
-746 -2690 0
-747 -2691 0
-748 -2692 0
-745 -2729 0
-746 -2730 0
-747 -2731 0
-748 -2732 0
-745 -2737 0
-746 -2738 0
-747 -2739 0
-748 -2740 0
-749 -789 0
-750 -790 0
-751 -791 0
-752 -792 0
-749 -1545 0
-750 -1546 0
-751 -1547 0
-752 -1548 0
-749 -1689 0
-750 -1690 0
-751 -1691 0
-752 -1692 0
-749 -1789 0
-750 -1790 0
-751 -1791 0
-752 -1792 0
-749 -1861 0
-750 -1862 0
-751 -1863 0
-752 -1864 0
-749 -2465 0
-750 -2466 0
-751 -2467 0
-752 -2468 0
-749 -2561 0
-750 -2562 0
-751 -2563 0
-752 -2564 0
-749 -2697 0
-750 -2698 0
-751 -2699 0
-752 -2700 0
-749 -2721 0
-750 -2722 0
-751 -2723 0
-752 -2724 0
-753 -757 0
-754 -758 0
-755 -759 0
-756 -760 0
-753 -2709 0
-754 -2710 0
-755 -2711 0
-756 -2712 0
-753 -2733 0
-754 -2734 0
-755 -2735 0
-756 -2736 0
-757 -1041 0
-758 -1042 0
-759 -1043 0
-760 -1044 0
-757 -1265 0
-758 -1266 0
-759 -1267 0
-760 -1268 0
-761 -765 0
-762 -766 0
-763 -767 0
-764 -768 0
-761 -801 0
-762 -802 0
-763 -803 0
-764 -804 0
-761 -1309 0
-762 -1310 0
-763 -1311 0
-764 -1312 0
-761 -1937 0
-762 -1938 0
-763 -1939 0
-764 -1940 0
-761 -2293 0
-762 -2294 0
-763 -2295 0
-764 -2296 0
-761 -2693 0
-762 -2694 0
-763 -2695 0
-764 -2696 0
-761 -2745 0
-762 -2746 0
-763 -2747 0
-764 -2748 0
-765 -769 0
-766 -770 0
-767 -771 0
-768 -772 0
-765 -849 0
-766 -850 0
-767 -851 0
-768 -852 0
-765 -853 0
-766 -854 0
-767 -855 0
-768 -856 0
-765 -1033 0
-766 -1034 0
-767 -1035 0
-768 -1036 0
-765 -1173 0
-766 -1174 0
-767 -1175 0
-768 -1176 0
-765 -2317 0
-766 -2318 0
-767 -2319 0
-768 -2320 0
-765 -2345 0
-766 -2346 0
-767 -2347 0
-768 -2348 0
-765 -2473 0
-766 -2474 0
-767 -2475 0
-768 -2476 0
-765 -2749 0
-766 -2750 0
-767 -2751 0
-768 -2752 0
-769 -805 0
-770 -806 0
-771 -807 0
-772 -808 0
-769 -917 0
-770 -918 0
-771 -919 0
-772 -920 0
-769 -921 0
-770 -922 0
-771 -923 0
-772 -924 0
-769 -1041 0
-770 -1042 0
-771 -1043 0
-772 -1044 0
-769 -1693 0
-770 -1694 0
-771 -1695 0
-772 -1696 0
-769 -2169 0
-770 -2170 0
-771 -2171 0
-772 -2172 0
-769 -2309 0
-770 -2310 0
-771 -2311 0
-772 -2312 0
-769 -2321 0
-770 -2322 0
-771 -2323 0
-772 -2324 0
-769 -2453 0
-770 -2454 0
-771 -2455 0
-772 -2456 0
-769 -2733 0
-770 -2734 0
-771 -2735 0
-772 -2736 0
-773 -1153 0
-774 -1154 0
-775 -1155 0
-776 -1156 0
-773 -2329 0
-774 -2330 0
-775 -2331 0
-776 -2332 0
-773 -2625 0
-774 -2626 0
-775 -2627 0
-776 -2628 0
-777 -789 0
-778 -790 0
-779 -791 0
-780 -792 0
-777 -1177 0
-778 -1178 0
-779 -1179 0
-780 -1180 0
-777 -1793 0
-778 -1794 0
-779 -1795 0
-780 -1796 0
-777 -1865 0
-778 -1866 0
-779 -1867 0
-780 -1868 0
-777 -2565 0
-778 -2566 0
-779 -2567 0
-780 -2568 0
-781 -785 0
-782 -786 0
-783 -787 0
-784 -788 0
-781 -845 0
-782 -846 0
-783 -847 0
-784 -848 0
-781 -853 0
-782 -854 0
-783 -855 0
-784 -856 0
-781 -1013 0
-782 -1014 0
-783 -1015 0
-784 -1016 0
-781 -1985 0
-782 -1986 0
-783 -1987 0
-784 -1988 0
-781 -2177 0
-782 -2178 0
-783 -2179 0
-784 -2180 0
-781 -2333 0
-782 -2334 0
-783 -2335 0
-784 -2336 0
-781 -2745 0
-782 -2746 0
-783 -2747 0
-784 -2748 0
-785 -789 0
-786 -790 0
-787 -791 0
-788 -792 0
-785 -813 0
-786 -814 0
-787 -815 0
-788 -816 0
-785 -845 0
-786 -846 0
-787 -847 0
-788 -848 0
-785 -849 0
-786 -850 0
-787 -851 0
-788 -852 0
-785 -901 0
-786 -902 0
-787 -903 0
-788 -904 0
-785 -921 0
-786 -922 0
-787 -923 0
-788 -924 0
-785 -1009 0
-786 -1010 0
-787 -1011 0
-788 -1012 0
-785 -1697 0
-786 -1698 0
-787 -1699 0
-788 -1700 0
-785 -1797 0
-786 -1798 0
-787 -1799 0
-788 -1800 0
-785 -1869 0
-786 -1870 0
-787 -1871 0
-788 -1872 0
-785 -1937 0
-786 -1938 0
-787 -1939 0
-788 -1940 0
-785 -1989 0
-786 -1990 0
-787 -1991 0
-788 -1992 0
-785 -2121 0
-786 -2122 0
-787 -2123 0
-788 -2124 0
-785 -2181 0
-786 -2182 0
-787 -2183 0
-788 -2184 0
-785 -2265 0
-786 -2266 0
-787 -2267 0
-788 -2268 0
-785 -2337 0
-786 -2338 0
-787 -2339 0
-788 -2340 0
-785 -2549 0
-786 -2550 0
-787 -2551 0
-788 -2552 0
-785 -2709 0
-786 -2710 0
-787 -2711 0
-788 -2712 0
-785 -2741 0
-786 -2742 0
-787 -2743 0
-788 -2744 0
-785 -2753 0
-786 -2754 0
-787 -2755 0
-788 -2756 0
-789 -817 0
-790 -818 0
-791 -819 0
-792 -820 0
-789 -901 0
-790 -902 0
-791 -903 0
-792 -904 0
-789 -917 0
-790 -918 0
-791 -919 0
-792 -920 0
-789 -1801 0
-790 -1802 0
-791 -1803 0
-792 -1804 0
-789 -1873 0
-790 -1874 0
-791 -1875 0
-792 -1876 0
-789 -2117 0
-790 -2118 0
-791 -2119 0
-792 -2120 0
-789 -2689 0
-790 -2690 0
-791 -2691 0
-792 -2692 0
-789 -2697 0
-790 -2698 0
-791 -2699 0
-792 -2700 0
-789 -2749 0
-790 -2750 0
-791 -2751 0
-792 -2752 0
-793 -821 0
-794 -822 0
-795 -823 0
-796 -824 0
-793 -953 0
-794 -954 0
-795 -955 0
-796 -956 0
-793 -957 0
-794 -958 0
-795 -959 0
-796 -960 0
-793 -1473 0
-794 -1474 0
-795 -1475 0
-796 -1476 0
-793 -1477 0
-794 -1478 0
-795 -1479 0
-796 -1480 0
-793 -2757 0
-794 -2758 0
-795 -2759 0
-796 -2760 0
-797 -801 0
-798 -802 0
-799 -803 0
-800 -804 0
-797 -829 0
-798 -830 0
-799 -831 0
-800 -832 0
-797 -1269 0
-798 -1270 0
-799 -1271 0
-800 -1272 0
-797 -1369 0
-798 -1370 0
-799 -1371 0
-800 -1372 0
-797 -2569 0
-798 -2570 0
-799 -2571 0
-800 -2572 0
-797 -2761 0
-798 -2762 0
-799 -2763 0
-800 -2764 0
-797 -2765 0
-798 -2766 0
-799 -2767 0
-800 -2768 0
-801 -1181 0
-802 -1182 0
-803 -1183 0
-804 -1184 0
-801 -1649 0
-802 -1650 0
-803 -1651 0
-804 -1652 0
-801 -2477 0
-802 -2478 0
-803 -2479 0
-804 -2480 0
-801 -2769 0
-802 -2770 0
-803 -2771 0
-804 -2772 0
-805 -809 0
-806 -810 0
-807 -811 0
-808 -812 0
-805 -837 0
-806 -838 0
-807 -839 0
-808 -840 0
-805 -893 0
-806 -894 0
-807 -895 0
-808 -896 0
-805 -1041 0
-806 -1042 0
-807 -1043 0
-808 -1044 0
-805 -1189 0
-806 -1190 0
-807 -1191 0
-808 -1192 0
-805 -2341 0
-806 -2342 0
-807 -2343 0
-808 -2344 0
-805 -2493 0
-806 -2494 0
-807 -2495 0
-808 -2496 0
-805 -2717 0
-806 -2718 0
-807 -2719 0
-808 -2720 0
-805 -2757 0
-806 -2758 0
-807 -2759 0
-808 -2760 0
-809 -841 0
-810 -842 0
-811 -843 0
-812 -844 0
-809 -1805 0
-810 -1806 0
-811 -1807 0
-812 -1808 0
-809 -2345 0
-810 -2346 0
-811 -2347 0
-812 -2348 0
-809 -2481 0
-810 -2482 0
-811 -2483 0
-812 -2484 0
-809 -2545 0
-810 -2546 0
-811 -2547 0
-812 -2548 0
-809 -2737 0
-810 -2738 0
-811 -2739 0
-812 -2740 0
-813 -817 0
-814 -818 0
-815 -819 0
-816 -820 0
-813 -869 0
-814 -870 0
-815 -871 0
-816 -872 0
-813 -1881 0
-814 -1882 0
-815 -1883 0
-816 -1884 0
-813 -1957 0
-814 -1958 0
-815 -1959 0
-816 -1960 0
-813 -2189 0
-814 -2190 0
-815 -2191 0
-816 -2192 0
-813 -2485 0
-814 -2486 0
-815 -2487 0
-816 -2488 0
-813 -2737 0
-814 -2738 0
-815 -2739 0
-816 -2740 0
-813 -2761 0
-814 -2762 0
-815 -2763 0
-816 -2764 0
-813 -2773 0
-814 -2774 0
-815 -2775 0
-816 -2776 0
-817 -857 0
-818 -858 0
-819 -859 0
-820 -860 0
-817 -869 0
-818 -870 0
-819 -871 0
-820 -872 0
-817 -893 0
-818 -894 0
-819 -895 0
-820 -896 0
-817 -957 0
-818 -958 0
-819 -959 0
-820 -960 0
-817 -1197 0
-818 -1198 0
-819 -1199 0
-820 -1200 0
-817 -1813 0
-818 -1814 0
-819 -1815 0
-820 -1816 0
-817 -1885 0
-818 -1886 0
-819 -1887 0
-820 -1888 0
-817 -1953 0
-818 -1954 0
-819 -1955 0
-820 -1956 0
-817 -2073 0
-818 -2074 0
-819 -2075 0
-820 -2076 0
-817 -2145 0
-818 -2146 0
-819 -2147 0
-820 -2148 0
-817 -2193 0
-818 -2194 0
-819 -2195 0
-820 -2196 0
-817 -2289 0
-818 -2290 0
-819 -2291 0
-820 -2292 0
-817 -2441 0
-818 -2442 0
-819 -2443 0
-820 -2444 0
-817 -2713 0
-818 -2714 0
-819 -2715 0
-820 -2716 0
-817 -2745 0
-818 -2746 0
-819 -2747 0
-820 -2748 0
-817 -2765 0
-818 -2766 0
-819 -2767 0
-820 -2768 0
-817 -2769 0
-818 -2770 0
-819 -2771 0
-820 -2772 0
-821 -825 0
-822 -826 0
-823 -827 0
-824 -828 0
-821 -1201 0
-822 -1202 0
-823 -1203 0
-824 -1204 0
-821 -2773 0
-822 -2774 0
-823 -2775 0
-824 -2776 0
-825 -861 0
-826 -862 0
-827 -863 0
-828 -864 0
-825 -965 0
-826 -966 0
-827 -967 0
-828 -968 0
-825 -969 0
-826 -970 0
-827 -971 0
-828 -972 0
-825 -1609 0
-826 -1610 0
-827 -1611 0
-828 -1612 0
-825 -2777 0
-826 -2778 0
-827 -2779 0
-828 -2780 0
-825 -2781 0
-826 -2782 0
-827 -2783 0
-828 -2784 0
-829 -845 0
-830 -846 0
-831 -847 0
-832 -848 0
-829 -869 0
-830 -870 0
-831 -871 0
-832 -872 0
-829 -1205 0
-830 -1206 0
-831 -1207 0
-832 -1208 0
-829 -1637 0
-830 -1638 0
-831 -1639 0
-832 -1640 0
-829 -1937 0
-830 -1938 0
-831 -1939 0
-832 -1940 0
-829 -1941 0
-830 -1942 0
-831 -1943 0
-832 -1944 0
-829 -1945 0
-830 -1946 0
-831 -1947 0
-832 -1948 0
-829 -1993 0
-830 -1994 0
-831 -1995 0
-832 -1996 0
-829 -2137 0
-830 -2138 0
-831 -2139 0
-832 -2140 0
-829 -2197 0
-830 -2198 0
-831 -2199 0
-832 -2200 0
-829 -2745 0
-830 -2746 0
-831 -2747 0
-832 -2748 0
-829 -2777 0
-830 -2778 0
-831 -2779 0
-832 -2780 0
-833 -837 0
-834 -838 0
-835 -839 0
-836 -840 0
-833 -877 0
-834 -878 0
-835 -879 0
-836 -880 0
-833 -1213 0
-834 -1214 0
-835 -1215 0
-836 -1216 0
-833 -1385 0
-834 -1386 0
-835 -1387 0
-836 -1388 0
-833 -1613 0
-834 -1614 0
-835 -1615 0
-836 -1616 0
-833 -2641 0
-834 -2642 0
-835 -2643 0
-836 -2644 0
-837 -841 0
-838 -842 0
-839 -843 0
-840 -844 0
-837 -1217 0
-838 -1218 0
-839 -1219 0
-840 -1220 0
-837 -1389 0
-838 -1390 0
-839 -1391 0
-840 -1392 0
-837 -1625 0
-838 -1626 0
-839 -1627 0
-840 -1628 0
-837 -2313 0
-838 -2314 0
-839 -2315 0
-840 -2316 0
-837 -2357 0
-838 -2358 0
-839 -2359 0
-840 -2360 0
-837 -2529 0
-838 -2530 0
-839 -2531 0
-840 -2532 0
-837 -2757 0
-838 -2758 0
-839 -2759 0
-840 -2760 0
-837 -2789 0
-838 -2790 0
-839 -2791 0
-840 -2792 0
-841 -845 0
-842 -846 0
-843 -847 0
-844 -848 0
-841 -881 0
-842 -882 0
-843 -883 0
-844 -884 0
-841 -921 0
-842 -922 0
-843 -923 0
-844 -924 0
-841 -925 0
-842 -926 0
-843 -927 0
-844 -928 0
-841 -1393 0
-842 -1394 0
-843 -1395 0
-844 -1396 0
-841 -2005 0
-842 -2006 0
-843 -2007 0
-844 -2008 0
-841 -2489 0
-842 -2490 0
-843 -2491 0
-844 -2492 0
-841 -2781 0
-842 -2782 0
-843 -2783 0
-844 -2784 0
-845 -885 0
-846 -886 0
-847 -887 0
-848 -888 0
-845 -1817 0
-846 -1818 0
-847 -1819 0
-848 -1820 0
-845 -1889 0
-846 -1890 0
-847 -1891 0
-848 -1892 0
-845 -1945 0
-846 -1946 0
-847 -1947 0
-848 -1948 0
-845 -2009 0
-846 -2010 0
-847 -2011 0
-848 -2012 0
-845 -2493 0
-846 -2494 0
-847 -2495 0
-848 -2496 0
-845 -2753 0
-846 -2754 0
-847 -2755 0
-848 -2756 0
-845 -2773 0
-846 -2774 0
-847 -2775 0
-848 -2776 0
-849 -853 0
-850 -854 0
-851 -855 0
-852 -856 0
-849 -857 0
-850 -858 0
-851 -859 0
-852 -860 0
-849 -889 0
-850 -890 0
-851 -891 0
-852 -892 0
-849 -905 0
-850 -906 0
-851 -907 0
-852 -908 0
-849 -921 0
-850 -922 0
-851 -923 0
-852 -924 0
-849 -953 0
-850 -954 0
-851 -955 0
-852 -956 0
-849 -969 0
-850 -970 0
-851 -971 0
-852 -972 0
-849 -1221 0
-850 -1222 0
-851 -1223 0
-852 -1224 0
-849 -1397 0
-850 -1398 0
-851 -1399 0
-852 -1400 0
-849 -1893 0
-850 -1894 0
-851 -1895 0
-852 -1896 0
-849 -1937 0
-850 -1938 0
-851 -1939 0
-852 -1940 0
-849 -2013 0
-850 -2014 0
-851 -2015 0
-852 -2016 0
-849 -2097 0
-850 -2098 0
-851 -2099 0
-852 -2100 0
-849 -2249 0
-850 -2250 0
-851 -2251 0
-852 -2252 0
-849 -2313 0
-850 -2314 0
-851 -2315 0
-852 -2316 0
-849 -2361 0
-850 -2362 0
-851 -2363 0
-852 -2364 0
-849 -2749 0
-850 -2750 0
-851 -2751 0
-852 -2752 0
-853 -893 0
-854 -894 0
-855 -895 0
-856 -896 0
-853 -965 0
-854 -966 0
-855 -967 0
-856 -968 0
-853 -2017 0
-854 -2018 0
-855 -2019 0
-856 -2020 0
-853 -2201 0
-854 -2202 0
-855 -2203 0
-856 -2204 0
-853 -2517 0
-854 -2518 0
-855 -2519 0
-856 -2520 0
-853 -2577 0
-854 -2578 0
-855 -2579 0
-856 -2580 0
-853 -2745 0
-854 -2746 0
-855 -2747 0
-856 -2748 0
-853 -2785 0
-854 -2786 0
-855 -2787 0
-856 -2788 0
-857 -905 0
-858 -906 0
-859 -907 0
-860 -908 0
-857 -925 0
-858 -926 0
-859 -927 0
-860 -928 0
-857 -957 0
-858 -958 0
-859 -959 0
-860 -960 0
-857 -1401 0
-858 -1402 0
-859 -1403 0
-860 -1404 0
-857 -1897 0
-858 -1898 0
-859 -1899 0
-860 -1900 0
-857 -1941 0
-858 -1942 0
-859 -1943 0
-860 -1944 0
-857 -2101 0
-858 -2102 0
-859 -2103 0
-860 -2104 0
-857 -2253 0
-858 -2254 0
-859 -2255 0
-860 -2256 0
-857 -2369 0
-858 -2370 0
-859 -2371 0
-860 -2372 0
-857 -2645 0
-858 -2646 0
-859 -2647 0
-860 -2648 0
-857 -2753 0
-858 -2754 0
-859 -2755 0
-860 -2756 0
-857 -2789 0
-858 -2790 0
-859 -2791 0
-860 -2792 0
-857 -2793 0
-858 -2794 0
-859 -2795 0
-860 -2796 0
-861 -865 0
-862 -866 0
-863 -867 0
-864 -868 0
-861 -1405 0
-862 -1406 0
-863 -1407 0
-864 -1408 0
-861 -1725 0
-862 -1726 0
-863 -1727 0
-864 -1728 0
-861 -2789 0
-862 -2790 0
-863 -2791 0
-864 -2792 0
-861 -2797 0
-862 -2798 0
-863 -2799 0
-864 -2800 0
-865 -897 0
-866 -898 0
-867 -899 0
-868 -900 0
-865 -981 0
-866 -982 0
-867 -983 0
-868 -984 0
-865 -985 0
-866 -986 0
-867 -987 0
-868 -988 0
-865 -1045 0
-866 -1046 0
-867 -1047 0
-868 -1048 0
-865 -2801 0
-866 -2802 0
-867 -2803 0
-868 -2804 0
-865 -2805 0
-866 -2806 0
-867 -2807 0
-868 -2808 0
-869 -873 0
-870 -874 0
-871 -875 0
-872 -876 0
-869 -885 0
-870 -886 0
-871 -887 0
-872 -888 0
-869 -901 0
-870 -902 0
-871 -903 0
-872 -904 0
-869 -1045 0
-870 -1046 0
-871 -1047 0
-872 -1048 0
-869 -1225 0
-870 -1226 0
-871 -1227 0
-872 -1228 0
-869 -1409 0
-870 -1410 0
-871 -1411 0
-872 -1412 0
-869 -1901 0
-870 -1902 0
-871 -1903 0
-872 -1904 0
-869 -1929 0
-870 -1930 0
-871 -1931 0
-872 -1932 0
-869 -2005 0
-870 -2006 0
-871 -2007 0
-872 -2008 0
-869 -2649 0
-870 -2650 0
-871 -2651 0
-872 -2652 0
-869 -2713 0
-870 -2714 0
-871 -2715 0
-872 -2716 0
-869 -2777 0
-870 -2778 0
-871 -2779 0
-872 -2780 0
-873 -877 0
-874 -878 0
-875 -879 0
-876 -880 0
-873 -905 0
-874 -906 0
-875 -907 0
-876 -908 0
-873 -1229 0
-874 -1230 0
-875 -1231 0
-876 -1232 0
-873 -1413 0
-874 -1414 0
-875 -1415 0
-876 -1416 0
-873 -1625 0
-874 -1626 0
-875 -1627 0
-876 -1628 0
-873 -1905 0
-874 -1906 0
-875 -1907 0
-876 -1908 0
-873 -2069 0
-874 -2070 0
-875 -2071 0
-876 -2072 0
-873 -2145 0
-874 -2146 0
-875 -2147 0
-876 -2148 0
-873 -2149 0
-874 -2150 0
-875 -2151 0
-876 -2152 0
-873 -2297 0
-874 -2298 0
-875 -2299 0
-876 -2300 0
-873 -2801 0
-874 -2802 0
-875 -2803 0
-876 -2804 0
-877 -1233 0
-878 -1234 0
-879 -1235 0
-880 -1236 0
-877 -1417 0
-878 -1418 0
-879 -1419 0
-880 -1420 0
-877 -1549 0
-878 -1550 0
-879 -1551 0
-880 -1552 0
-877 -1621 0
-878 -1622 0
-879 -1623 0
-880 -1624 0
-877 -2025 0
-878 -2026 0
-879 -2027 0
-880 -2028 0
-877 -2809 0
-878 -2810 0
-879 -2811 0
-880 -2812 0
-881 -885 0
-882 -886 0
-883 -887 0
-884 -888 0
-881 -909 0
-882 -910 0
-883 -911 0
-884 -912 0
-881 -1421 0
-882 -1422 0
-883 -1423 0
-884 -1424 0
-881 -1557 0
-882 -1558 0
-883 -1559 0
-884 -1560 0
-881 -1729 0
-882 -1730 0
-883 -1731 0
-884 -1732 0
-881 -2085 0
-882 -2086 0
-883 -2087 0
-884 -2088 0
-881 -2457 0
-882 -2458 0
-883 -2459 0
-884 -2460 0
-881 -2497 0
-882 -2498 0
-883 -2499 0
-884 -2500 0
-881 -2725 0
-882 -2726 0
-883 -2727 0
-884 -2728 0
-881 -2781 0
-882 -2782 0
-883 -2783 0
-884 -2784 0
-885 -1821 0
-886 -1822 0
-887 -1823 0
-888 -1824 0
-885 -1933 0
-886 -1934 0
-887 -1935 0
-888 -1936 0
-885 -2737 0
-886 -2738 0
-887 -2739 0
-888 -2740 0
-885 -2805 0
-886 -2806 0
-887 -2807 0
-888 -2808 0
-889 -893 0
-890 -894 0
-891 -895 0
-892 -896 0
-889 -913 0
-890 -914 0
-891 -915 0
-892 -916 0
-889 -969 0
-890 -970 0
-891 -971 0
-892 -972 0
-889 -1237 0
-890 -1238 0
-891 -1239 0
-892 -1240 0
-889 -1425 0
-890 -1426 0
-891 -1427 0
-892 -1428 0
-889 -1909 0
-890 -1910 0
-891 -1911 0
-892 -1912 0
-889 -2033 0
-890 -2034 0
-891 -2035 0
-892 -2036 0
-889 -2149 0
-890 -2150 0
-891 -2151 0
-892 -2152 0
-889 -2269 0
-890 -2270 0
-891 -2271 0
-892 -2272 0
-889 -2429 0
-890 -2430 0
-891 -2431 0
-892 -2432 0
-889 -2501 0
-890 -2502 0
-891 -2503 0
-892 -2504 0
-889 -2713 0
-890 -2714 0
-891 -2715 0
-892 -2716 0
-889 -2721 0
-890 -2722 0
-891 -2723 0
-892 -2724 0
-889 -2725 0
-890 -2726 0
-891 -2727 0
-892 -2728 0
-889 -2797 0
-890 -2798 0
-891 -2799 0
-892 -2800 0
-893 -917 0
-894 -918 0
-895 -919 0
-896 -920 0
-893 -965 0
-894 -966 0
-895 -967 0
-896 -968 0
-893 -985 0
-894 -986 0
-895 -987 0
-896 -988 0
-893 -1241 0
-894 -1242 0
-895 -1243 0
-896 -1244 0
-893 -1561 0
-894 -1562 0
-895 -1563 0
-896 -1564 0
-893 -2037 0
-894 -2038 0
-895 -2039 0
-896 -2040 0
-893 -2145 0
-894 -2146 0
-895 -2147 0
-896 -2148 0
-893 -2213 0
-894 -2214 0
-895 -2215 0
-896 -2216 0
-893 -2377 0
-894 -2378 0
-895 -2379 0
-896 -2380 0
-893 -2457 0
-894 -2458 0
-895 -2459 0
-896 -2460 0
-893 -2717 0
-894 -2718 0
-895 -2719 0
-896 -2720 0
-893 -2789 0
-894 -2790 0
-895 -2791 0
-896 -2792 0
-893 -2809 0
-894 -2810 0
-895 -2811 0
-896 -2812 0
-897 -1069 0
-898 -1070 0
-899 -1071 0
-900 -1072 0
-897 -1721 0
-898 -1722 0
-899 -1723 0
-900 -1724 0
-897 -2725 0
-898 -2726 0
-899 -2727 0
-900 -2728 0
-901 -905 0
-902 -906 0
-903 -907 0
-904 -908 0
-901 -1045 0
-902 -1046 0
-903 -1047 0
-904 -1048 0
-901 -1705 0
-902 -1706 0
-903 -1707 0
-904 -1708 0
-901 -1825 0
-902 -1826 0
-903 -1827 0
-904 -1828 0
-901 -1917 0
-902 -1918 0
-903 -1919 0
-904 -1920 0
-901 -1961 0
-902 -1962 0
-903 -1963 0
-904 -1964 0
-901 -2701 0
-902 -2702 0
-903 -2703 0
-904 -2704 0
-901 -2753 0
-902 -2754 0
-903 -2755 0
-904 -2756 0
-905 -1037 0
-906 -1038 0
-907 -1039 0
-908 -1040 0
-905 -1429 0
-906 -1430 0
-907 -1431 0
-908 -1432 0
-905 -1933 0
-906 -1934 0
-907 -1935 0
-908 -1936 0
-905 -2141 0
-906 -2142 0
-907 -2143 0
-908 -2144 0
-905 -2749 0
-906 -2750 0
-907 -2751 0
-908 -2752 0
-905 -2793 0
-906 -2794 0
-907 -2795 0
-908 -2796 0
-905 -2801 0
-906 -2802 0
-907 -2803 0
-908 -2804 0
-905 -2813 0
-906 -2814 0
-907 -2815 0
-908 -2816 0
-909 -1161 0
-910 -1162 0
-911 -1163 0
-912 -1164 0
-909 -1437 0
-910 -1438 0
-911 -1439 0
-912 -1440 0
-909 -1709 0
-910 -1710 0
-911 -1711 0
-912 -1712 0
-909 -2049 0
-910 -2050 0
-911 -2051 0
-912 -2052 0
-913 -917 0
-914 -918 0
-915 -919 0
-916 -920 0
-913 -1245 0
-914 -1246 0
-915 -1247 0
-916 -1248 0
-913 -2589 0
-914 -2590 0
-915 -2591 0
-916 -2592 0
-913 -2657 0
-914 -2658 0
-915 -2659 0
-916 -2660 0
-913 -2685 0
-914 -2686 0
-915 -2687 0
-916 -2688 0
-913 -2813 0
-914 -2814 0
-915 -2815 0
-916 -2816 0
-917 -921 0
-918 -922 0
-919 -923 0
-920 -924 0
-917 -985 0
-918 -986 0
-919 -987 0
-920 -988 0
-917 -1249 0
-918 -1250 0
-919 -1251 0
-920 -1252 0
-917 -1441 0
-918 -1442 0
-919 -1443 0
-920 -1444 0
-917 -1573 0
-918 -1574 0
-919 -1575 0
-920 -1576 0
-917 -2053 0
-918 -2054 0
-919 -2055 0
-920 -2056 0
-917 -2685 0
-918 -2686 0
-919 -2687 0
-920 -2688 0
-917 -2689 0
-918 -2690 0
-919 -2691 0
-920 -2692 0
-917 -2749 0
-918 -2750 0
-919 -2751 0
-920 -2752 0
-921 -925 0
-922 -926 0
-923 -927 0
-924 -928 0
-921 -981 0
-922 -982 0
-923 -983 0
-924 -984 0
-921 -989 0
-922 -990 0
-923 -991 0
-924 -992 0
-921 -1445 0
-922 -1446 0
-923 -1447 0
-924 -1448 0
-921 -1577 0
-922 -1578 0
-923 -1579 0
-924 -1580 0
-921 -2057 0
-922 -2058 0
-923 -2059 0
-924 -2060 0
-921 -2233 0
-922 -2234 0
-923 -2235 0
-924 -2236 0
-921 -2313 0
-922 -2314 0
-923 -2315 0
-924 -2316 0
-921 -2389 0
-922 -2390 0
-923 -2391 0
-924 -2392 0
-921 -2549 0
-922 -2550 0
-923 -2551 0
-924 -2552 0
-921 -2725 0
-922 -2726 0
-923 -2727 0
-924 -2728 0
-925 -929 0
-926 -930 0
-927 -931 0
-928 -932 0
-925 -1005 0
-926 -1006 0
-927 -1007 0
-928 -1008 0
-925 -1581 0
-926 -1582 0
-927 -1583 0
-928 -1584 0
-925 -2061 0
-926 -2062 0
-927 -2063 0
-928 -2064 0
-925 -2237 0
-926 -2238 0
-927 -2239 0
-928 -2240 0
-925 -2393 0
-926 -2394 0
-927 -2395 0
-928 -2396 0
-925 -2753 0
-926 -2754 0
-927 -2755 0
-928 -2756 0
-925 -2789 0
-926 -2790 0
-927 -2791 0
-928 -2792 0
-929 -1585 0
-930 -1586 0
-931 -1587 0
-932 -1588 0
-929 -2509 0
-930 -2510 0
-931 -2511 0
-932 -2512 0
-929 -2793 0
-930 -2794 0
-931 -2795 0
-932 -2796 0
-929 -2797 0
-930 -2798 0
-931 -2799 0
-932 -2800 0
-933 -945 0
-934 -946 0
-935 -947 0
-936 -948 0
-933 -1009 0
-934 -1010 0
-935 -1011 0
-936 -1012 0
-933 -1937 0
-934 -1938 0
-935 -1939 0
-936 -1940 0
-933 -2157 0
-934 -2158 0
-935 -2159 0
-936 -2160 0
-933 -2693 0
-934 -2694 0
-935 -2695 0
-936 -2696 0
-933 -2713 0
-934 -2714 0
-935 -2715 0
-936 -2716 0
-937 -941 0
-938 -942 0
-939 -943 0
-940 -944 0
-937 -957 0
-938 -958 0
-939 -959 0
-940 -960 0
-937 -1021 0
-938 -1022 0
-939 -1023 0
-940 -1024 0
-937 -1949 0
-938 -1950 0
-939 -1951 0
-940 -1952 0
-937 -1953 0
-938 -1954 0
-939 -1955 0
-940 -1956 0
-937 -2017 0
-938 -2018 0
-939 -2019 0
-940 -2020 0
-937 -2517 0
-938 -2518 0
-939 -2519 0
-940 -2520 0
-937 -2753 0
-938 -2754 0
-939 -2755 0
-940 -2756 0
-941 -945 0
-942 -946 0
-943 -947 0
-944 -948 0
-941 -1949 0
-942 -1950 0
-943 -1951 0
-944 -1952 0
-941 -2013 0
-942 -2014 0
-943 -2015 0
-944 -2016 0
-941 -2741 0
-942 -2742 0
-943 -2743 0
-944 -2744 0
-941 -2761 0
-942 -2762 0
-943 -2763 0
-944 -2764 0
-945 -1025 0
-946 -1026 0
-947 -1027 0
-948 -1028 0
-945 -1941 0
-946 -1942 0
-947 -1943 0
-948 -1944 0
-945 -2161 0
-946 -2162 0
-947 -2163 0
-948 -2164 0
-945 -2401 0
-946 -2402 0
-947 -2403 0
-948 -2404 0
-945 -2765 0
-946 -2766 0
-947 -2767 0
-948 -2768 0
-949 -953 0
-950 -954 0
-951 -955 0
-952 -956 0
-949 -2145 0
-950 -2146 0
-951 -2147 0
-952 -2148 0
-949 -2177 0
-950 -2178 0
-951 -2179 0
-952 -2180 0
-949 -2333 0
-950 -2334 0
-951 -2335 0
-952 -2336 0
-949 -2749 0
-950 -2750 0
-951 -2751 0
-952 -2752 0
-949 -2785 0
-950 -2786 0
-951 -2787 0
-952 -2788 0
-953 -957 0
-954 -958 0
-955 -959 0
-956 -960 0
-953 -961 0
-954 -962 0
-955 -963 0
-956 -964 0
-953 -1665 0
-954 -1666 0
-955 -1667 0
-956 -1668 0
-953 -2065 0
-954 -2066 0
-955 -2067 0
-956 -2068 0
-953 -2405 0
-954 -2406 0
-955 -2407 0
-956 -2408 0
-957 -965 0
-958 -966 0
-959 -967 0
-960 -968 0
-957 -1257 0
-958 -1258 0
-959 -1259 0
-960 -1260 0
-957 -1669 0
-958 -1670 0
-959 -1671 0
-960 -1672 0
-957 -2409 0
-958 -2410 0
-959 -2411 0
-960 -2412 0
-957 -2745 0
-958 -2746 0
-959 -2747 0
-960 -2748 0
-957 -2777 0
-958 -2778 0
-959 -2779 0
-960 -2780 0
-961 -965 0
-962 -966 0
-963 -967 0
-964 -968 0
-961 -2313 0
-962 -2314 0
-963 -2315 0
-964 -2316 0
-961 -2485 0
-962 -2486 0
-963 -2487 0
-964 -2488 0
-961 -2717 0
-962 -2718 0
-963 -2719 0
-964 -2720 0
-961 -2757 0
-962 -2758 0
-963 -2759 0
-964 -2760 0
-965 -969 0
-966 -970 0
-967 -971 0
-968 -972 0
-965 -2077 0
-966 -2078 0
-967 -2079 0
-968 -2080 0
-965 -2757 0
-966 -2758 0
-967 -2759 0
-968 -2760 0
-965 -2789 0
-966 -2790 0
-967 -2791 0
-968 -2792 0
-969 -973 0
-970 -974 0
-971 -975 0
-972 -976 0
-969 -981 0
-970 -982 0
-971 -983 0
-972 -984 0
-969 -1453 0
-970 -1454 0
-971 -1455 0
-972 -1456 0
-969 -1629 0
-970 -1630 0
-971 -1631 0
-972 -1632 0
-969 -2081 0
-970 -2082 0
-971 -2083 0
-972 -2084 0
-969 -2521 0
-970 -2522 0
-971 -2523 0
-972 -2524 0
-969 -2597 0
-970 -2598 0
-971 -2599 0
-972 -2600 0
-969 -2797 0
-970 -2798 0
-971 -2799 0
-972 -2800 0
-969 -2801 0
-970 -2802 0
-971 -2803 0
-972 -2804 0
-973 -985 0
-974 -986 0
-975 -987 0
-976 -988 0
-973 -2145 0
-974 -2146 0
-975 -2147 0
-976 -2148 0
-973 -2237 0
-974 -2238 0
-975 -2239 0
-976 -2240 0
-973 -2393 0
-974 -2394 0
-975 -2395 0
-976 -2396 0
-973 -2721 0
-974 -2722 0
-975 -2723 0
-976 -2724 0
-973 -2749 0
-974 -2750 0
-975 -2751 0
-976 -2752 0
-973 -2801 0
-974 -2802 0
-975 -2803 0
-976 -2804 0
-977 -1129 0
-978 -1130 0
-979 -1131 0
-980 -1132 0
-977 -1457 0
-978 -1458 0
-979 -1459 0
-980 -1460 0
-977 -2453 0
-978 -2454 0
-979 -2455 0
-980 -2456 0
-977 -2541 0
-978 -2542 0
-979 -2543 0
-980 -2544 0
-981 -985 0
-982 -986 0
-983 -987 0
-984 -988 0
-981 -1001 0
-982 -1002 0
-983 -1003 0
-984 -1004 0
-981 -1461 0
-982 -1462 0
-983 -1463 0
-984 -1464 0
-981 -1593 0
-982 -1594 0
-983 -1595 0
-984 -1596 0
-981 -1741 0
-982 -1742 0
-983 -1743 0
-984 -1744 0
-981 -2105 0
-982 -2106 0
-983 -2107 0
-984 -2108 0
-981 -2257 0
-982 -2258 0
-983 -2259 0
-984 -2260 0
-981 -2421 0
-982 -2422 0
-983 -2423 0
-984 -2424 0
-981 -2725 0
-982 -2726 0
-983 -2727 0
-984 -2728 0
-981 -2781 0
-982 -2782 0
-983 -2783 0
-984 -2784 0
-985 -1005 0
-986 -1006 0
-987 -1007 0
-988 -1008 0
-985 -2109 0
-986 -2110 0
-987 -2111 0
-988 -2112 0
-985 -2669 0
-986 -2670 0
-987 -2671 0
-988 -2672 0
-985 -2705 0
-986 -2706 0
-987 -2707 0
-988 -2708 0
-985 -2789 0
-986 -2790 0
-987 -2791 0
-988 -2792 0
-989 -993 0
-990 -994 0
-991 -995 0
-992 -996 0
-989 -1005 0
-990 -1006 0
-991 -1007 0
-992 -1008 0
-989 -1009 0
-990 -1010 0
-991 -1011 0
-992 -1012 0
-989 -2113 0
-990 -2114 0
-991 -2115 0
-992 -2116 0
-989 -2725 0
-990 -2726 0
-991 -2727 0
-992 -2728 0
-993 -1013 0
-994 -1014 0
-995 -1015 0
-996 -1016 0
-993 -2117 0
-994 -2118 0
-995 -2119 0
-996 -2120 0
-993 -2457 0
-994 -2458 0
-995 -2459 0
-996 -2460 0
-993 -2673 0
-994 -2674 0
-995 -2675 0
-996 -2676 0
-997 -1001 0
-998 -1002 0
-999 -1003 0
-1000 -1004 0
-997 -1021 0
-998 -1022 0
-999 -1023 0
-1000 -1024 0
-997 -2125 0
-998 -2126 0
-999 -2127 0
-1000 -2128 0
-1001 -1005 0
-1002 -1006 0
-1003 -1007 0
-1004 -1008 0
-1001 -2269 0
-1002 -2270 0
-1003 -2271 0
-1004 -2272 0
-1001 -2429 0
-1002 -2430 0
-1003 -2431 0
-1004 -2432 0
-1001 -2549 0
-1002 -2550 0
-1003 -2551 0
-1004 -2552 0
-1001 -2737 0
-1002 -2738 0
-1003 -2739 0
-1004 -2740 0
-1001 -2805 0
-1002 -2806 0
-1003 -2807 0
-1004 -2808 0
-1005 -1025 0
-1006 -1026 0
-1007 -1027 0
-1008 -1028 0
-1005 -1109 0
-1006 -1110 0
-1007 -1111 0
-1008 -1112 0
-1005 -2273 0
-1006 -2274 0
-1007 -2275 0
-1008 -2276 0
-1005 -2433 0
-1006 -2434 0
-1007 -2435 0
-1008 -2436 0
-1005 -2689 0
-1006 -2690 0
-1007 -2691 0
-1008 -2692 0
-1005 -2805 0
-1006 -2806 0
-1007 -2807 0
-1008 -2808 0
-1009 -1013 0
-1010 -1014 0
-1011 -1015 0
-1012 -1016 0
-1009 -1025 0
-1010 -1026 0
-1011 -1027 0
-1012 -1028 0
-1009 -1125 0
-1010 -1126 0
-1011 -1127 0
-1012 -1128 0
-1009 -1333 0
-1010 -1334 0
-1011 -1335 0
-1012 -1336 0
-1009 -2525 0
-1010 -2526 0
-1011 -2527 0
-1012 -2528 0
-1009 -2697 0
-1010 -2698 0
-1011 -2699 0
-1012 -2700 0
-1009 -2701 0
-1010 -2702 0
-1011 -2703 0
-1012 -2704 0
-1009 -2709 0
-1010 -2710 0
-1011 -2711 0
-1012 -2712 0
-1013 -1017 0
-1014 -1018 0
-1015 -1019 0
-1016 -1020 0
-1013 -1121 0
-1014 -1122 0
-1015 -1123 0
-1016 -1124 0
-1013 -2281 0
-1014 -2282 0
-1015 -2283 0
-1016 -2284 0
-1013 -2689 0
-1014 -2690 0
-1015 -2691 0
-1016 -2692 0
-1017 -1021 0
-1018 -1022 0
-1019 -1023 0
-1020 -1024 0
-1017 -2285 0
-1018 -2286 0
-1019 -2287 0
-1020 -2288 0
-1017 -2437 0
-1018 -2438 0
-1019 -2439 0
-1020 -2440 0
-1017 -2549 0
-1018 -2550 0
-1019 -2551 0
-1020 -2552 0
-1017 -2737 0
-1018 -2738 0
-1019 -2739 0
-1020 -2740 0
-1021 -2289 0
-1022 -2290 0
-1023 -2291 0
-1024 -2292 0
-1021 -2441 0
-1022 -2442 0
-1023 -2443 0
-1024 -2444 0
-1021 -2729 0
-1022 -2730 0
-1023 -2731 0
-1024 -2732 0
-1025 -1597 0
-1026 -1598 0
-1027 -1599 0
-1028 -1600 0
-1025 -1953 0
-1026 -1954 0
-1027 -1955 0
-1028 -1956 0
-1025 -2053 0
-1026 -2054 0
-1027 -2055 0
-1028 -2056 0
-1025 -2701 0
-1026 -2702 0
-1027 -2703 0
-1028 -2704 0
-1025 -2753 0
-1026 -2754 0
-1027 -2755 0
-1028 -2756 0
-1029 -1033 0
-1030 -1034 0
-1031 -1035 0
-1032 -1036 0
-1029 -1037 0
-1030 -1038 0
-1031 -1039 0
-1032 -1040 0
-1029 -2601 0
-1030 -2602 0
-1031 -2603 0
-1032 -2604 0
-1029 -2677 0
-1030 -2678 0
-1031 -2679 0
-1032 -2680 0
-1029 -2697 0
-1030 -2698 0
-1031 -2699 0
-1032 -2700 0
-1029 -2721 0
-1030 -2722 0
-1031 -2723 0
-1032 -2724 0
-1029 -2749 0
-1030 -2750 0
-1031 -2751 0
-1032 -2752 0
-1033 -1057 0
-1034 -1058 0
-1035 -1059 0
-1036 -1060 0
-1033 -1117 0
-1034 -1118 0
-1035 -1119 0
-1036 -1120 0
-1033 -2129 0
-1034 -2130 0
-1035 -2131 0
-1036 -2132 0
-1033 -2325 0
-1034 -2326 0
-1035 -2327 0
-1036 -2328 0
-1033 -2685 0
-1034 -2686 0
-1035 -2687 0
-1036 -2688 0
-1033 -2693 0
-1034 -2694 0
-1035 -2695 0
-1036 -2696 0
-1037 -1077 0
-1038 -1078 0
-1039 -1079 0
-1040 -1080 0
-1037 -1097 0
-1038 -1098 0
-1039 -1099 0
-1040 -1100 0
-1037 -1717 0
-1038 -1718 0
-1039 -1719 0
-1040 -1720 0
-1037 -2229 0
-1038 -2230 0
-1039 -2231 0
-1040 -2232 0
-1037 -2701 0
-1038 -2702 0
-1039 -2703 0
-1040 -2704 0
-1037 -2705 0
-1038 -2706 0
-1039 -2707 0
-1040 -2708 0
-1041 -1349 0
-1042 -1350 0
-1043 -1351 0
-1044 -1352 0
-1041 -2293 0
-1042 -2294 0
-1043 -2295 0
-1044 -2296 0
-1041 -2733 0
-1042 -2734 0
-1043 -2735 0
-1044 -2736 0
-1045 -1601 0
-1046 -1602 0
-1047 -1603 0
-1048 -1604 0
-1045 -1729 0
-1046 -1730 0
-1047 -1731 0
-1048 -1732 0
-1045 -2801 0
-1046 -2802 0
-1047 -2803 0
-1048 -2804 0
-1045 -2805 0
-1046 -2806 0
-1047 -2807 0
-1048 -2808 0
-1049 -1293 0
-1050 -1294 0
-1051 -1295 0
-1052 -1296 0
-1049 -1361 0
-1050 -1362 0
-1051 -1363 0
-1052 -1364 0
-1049 -1365 0
-1050 -1366 0
-1051 -1367 0
-1052 -1368 0
-1049 -1457 0
-1050 -1458 0
-1051 -1459 0
-1052 -1460 0
-1049 -1685 0
-1050 -1686 0
-1051 -1687 0
-1052 -1688 0
-1049 -1857 0
-1050 -1858 0
-1051 -1859 0
-1052 -1860 0
-1053 -1065 0
-1054 -1066 0
-1055 -1067 0
-1056 -1068 0
-1053 -2153 0
-1054 -2154 0
-1055 -2155 0
-1056 -2156 0
-1057 -1061 0
-1058 -1062 0
-1059 -1063 0
-1060 -1064 0
-1057 -1973 0
-1058 -1974 0
-1059 -1975 0
-1060 -1976 0
-1057 -2129 0
-1058 -2130 0
-1059 -2131 0
-1060 -2132 0
-1057 -2153 0
-1058 -2154 0
-1059 -2155 0
-1060 -2156 0
-1057 -2169 0
-1058 -2170 0
-1059 -2171 0
-1060 -2172 0
-1057 -2325 0
-1058 -2326 0
-1059 -2327 0
-1060 -2328 0
-1057 -2469 0
-1058 -2470 0
-1059 -2471 0
-1060 -2472 0
-1057 -2677 0
-1058 -2678 0
-1059 -2679 0
-1060 -2680 0
-1057 -2681 0
-1058 -2682 0
-1059 -2683 0
-1060 -2684 0
-1061 -2261 0
-1062 -2262 0
-1063 -2263 0
-1064 -2264 0
-1061 -2553 0
-1062 -2554 0
-1063 -2555 0
-1064 -2556 0
-1061 -2673 0
-1062 -2674 0
-1063 -2675 0
-1064 -2676 0
-1065 -2229 0
-1066 -2230 0
-1067 -2231 0
-1068 -2232 0
-1069 -1721 0
-1070 -1722 0
-1071 -1723 0
-1072 -1724 0
-1069 -2045 0
-1070 -2046 0
-1071 -2047 0
-1072 -2048 0
-1069 -2049 0
-1070 -2050 0
-1071 -2051 0
-1072 -2052 0
-1073 -1077 0
-1074 -1078 0
-1075 -1079 0
-1076 -1080 0
-1073 -1973 0
-1074 -1974 0
-1075 -1975 0
-1076 -1976 0
-1073 -2049 0
-1074 -2050 0
-1075 -2051 0
-1076 -2052 0
-1073 -2153 0
-1074 -2154 0
-1075 -2155 0
-1076 -2156 0
-1073 -2701 0
-1074 -2702 0
-1075 -2703 0
-1076 -2704 0
-1077 -1829 0
-1078 -1830 0
-1079 -1831 0
-1080 -1832 0
-1077 -1961 0
-1078 -1962 0
-1079 -1963 0
-1080 -1964 0
-1077 -2045 0
-1078 -2046 0
-1079 -2047 0
-1080 -2048 0
-1077 -2229 0
-1078 -2230 0
-1079 -2231 0
-1080 -2232 0
-1077 -2261 0
-1078 -2262 0
-1079 -2263 0
-1080 -2264 0
-1077 -2601 0
-1078 -2602 0
-1079 -2603 0
-1080 -2604 0
-1077 -2605 0
-1078 -2606 0
-1079 -2607 0
-1080 -2608 0
-1081 -1085 0
-1082 -1086 0
-1083 -1087 0
-1084 -1088 0
-1081 -1149 0
-1082 -1150 0
-1083 -1151 0
-1084 -1152 0
-1081 -1153 0
-1082 -1154 0
-1083 -1155 0
-1084 -1156 0
-1081 -1489 0
-1082 -1490 0
-1083 -1491 0
-1084 -1492 0
-1085 -1365 0
-1086 -1366 0
-1087 -1367 0
-1088 -1368 0
-1085 -1405 0
-1086 -1406 0
-1087 -1407 0
-1088 -1408 0
-1089 -1105 0
-1090 -1106 0
-1091 -1107 0
-1092 -1108 0
-1089 -1153 0
-1090 -1154 0
-1091 -1155 0
-1092 -1156 0
-1089 -1165 0
-1090 -1166 0
-1091 -1167 0
-1092 -1168 0
-1089 -1293 0
-1090 -1294 0
-1091 -1295 0
-1092 -1296 0
-1089 -1781 0
-1090 -1782 0
-1091 -1783 0
-1092 -1784 0
-1089 -1837 0
-1090 -1838 0
-1091 -1839 0
-1092 -1840 0
-1093 -1097 0
-1094 -1098 0
-1095 -1099 0
-1096 -1100 0
-1093 -1113 0
-1094 -1114 0
-1095 -1115 0
-1096 -1116 0
-1093 -1597 0
-1094 -1598 0
-1095 -1599 0
-1096 -1600 0
-1093 -1845 0
-1094 -1846 0
-1095 -1847 0
-1096 -1848 0
-1093 -2701 0
-1094 -2702 0
-1095 -2703 0
-1096 -2704 0
-1097 -1101 0
-1098 -1102 0
-1099 -1103 0
-1100 -1104 0
-1097 -1537 0
-1098 -1538 0
-1099 -1539 0
-1100 -1540 0
-1097 -1717 0
-1098 -1718 0
-1099 -1719 0
-1100 -1720 0
-1101 -1105 0
-1102 -1106 0
-1103 -1107 0
-1104 -1108 0
-1101 -1117 0
-1102 -1118 0
-1103 -1119 0
-1104 -1120 0
-1101 -1305 0
-1102 -1306 0
-1103 -1307 0
-1104 -1308 0
-1101 -1541 0
-1102 -1542 0
-1103 -1543 0
-1104 -1544 0
-1101 -1565 0
-1102 -1566 0
-1103 -1567 0
-1104 -1568 0
-1101 -2129 0
-1102 -2130 0
-1103 -2131 0
-1104 -2132 0
-1101 -2705 0
-1102 -2706 0
-1103 -2707 0
-1104 -2708 0
-1105 -1141 0
-1106 -1142 0
-1107 -1143 0
-1108 -1144 0
-1105 -1309 0
-1106 -1310 0
-1107 -1311 0
-1108 -1312 0
-1105 -1569 0
-1106 -1570 0
-1107 -1571 0
-1108 -1572 0
-1105 -1829 0
-1106 -1830 0
-1107 -1831 0
-1108 -1832 0
-1109 -1121 0
-1110 -1122 0
-1111 -1123 0
-1112 -1124 0
-1109 -1581 0
-1110 -1582 0
-1111 -1583 0
-1112 -1584 0
-1109 -1597 0
-1110 -1598 0
-1111 -1599 0
-1112 -1600 0
-1109 -1753 0
-1110 -1754 0
-1111 -1755 0
-1112 -1756 0
-1113 -1137 0
-1114 -1138 0
-1115 -1139 0
-1116 -1140 0
-1113 -1173 0
-1114 -1174 0
-1115 -1175 0
-1116 -1176 0
-1113 -1489 0
-1114 -1490 0
-1115 -1491 0
-1116 -1492 0
-1113 -2153 0
-1114 -2154 0
-1115 -2155 0
-1116 -2156 0
-1121 -1125 0
-1122 -1126 0
-1123 -1127 0
-1124 -1128 0
-1121 -1517 0
-1122 -1518 0
-1123 -1519 0
-1124 -1520 0
-1125 -1333 0
-1126 -1334 0
-1127 -1335 0
-1128 -1336 0
-1125 -1797 0
-1126 -1798 0
-1127 -1799 0
-1128 -1800 0
-1129 -1133 0
-1130 -1134 0
-1131 -1135 0
-1132 -1136 0
-1129 -1457 0
-1130 -1458 0
-1131 -1459 0
-1132 -1460 0
-1129 -1765 0
-1130 -1766 0
-1131 -1767 0
-1132 -1768 0
-1133 -1145 0
-1134 -1146 0
-1135 -1147 0
-1136 -1148 0
-1133 -1161 0
-1134 -1162 0
-1135 -1163 0
-1136 -1164 0
-1133 -1165 0
-1134 -1166 0
-1135 -1167 0
-1136 -1168 0
-1133 -1569 0
-1134 -1570 0
-1135 -1571 0
-1136 -1572 0
-1137 -1141 0
-1138 -1142 0
-1139 -1143 0
-1140 -1144 0
-1137 -1149 0
-1138 -1150 0
-1139 -1151 0
-1140 -1152 0
-1137 -1161 0
-1138 -1162 0
-1139 -1163 0
-1140 -1164 0
-1137 -1173 0
-1138 -1174 0
-1139 -1175 0
-1140 -1176 0
-1137 -1341 0
-1138 -1342 0
-1139 -1343 0
-1140 -1344 0
-1137 -1685 0
-1138 -1686 0
-1139 -1687 0
-1140 -1688 0
-1141 -1153 0
-1142 -1154 0
-1143 -1155 0
-1144 -1156 0
-1141 -1189 0
-1142 -1190 0
-1143 -1191 0
-1144 -1192 0
-1141 -1345 0
-1142 -1346 0
-1143 -1347 0
-1144 -1348 0
-1141 -1377 0
-1142 -1378 0
-1143 -1379 0
-1144 -1380 0
-1141 -1541 0
-1142 -1542 0
-1143 -1543 0
-1144 -1544 0
-1141 -1569 0
-1142 -1570 0
-1143 -1571 0
-1144 -1572 0
-1141 -1761 0
-1142 -1762 0
-1143 -1763 0
-1144 -1764 0
-1141 -2329 0
-1142 -2330 0
-1143 -2331 0
-1144 -2332 0
-1145 -1361 0
-1146 -1362 0
-1147 -1363 0
-1148 -1364 0
-1149 -1153 0
-1150 -1154 0
-1151 -1155 0
-1152 -1156 0
-1149 -1421 0
-1150 -1422 0
-1151 -1423 0
-1152 -1424 0
-1153 -1157 0
-1154 -1158 0
-1155 -1159 0
-1156 -1160 0
-1153 -1189 0
-1154 -1190 0
-1155 -1191 0
-1156 -1192 0
-1153 -1489 0
-1154 -1490 0
-1155 -1491 0
-1156 -1492 0
-1153 -1513 0
-1154 -1514 0
-1155 -1515 0
-1156 -1516 0
-1153 -1529 0
-1154 -1530 0
-1155 -1531 0
-1156 -1532 0
-1153 -2261 0
-1154 -2262 0
-1155 -2263 0
-1156 -2264 0
-1157 -1161 0
-1158 -1162 0
-1159 -1163 0
-1160 -1164 0
-1157 -1781 0
-1158 -1782 0
-1159 -1783 0
-1160 -1784 0
-1157 -1805 0
-1158 -1806 0
-1159 -1807 0
-1160 -1808 0
-1161 -1165 0
-1162 -1166 0
-1163 -1167 0
-1164 -1168 0
-1161 -1225 0
-1162 -1226 0
-1163 -1227 0
-1164 -1228 0
-1161 -1369 0
-1162 -1370 0
-1163 -1371 0
-1164 -1372 0
-1161 -1437 0
-1162 -1438 0
-1163 -1439 0
-1164 -1440 0
-1161 -1557 0
-1162 -1558 0
-1163 -1559 0
-1164 -1560 0
-1161 -1569 0
-1162 -1570 0
-1163 -1571 0
-1164 -1572 0
-1161 -1709 0
-1162 -1710 0
-1163 -1711 0
-1164 -1712 0
-1161 -1749 0
-1162 -1750 0
-1163 -1751 0
-1164 -1752 0
-1161 -1973 0
-1162 -1974 0
-1163 -1975 0
-1164 -1976 0
-1165 -1373 0
-1166 -1374 0
-1167 -1375 0
-1168 -1376 0
-1165 -2553 0
-1166 -2554 0
-1167 -2555 0
-1168 -2556 0
-1169 -1177 0
-1170 -1178 0
-1171 -1179 0
-1172 -1180 0
-1169 -1245 0
-1170 -1246 0
-1171 -1247 0
-1172 -1248 0
-1169 -3977 0
-1170 -3978 0
-1171 -3979 0
-1172 -3980 0
-1173 -1185 0
-1174 -1186 0
-1175 -1187 0
-1176 -1188 0
-1173 -1221 0
-1174 -1222 0
-1175 -1223 0
-1176 -1224 0
-1177 -1193 0
-1178 -1194 0
-1179 -1195 0
-1180 -1196 0
-1177 -1865 0
-1178 -1866 0
-1179 -1867 0
-1180 -1868 0
-1181 -1185 0
-1182 -1186 0
-1183 -1187 0
-1184 -1188 0
-1181 -1209 0
-1182 -1210 0
-1183 -1211 0
-1184 -1212 0
-1181 -1513 0
-1182 -1514 0
-1183 -1515 0
-1184 -1516 0
-1181 -1537 0
-1182 -1538 0
-1183 -1539 0
-1184 -1540 0
-1181 -1649 0
-1182 -1650 0
-1183 -1651 0
-1184 -1652 0
-1185 -1189 0
-1186 -1190 0
-1187 -1191 0
-1188 -1192 0
-1185 -1213 0
-1186 -1214 0
-1187 -1215 0
-1188 -1216 0
-1185 -1329 0
-1186 -1330 0
-1187 -1331 0
-1188 -1332 0
-1185 -1489 0
-1186 -1490 0
-1187 -1491 0
-1188 -1492 0
-1185 -1497 0
-1186 -1498 0
-1187 -1499 0
-1188 -1500 0
-1185 -1541 0
-1186 -1542 0
-1187 -1543 0
-1188 -1544 0
-1185 -1645 0
-1186 -1646 0
-1187 -1647 0
-1188 -1648 0
-1185 -1765 0
-1186 -1766 0
-1187 -1767 0
-1188 -1768 0
-1185 -2469 0
-1186 -2470 0
-1187 -2471 0
-1188 -2472 0
-1189 -1217 0
-1190 -1218 0
-1191 -1219 0
-1192 -1220 0
-1189 -1241 0
-1190 -1242 0
-1191 -1243 0
-1192 -1244 0
-1189 -1525 0
-1190 -1526 0
-1191 -1527 0
-1192 -1528 0
-1189 -1765 0
-1190 -1766 0
-1191 -1767 0
-1192 -1768 0
-1193 -1197 0
-1194 -1198 0
-1195 -1199 0
-1196 -1200 0
-1193 -1221 0
-1194 -1222 0
-1195 -1223 0
-1196 -1224 0
-1193 -1877 0
-1194 -1878 0
-1195 -1879 0
-1196 -1880 0
-1193 -2557 0
-1194 -2558 0
-1195 -2559 0
-1196 -2560 0
-1197 -1225 0
-1198 -1226 0
-1199 -1227 0
-1200 -1228 0
-1197 -1241 0
-1198 -1242 0
-1199 -1243 0
-1200 -1244 0
-1197 -1257 0
-1198 -1258 0
-1199 -1259 0
-1200 -1260 0
-1197 -1545 0
-1198 -1546 0
-1199 -1547 0
-1200 -1548 0
-1197 -1885 0
-1198 -1886 0
-1199 -1887 0
-1200 -1888 0
-1197 -2561 0
-1198 -2562 0
-1199 -2563 0
-1200 -2564 0
-1201 -1361 0
-1202 -1362 0
-1203 -1363 0
-1204 -1364 0
-1201 -1605 0
-1202 -1606 0
-1203 -1607 0
-1204 -1608 0
-1205 -1209 0
-1206 -1210 0
-1207 -1211 0
-1208 -1212 0
-1205 -1225 0
-1206 -1226 0
-1207 -1227 0
-1208 -1228 0
-1205 -1489 0
-1206 -1490 0
-1207 -1491 0
-1208 -1492 0
-1205 -1521 0
-1206 -1522 0
-1207 -1523 0
-1208 -1524 0
-1205 -1637 0
-1206 -1638 0
-1207 -1639 0
-1208 -1640 0
-1205 -1769 0
-1206 -1770 0
-1207 -1771 0
-1208 -1772 0
-1205 -2621 0
-1206 -2622 0
-1207 -2623 0
-1208 -2624 0
-1209 -1213 0
-1210 -1214 0
-1211 -1215 0
-1212 -1216 0
-1209 -1229 0
-1210 -1230 0
-1211 -1231 0
-1212 -1232 0
-1209 -1293 0
-1210 -1294 0
-1211 -1295 0
-1212 -1296 0
-1209 -1381 0
-1210 -1382 0
-1211 -1383 0
-1212 -1384 0
-1209 -1493 0
-1210 -1494 0
-1211 -1495 0
-1212 -1496 0
-1209 -1529 0
-1210 -1530 0
-1211 -1531 0
-1212 -1532 0
-1209 -1605 0
-1210 -1606 0
-1211 -1607 0
-1212 -1608 0
-1209 -1633 0
-1210 -1634 0
-1211 -1635 0
-1212 -1636 0
-1209 -1773 0
-1210 -1774 0
-1211 -1775 0
-1212 -1776 0
-1213 -1217 0
-1214 -1218 0
-1215 -1219 0
-1216 -1220 0
-1213 -1233 0
-1214 -1234 0
-1215 -1235 0
-1216 -1236 0
-1213 -1385 0
-1214 -1386 0
-1215 -1387 0
-1216 -1388 0
-1213 -1493 0
-1214 -1494 0
-1215 -1495 0
-1216 -1496 0
-1213 -1557 0
-1214 -1558 0
-1215 -1559 0
-1216 -1560 0
-1213 -1565 0
-1214 -1566 0
-1215 -1567 0
-1216 -1568 0
-1213 -1685 0
-1214 -1686 0
-1215 -1687 0
-1216 -1688 0
-1213 -1805 0
-1214 -1806 0
-1215 -1807 0
-1216 -1808 0
-1213 -2085 0
-1214 -2086 0
-1215 -2087 0
-1216 -2088 0
-1217 -1389 0
-1218 -1390 0
-1219 -1391 0
-1220 -1392 0
-1217 -1525 0
-1218 -1526 0
-1219 -1527 0
-1220 -1528 0
-1217 -1569 0
-1218 -1570 0
-1219 -1571 0
-1220 -1572 0
-1217 -1857 0
-1218 -1858 0
-1219 -1859 0
-1220 -1860 0
-1217 -2585 0
-1218 -2586 0
-1219 -2587 0
-1220 -2588 0
-1221 -1237 0
-1222 -1238 0
-1223 -1239 0
-1224 -1240 0
-1221 -1397 0
-1222 -1398 0
-1223 -1399 0
-1224 -1400 0
-1221 -1793 0
-1222 -1794 0
-1223 -1795 0
-1224 -1796 0
-1221 -1893 0
-1222 -1894 0
-1223 -1895 0
-1224 -1896 0
-1221 -2589 0
-1222 -2590 0
-1223 -2591 0
-1224 -2592 0
-1225 -1229 0
-1226 -1230 0
-1227 -1231 0
-1228 -1232 0
-1225 -1409 0
-1226 -1410 0
-1227 -1411 0
-1228 -1412 0
-1225 -1769 0
-1226 -1770 0
-1227 -1771 0
-1228 -1772 0
-1225 -1901 0
-1226 -1902 0
-1227 -1903 0
-1228 -1904 0
-1225 -2049 0
-1226 -2050 0
-1227 -2051 0
-1228 -2052 0
-1225 -2277 0
-1226 -2278 0
-1227 -2279 0
-1228 -2280 0
-1229 -1233 0
-1230 -1234 0
-1231 -1235 0
-1232 -1236 0
-1229 -1413 0
-1230 -1414 0
-1231 -1415 0
-1232 -1416 0
-1229 -1569 0
-1230 -1570 0
-1231 -1571 0
-1232 -1572 0
-1229 -1753 0
-1230 -1754 0
-1231 -1755 0
-1232 -1756 0
-1229 -1757 0
-1230 -1758 0
-1231 -1759 0
-1232 -1760 0
-1229 -1773 0
-1230 -1774 0
-1231 -1775 0
-1232 -1776 0
-1229 -1777 0
-1230 -1778 0
-1231 -1779 0
-1232 -1780 0
-1229 -1849 0
-1230 -1850 0
-1231 -1851 0
-1232 -1852 0
-1229 -1905 0
-1230 -1906 0
-1231 -1907 0
-1232 -1908 0
-1229 -2045 0
-1230 -2046 0
-1231 -2047 0
-1232 -2048 0
-1233 -1417 0
-1234 -1418 0
-1235 -1419 0
-1236 -1420 0
-1233 -1749 0
-1234 -1750 0
-1235 -1751 0
-1236 -1752 0
-1233 -1825 0
-1234 -1826 0
-1235 -1827 0
-1236 -1828 0
-1237 -1241 0
-1238 -1242 0
-1239 -1243 0
-1240 -1244 0
-1237 -1245 0
-1238 -1246 0
-1239 -1247 0
-1240 -1248 0
-1237 -1425 0
-1238 -1426 0
-1239 -1427 0
-1240 -1428 0
-1237 -1909 0
-1238 -1910 0
-1239 -1911 0
-1240 -1912 0
-1241 -1249 0
-1242 -1250 0
-1243 -1251 0
-1244 -1252 0
-1241 -2613 0
-1242 -2614 0
-1243 -2615 0
-1244 -2616 0
-1245 -1249 0
-1246 -1250 0
-1247 -1251 0
-1248 -1252 0
-1249 -1441 0
-1250 -1442 0
-1251 -1443 0
-1252 -1444 0
-1253 -1317 0
-1254 -1318 0
-1255 -1319 0
-1256 -1320 0
-1253 -1493 0
-1254 -1494 0
-1255 -1495 0
-1256 -1496 0
-1253 -1761 0
-1254 -1762 0
-1255 -1763 0
-1256 -1764 0
-1257 -1517 0
-1258 -1518 0
-1259 -1519 0
-1260 -1520 0
-1257 -1533 0
-1258 -1534 0
-1259 -1535 0
-1260 -1536 0
-1257 -1669 0
-1258 -1670 0
-1259 -1671 0
-1260 -1672 0
-1257 -1769 0
-1258 -1770 0
-1259 -1771 0
-1260 -1772 0
-1257 -2661 0
-1258 -2662 0
-1259 -2663 0
-1260 -2664 0
-1261 -1925 0
-1262 -1926 0
-1263 -1927 0
-1264 -1928 0
-1261 -2621 0
-1262 -2622 0
-1263 -2623 0
-1264 -2624 0
-1265 -2241 0
-1266 -2242 0
-1267 -2243 0
-1268 -2244 0
-1265 -2293 0
-1266 -2294 0
-1267 -2295 0
-1268 -2296 0
-1265 -2469 0
-1266 -2470 0
-1267 -2471 0
-1268 -2472 0
-1269 -1993 0
-1270 -1994 0
-1271 -1995 0
-1272 -1996 0
-1269 -2065 0
-1270 -2066 0
-1271 -2067 0
-1272 -2068 0
-1273 -1973 0
-1274 -1974 0
-1275 -1975 0
-1276 -1976 0
-1273 -2469 0
-1274 -2470 0
-1275 -2471 0
-1276 -2472 0
-1273 -2569 0
-1274 -2570 0
-1275 -2571 0
-1276 -2572 0
-1273 -2621 0
-1274 -2622 0
-1275 -2623 0
-1276 -2624 0
-1277 -2661 0
-1278 -2662 0
-1279 -2663 0
-1280 -2664 0
-1281 -1285 0
-1282 -1286 0
-1283 -1287 0
-1284 -1288 0
-1281 -1301 0
-1282 -1302 0
-1283 -1303 0
-1284 -1304 0
-1281 -1705 0
-1282 -1706 0
-1283 -1707 0
-1284 -1708 0
-1281 -1713 0
-1282 -1714 0
-1283 -1715 0
-1284 -1716 0
-1281 -1925 0
-1282 -1926 0
-1283 -1927 0
-1284 -1928 0
-1285 -1365 0
-1286 -1366 0
-1287 -1367 0
-1288 -1368 0
-1285 -1845 0
-1286 -1846 0
-1287 -1847 0
-1288 -1848 0
-1285 -1849 0
-1286 -1850 0
-1287 -1851 0
-1288 -1852 0
-1289 -1293 0
-1290 -1294 0
-1291 -1295 0
-1292 -1296 0
-1289 -1305 0
-1290 -1306 0
-1291 -1307 0
-1292 -1308 0
-1289 -1369 0
-1290 -1370 0
-1291 -1371 0
-1292 -1372 0
-1289 -1409 0
-1290 -1410 0
-1291 -1411 0
-1292 -1412 0
-1289 -1681 0
-1290 -1682 0
-1291 -1683 0
-1292 -1684 0
-1289 -1705 0
-1290 -1706 0
-1291 -1707 0
-1292 -1708 0
-1289 -1845 0
-1290 -1846 0
-1291 -1847 0
-1292 -1848 0
-1293 -1309 0
-1294 -1310 0
-1295 -1311 0
-1296 -1312 0
-1293 -1373 0
-1294 -1374 0
-1295 -1375 0
-1296 -1376 0
-1293 -1429 0
-1294 -1430 0
-1295 -1431 0
-1296 -1432 0
-1293 -1685 0
-1294 -1686 0
-1295 -1687 0
-1296 -1688 0
-1293 -1713 0
-1294 -1714 0
-1295 -1715 0
-1296 -1716 0
-1293 -1849 0
-1294 -1850 0
-1295 -1851 0
-1296 -1852 0
-1297 -1301 0
-1298 -1302 0
-1299 -1303 0
-1300 -1304 0
-1297 -1369 0
-1298 -1370 0
-1299 -1371 0
-1300 -1372 0
-1297 -1649 0
-1298 -1650 0
-1299 -1651 0
-1300 -1652 0
-1301 -1485 0
-1302 -1486 0
-1303 -1487 0
-1304 -1488 0
-1301 -1641 0
-1302 -1642 0
-1303 -1643 0
-1304 -1644 0
-1305 -1309 0
-1306 -1310 0
-1307 -1311 0
-1308 -1312 0
-1305 -2129 0
-1306 -2130 0
-1307 -2131 0
-1308 -2132 0
-1309 -1313 0
-1310 -1314 0
-1311 -1315 0
-1312 -1316 0
-1309 -1325 0
-1310 -1326 0
-1311 -1327 0
-1312 -1328 0
-1309 -1345 0
-1310 -1346 0
-1311 -1347 0
-1312 -1348 0
-1309 -1429 0
-1310 -1430 0
-1311 -1431 0
-1312 -1432 0
-1309 -1649 0
-1310 -1650 0
-1311 -1651 0
-1312 -1652 0
-1313 -1329 0
-1314 -1330 0
-1315 -1331 0
-1316 -1332 0
-1313 -1341 0
-1314 -1342 0
-1315 -1343 0
-1316 -1344 0
-1313 -1369 0
-1314 -1370 0
-1315 -1371 0
-1316 -1372 0
-1313 -1489 0
-1314 -1490 0
-1315 -1491 0
-1316 -1492 0
-1317 -1853 0
-1318 -1854 0
-1319 -1855 0
-1320 -1856 0
-1321 -1345 0
-1322 -1346 0
-1323 -1347 0
-1324 -1348 0
-1321 -1681 0
-1322 -1682 0
-1323 -1683 0
-1324 -1684 0
-1321 -2693 0
-1322 -2694 0
-1323 -2695 0
-1324 -2696 0
-1325 -1329 0
-1326 -1330 0
-1327 -1331 0
-1328 -1332 0
-1325 -1349 0
-1326 -1350 0
-1327 -1351 0
-1328 -1352 0
-1325 -1497 0
-1326 -1498 0
-1327 -1499 0
-1328 -1500 0
-1325 -1693 0
-1326 -1694 0
-1327 -1695 0
-1328 -1696 0
-1325 -2293 0
-1326 -2294 0
-1327 -2295 0
-1328 -2296 0
-1329 -1685 0
-1330 -1686 0
-1331 -1687 0
-1332 -1688 0
-1329 -2469 0
-1330 -2470 0
-1331 -2471 0
-1332 -2472 0
-1333 -1337 0
-1334 -1338 0
-1335 -1339 0
-1336 -1340 0
-1333 -1353 0
-1334 -1354 0
-1335 -1355 0
-1336 -1356 0
-1333 -1501 0
-1334 -1502 0
-1335 -1503 0
-1336 -1504 0
-1333 -1697 0
-1334 -1698 0
-1335 -1699 0
-1336 -1700 0
-1333 -1845 0
-1334 -1846 0
-1335 -1847 0
-1336 -1848 0
-1333 -2241 0
-1334 -2242 0
-1335 -2243 0
-1336 -2244 0
-1337 -1357 0
-1338 -1358 0
-1339 -1359 0
-1340 -1360 0
-1337 -1505 0
-1338 -1506 0
-1339 -1507 0
-1340 -1508 0
-1337 -1689 0
-1338 -1690 0
-1339 -1691 0
-1340 -1692 0
-1337 -1845 0
-1338 -1846 0
-1339 -1847 0
-1340 -1848 0
-1337 -2697 0
-1338 -2698 0
-1339 -2699 0
-1340 -2700 0
-1341 -1345 0
-1342 -1346 0
-1343 -1347 0
-1344 -1348 0
-1341 -1369 0
-1342 -1370 0
-1343 -1371 0
-1344 -1372 0
-1341 -1509 0
-1342 -1510 0
-1343 -1511 0
-1344 -1512 0
-1345 -1469 0
-1346 -1470 0
-1347 -1471 0
-1348 -1472 0
-1345 -1649 0
-1346 -1650 0
-1347 -1651 0
-1348 -1652 0
-1345 -2329 0
-1346 -2330 0
-1347 -2331 0
-1348 -2332 0
-1353 -1357 0
-1354 -1358 0
-1355 -1359 0
-1356 -1360 0
-1353 -1661 0
-1354 -1662 0
-1355 -1663 0
-1356 -1664 0
-1353 -1665 0
-1354 -1666 0
-1355 -1667 0
-1356 -1668 0
-1353 -1869 0
-1354 -1870 0
-1355 -1871 0
-1356 -1872 0
-1353 -1881 0
-1354 -1882 0
-1355 -1883 0
-1356 -1884 0
-1357 -1517 0
-1358 -1518 0
-1359 -1519 0
-1360 -1520 0
-1357 -1873 0
-1358 -1874 0
-1359 -1875 0
-1360 -1876 0
-1357 -1885 0
-1358 -1886 0
-1359 -1887 0
-1360 -1888 0
-1369 -1373 0
-1370 -1374 0
-1371 -1375 0
-1372 -1376 0
-1369 -1393 0
-1370 -1394 0
-1371 -1395 0
-1372 -1396 0
-1369 -1409 0
-1370 -1410 0
-1371 -1411 0
-1372 -1412 0
-1369 -1637 0
-1370 -1638 0
-1371 -1639 0
-1372 -1640 0
-1369 -1649 0
-1370 -1650 0
-1371 -1651 0
-1372 -1652 0
-1369 -1653 0
-1370 -1654 0
-1371 -1655 0
-1372 -1656 0
-1369 -1973 0
-1370 -1974 0
-1371 -1975 0
-1372 -1976 0
-1373 -1529 0
-1374 -1530 0
-1375 -1531 0
-1376 -1532 0
-1373 -1661 0
-1374 -1662 0
-1375 -1663 0
-1376 -1664 0
-1373 -1889 0
-1374 -1890 0
-1375 -1891 0
-1376 -1892 0
-1373 -2553 0
-1374 -2554 0
-1375 -2555 0
-1376 -2556 0
-1377 -1433 0
-1378 -1434 0
-1379 -1435 0
-1380 -1436 0
-1377 -1853 0
-1378 -1854 0
-1379 -1855 0
-1380 -1856 0
-1377 -2329 0
-1378 -2330 0
-1379 -2331 0
-1380 -2332 0
-1381 -1385 0
-1382 -1386 0
-1383 -1387 0
-1384 -1388 0
-1381 -1413 0
-1382 -1414 0
-1383 -1415 0
-1384 -1416 0
-1381 -1469 0
-1382 -1470 0
-1383 -1471 0
-1384 -1472 0
-1381 -1673 0
-1382 -1674 0
-1383 -1675 0
-1384 -1676 0
-1381 -1701 0
-1382 -1702 0
-1383 -1703 0
-1384 -1704 0
-1385 -1389 0
-1386 -1390 0
-1387 -1391 0
-1388 -1392 0
-1385 -1417 0
-1386 -1418 0
-1387 -1419 0
-1388 -1420 0
-1385 -1509 0
-1386 -1510 0
-1387 -1511 0
-1388 -1512 0
-1385 -1653 0
-1386 -1654 0
-1387 -1655 0
-1388 -1656 0
-1389 -1393 0
-1390 -1394 0
-1391 -1395 0
-1392 -1396 0
-1389 -1513 0
-1390 -1514 0
-1391 -1515 0
-1392 -1516 0
-1389 -1649 0
-1390 -1650 0
-1391 -1651 0
-1392 -1652 0
-1389 -1661 0
-1390 -1662 0
-1391 -1663 0
-1392 -1664 0
-1389 -1693 0
-1390 -1694 0
-1391 -1695 0
-1392 -1696 0
-1393 -1421 0
-1394 -1422 0
-1395 -1423 0
-1396 -1424 0
-1393 -1445 0
-1394 -1446 0
-1395 -1447 0
-1396 -1448 0
-1393 -2569 0
-1394 -2570 0
-1395 -2571 0
-1396 -2572 0
-1397 -1401 0
-1398 -1402 0
-1399 -1403 0
-1400 -1404 0
-1397 -1425 0
-1398 -1426 0
-1399 -1427 0
-1400 -1428 0
-1397 -1429 0
-1398 -1430 0
-1399 -1431 0
-1400 -1432 0
-1397 -1445 0
-1398 -1446 0
-1399 -1447 0
-1400 -1448 0
-1397 -1453 0
-1398 -1454 0
-1399 -1455 0
-1400 -1456 0
-1401 -1429 0
-1402 -1430 0
-1403 -1431 0
-1404 -1432 0
-1401 -1677 0
-1402 -1678 0
-1403 -1679 0
-1404 -1680 0
-1409 -1413 0
-1410 -1414 0
-1411 -1415 0
-1412 -1416 0
-1409 -2277 0
-1410 -2278 0
-1411 -2279 0
-1412 -2280 0
-1413 -1417 0
-1414 -1418 0
-1415 -1419 0
-1416 -1420 0
-1413 -1429 0
-1414 -1430 0
-1415 -1431 0
-1416 -1432 0
-1413 -1649 0
-1414 -1650 0
-1415 -1651 0
-1416 -1652 0
-1413 -1673 0
-1414 -1674 0
-1415 -1675 0
-1416 -1676 0
-1413 -1681 0
-1414 -1682 0
-1415 -1683 0
-1416 -1684 0
-1413 -1833 0
-1414 -1834 0
-1415 -1835 0
-1416 -1836 0
-1417 -1489 0
-1418 -1490 0
-1419 -1491 0
-1420 -1492 0
-1417 -1549 0
-1418 -1550 0
-1419 -1551 0
-1420 -1552 0
-1417 -1637 0
-1418 -1638 0
-1419 -1639 0
-1420 -1640 0
-1417 -1645 0
-1418 -1646 0
-1419 -1647 0
-1420 -1648 0
-1417 -1705 0
-1418 -1706 0
-1419 -1707 0
-1420 -1708 0
-1417 -1993 0
-1418 -1994 0
-1419 -1995 0
-1420 -1996 0
-1421 -1437 0
-1422 -1438 0
-1423 -1439 0
-1424 -1440 0
-1421 -1557 0
-1422 -1558 0
-1423 -1559 0
-1424 -1560 0
-1421 -1685 0
-1422 -1686 0
-1423 -1687 0
-1424 -1688 0
-1425 -1453 0
-1426 -1454 0
-1427 -1455 0
-1428 -1456 0
-1425 -1877 0
-1426 -1878 0
-1427 -1879 0
-1428 -1880 0
-1425 -2001 0
-1426 -2002 0
-1427 -2003 0
-1428 -2004 0
-1429 -1641 0
-1430 -1642 0
-1431 -1643 0
-1432 -1644 0
-1429 -1833 0
-1430 -1834 0
-1431 -1835 0
-1432 -1836 0
-1433 -1437 0
-1434 -1438 0
-1435 -1439 0
-1436 -1440 0
-1433 -1569 0
-1434 -1570 0
-1435 -1571 0
-1436 -1572 0
-1433 -1837 0
-1434 -1838 0
-1435 -1839 0
-1436 -1840 0
-1433 -1849 0
-1434 -1850 0
-1435 -1851 0
-1436 -1852 0
-1433 -1857 0
-1434 -1858 0
-1435 -1859 0
-1436 -1860 0
-1437 -1973 0
-1438 -1974 0
-1439 -1975 0
-1440 -1976 0
-1441 -1445 0
-1442 -1446 0
-1443 -1447 0
-1444 -1448 0
-1441 -1573 0
-1442 -1574 0
-1443 -1575 0
-1444 -1576 0
-1441 -1977 0
-1442 -1978 0
-1443 -1979 0
-1444 -1980 0
-1445 -1461 0
-1446 -1462 0
-1447 -1463 0
-1448 -1464 0
-1445 -1577 0
-1446 -1578 0
-1447 -1579 0
-1448 -1580 0
-1445 -1981 0
-1446 -1982 0
-1447 -1983 0
-1448 -1984 0
-1449 -1853 0
-1450 -1854 0
-1451 -1855 0
-1452 -1856 0
-1453 -1461 0
-1454 -1462 0
-1455 -1463 0
-1456 -1464 0
-1453 -1665 0
-1454 -1666 0
-1455 -1667 0
-1456 -1668 0
-1453 -1677 0
-1454 -1678 0
-1455 -1679 0
-1456 -1680 0
-1453 -1833 0
-1454 -1834 0
-1455 -1835 0
-1456 -1836 0
-1453 -2065 0
-1454 -2066 0
-1455 -2067 0
-1456 -2068 0
-1461 -1593 0
-1462 -1594 0
-1463 -1595 0
-1464 -1596 0
-1465 -1661 0
-1466 -1662 0
-1467 -1663 0
-1468 -1664 0
-1469 -1481 0
-1470 -1482 0
-1471 -1483 0
-1472 -1484 0
-1469 -1649 0
-1470 -1650 0
-1471 -1651 0
-1472 -1652 0
-1469 -1657 0
-1470 -1658 0
-1471 -1659 0
-1472 -1660 0
-1469 -1701 0
-1470 -1702 0
-1471 -1703 0
-1472 -1704 0
-1473 -2405 0
-1474 -2406 0
-1475 -2407 0
-1476 -2408 0
-1473 -2409 0
-1474 -2410 0
-1475 -2411 0
-1476 -2412 0
-1473 -2445 0
-1474 -2446 0
-1475 -2447 0
-1476 -2448 0
-1477 -2065 0
-1478 -2066 0
-1479 -2067 0
-1480 -2068 0
-1477 -2137 0
-1478 -2138 0
-1479 -2139 0
-1480 -2140 0
-1477 -2573 0
-1478 -2574 0
-1479 -2575 0
-1480 -2576 0
-1481 -2353 0
-1482 -2354 0
-1483 -2355 0
-1484 -2356 0
-1481 -2477 0
-1482 -2478 0
-1483 -2479 0
-1484 -2480 0
-1481 -2573 0
-1482 -2574 0
-1483 -2575 0
-1484 -2576 0
-1481 -2757 0
-1482 -2758 0
-1483 -2759 0
-1484 -2760 0
-1485 -1493 0
-1486 -1494 0
-1487 -1495 0
-1488 -1496 0
-1489 -1509 0
-1490 -1510 0
-1491 -1511 0
-1492 -1512 0
-1489 -1541 0
-1490 -1542 0
-1491 -1543 0
-1492 -1544 0
-1489 -1993 0
-1490 -1994 0
-1491 -1995 0
-1492 -1996 0
-1497 -1765 0
-1498 -1766 0
-1499 -1767 0
-1500 -1768 0
-1497 -2293 0
-1498 -2294 0
-1499 -2295 0
-1500 -2296 0
-1501 -1505 0
-1502 -1506 0
-1503 -1507 0
-1504 -1508 0
-1501 -1605 0
-1502 -1606 0
-1503 -1607 0
-1504 -1608 0
-1501 -1757 0
-1502 -1758 0
-1503 -1759 0
-1504 -1760 0
-1501 -2241 0
-1502 -2242 0
-1503 -2243 0
-1504 -2244 0
-1505 -1517 0
-1506 -1518 0
-1507 -1519 0
-1508 -1520 0
-1505 -1757 0
-1506 -1758 0
-1507 -1759 0
-1508 -1760 0
-1509 -1513 0
-1510 -1514 0
-1511 -1515 0
-1512 -1516 0
-1509 -1521 0
-1510 -1522 0
-1511 -1523 0
-1512 -1524 0
-1513 -1529 0
-1514 -1530 0
-1515 -1531 0
-1516 -1532 0
-1517 -1801 0
-1518 -1802 0
-1519 -1803 0
-1520 -1804 0
-1517 -1813 0
-1518 -1814 0
-1519 -1815 0
-1520 -1816 0
-1517 -2409 0
-1518 -2410 0
-1519 -2411 0
-1520 -2412 0
-1521 -1653 0
-1522 -1654 0
-1523 -1655 0
-1524 -1656 0
-1525 -1529 0
-1526 -1530 0
-1527 -1531 0
-1528 -1532 0
-1525 -2757 0
-1526 -2758 0
-1527 -2759 0
-1528 -2760 0
-1529 -1701 0
-1530 -1702 0
-1531 -1703 0
-1532 -1704 0
-1529 -1805 0
-1530 -1806 0
-1531 -1807 0
-1532 -1808 0
-1529 -1817 0
-1530 -1818 0
-1531 -1819 0
-1532 -1820 0
-1529 -2573 0
-1530 -2574 0
-1531 -2575 0
-1532 -2576 0
-1533 -1677 0
-1534 -1678 0
-1535 -1679 0
-1536 -1680 0
-1537 -1541 0
-1538 -1542 0
-1539 -1543 0
-1540 -1544 0
-1537 -1681 0
-1538 -1682 0
-1539 -1683 0
-1540 -1684 0
-1541 -1561 0
-1542 -1562 0
-1543 -1563 0
-1544 -1564 0
-1541 -1565 0
-1542 -1566 0
-1543 -1567 0
-1544 -1568 0
-1541 -1761 0
-1542 -1762 0
-1543 -1763 0
-1544 -1764 0
-1545 -1589 0
-1546 -1590 0
-1547 -1591 0
-1548 -1592 0
-1545 -1689 0
-1546 -1690 0
-1547 -1691 0
-1548 -1692 0
-1545 -2193 0
-1546 -2194 0
-1547 -2195 0
-1548 -2196 0
-1549 -1553 0
-1550 -1554 0
-1551 -1555 0
-1552 -1556 0
-1549 -1565 0
-1550 -1566 0
-1551 -1567 0
-1552 -1568 0
-1549 -1993 0
-1550 -1994 0
-1551 -1995 0
-1552 -1996 0
-1553 -1557 0
-1554 -1558 0
-1555 -1559 0
-1556 -1560 0
-1553 -1569 0
-1554 -1570 0
-1555 -1571 0
-1556 -1572 0
-1553 -1657 0
-1554 -1658 0
-1555 -1659 0
-1556 -1660 0
-1553 -1745 0
-1554 -1746 0
-1555 -1747 0
-1556 -1748 0
-1553 -1773 0
-1554 -1774 0
-1555 -1775 0
-1556 -1776 0
-1553 -1817 0
-1554 -1818 0
-1555 -1819 0
-1556 -1820 0
-1557 -1653 0
-1558 -1654 0
-1559 -1655 0
-1560 -1656 0
-1557 -1749 0
-1558 -1750 0
-1559 -1751 0
-1560 -1752 0
-1557 -1769 0
-1558 -1770 0
-1559 -1771 0
-1560 -1772 0
-1557 -1805 0
-1558 -1806 0
-1559 -1807 0
-1560 -1808 0
-1557 -2641 0
-1558 -2642 0
-1559 -2643 0
-1560 -2644 0
-1561 -1573 0
-1562 -1574 0
-1563 -1575 0
-1564 -1576 0
-1565 -1569 0
-1566 -1570 0
-1567 -1571 0
-1568 -1572 0
-1565 -1757 0
-1566 -1758 0
-1567 -1759 0
-1568 -1760 0
-1569 -1649 0
-1570 -1650 0
-1571 -1651 0
-1572 -1652 0
-1569 -1745 0
-1570 -1746 0
-1571 -1747 0
-1572 -1748 0
-1569 -1777 0
-1570 -1778 0
-1571 -1779 0
-1572 -1780 0
-1569 -1829 0
-1570 -1830 0
-1571 -1831 0
-1572 -1832 0
-1573 -1577 0
-1574 -1578 0
-1575 -1579 0
-1576 -1580 0
-1573 -1977 0
-1574 -1978 0
-1575 -1979 0
-1576 -1980 0
-1573 -2201 0
-1574 -2202 0
-1575 -2203 0
-1576 -2204 0
-1577 -1581 0
-1578 -1582 0
-1579 -1583 0
-1580 -1584 0
-1577 -1593 0
-1578 -1594 0
-1579 -1595 0
-1580 -1596 0
-1577 -1981 0
-1578 -1982 0
-1579 -1983 0
-1580 -1984 0
-1577 -2205 0
-1578 -2206 0
-1579 -2207 0
-1580 -2208 0
-1581 -1585 0
-1582 -1586 0
-1583 -1587 0
-1584 -1588 0
-1581 -1985 0
-1582 -1986 0
-1583 -1987 0
-1584 -1988 0
-1581 -2209 0
-1582 -2210 0
-1583 -2211 0
-1584 -2212 0
-1585 -1589 0
-1586 -1590 0
-1587 -1591 0
-1588 -1592 0
-1585 -1797 0
-1586 -1798 0
-1587 -1799 0
-1588 -1800 0
-1585 -1989 0
-1586 -1990 0
-1587 -1991 0
-1588 -1992 0
-1589 -1801 0
-1590 -1802 0
-1591 -1803 0
-1592 -1804 0
-1601 -1753 0
-1602 -1754 0
-1603 -1755 0
-1604 -1756 0
-1601 -1757 0
-1602 -1758 0
-1603 -1759 0
-1604 -1760 0
-1601 -1769 0
-1602 -1770 0
-1603 -1771 0
-1604 -1772 0
-1605 -1625 0
-1606 -1626 0
-1607 -1627 0
-1608 -1628 0
-1605 -1773 0
-1606 -1774 0
-1607 -1775 0
-1608 -1776 0
-1609 -1725 0
-1610 -1726 0
-1611 -1727 0
-1612 -1728 0
-1609 -2521 0
-1610 -2522 0
-1611 -2523 0
-1612 -2524 0
-1609 -2529 0
-1610 -2530 0
-1611 -2531 0
-1612 -2532 0
-1609 -2641 0
-1610 -2642 0
-1611 -2643 0
-1612 -2644 0
-1613 -1617 0
-1614 -1618 0
-1615 -1619 0
-1616 -1620 0
-1613 -1625 0
-1614 -1626 0
-1615 -1627 0
-1616 -1628 0
-1613 -1993 0
-1614 -1994 0
-1615 -1995 0
-1616 -1996 0
-1613 -2025 0
-1614 -2026 0
-1615 -2027 0
-1616 -2028 0
-1613 -2409 0
-1614 -2410 0
-1615 -2411 0
-1616 -2412 0
-1613 -2413 0
-1614 -2414 0
-1615 -2415 0
-1616 -2416 0
-1613 -2641 0
-1614 -2642 0
-1615 -2643 0
-1616 -2644 0
-1613 -2777 0
-1614 -2778 0
-1615 -2779 0
-1616 -2780 0
-1617 -2069 0
-1618 -2070 0
-1619 -2071 0
-1620 -2072 0
-1617 -2353 0
-1618 -2354 0
-1619 -2355 0
-1620 -2356 0
-1621 -1625 0
-1622 -1626 0
-1623 -1627 0
-1624 -1628 0
-1621 -2085 0
-1622 -2086 0
-1623 -2087 0
-1624 -2088 0
-1621 -2417 0
-1622 -2418 0
-1623 -2419 0
-1624 -2420 0
-1621 -2421 0
-1622 -2422 0
-1623 -2423 0
-1624 -2424 0
-1621 -2781 0
-1622 -2782 0
-1623 -2783 0
-1624 -2784 0
-1625 -2005 0
-1626 -2006 0
-1627 -2007 0
-1628 -2008 0
-1625 -2029 0
-1626 -2030 0
-1627 -2031 0
-1628 -2032 0
-1625 -2297 0
-1626 -2298 0
-1627 -2299 0
-1628 -2300 0
-1625 -2529 0
-1626 -2530 0
-1627 -2531 0
-1628 -2532 0
-1625 -2573 0
-1626 -2574 0
-1627 -2575 0
-1628 -2576 0
-1629 -2361 0
-1630 -2362 0
-1631 -2363 0
-1632 -2364 0
-1629 -2413 0
-1630 -2414 0
-1631 -2415 0
-1632 -2416 0
-1629 -2421 0
-1630 -2422 0
-1631 -2423 0
-1632 -2424 0
-1629 -2521 0
-1630 -2522 0
-1631 -2523 0
-1632 -2524 0
-1633 -1637 0
-1634 -1638 0
-1635 -1639 0
-1636 -1640 0
-1633 -1649 0
-1634 -1650 0
-1635 -1651 0
-1636 -1652 0
-1633 -1657 0
-1634 -1658 0
-1635 -1659 0
-1636 -1660 0
-1633 -1745 0
-1634 -1746 0
-1635 -1747 0
-1636 -1748 0
-1633 -1905 0
-1634 -1906 0
-1635 -1907 0
-1636 -1908 0
-1637 -1653 0
-1638 -1654 0
-1639 -1655 0
-1640 -1656 0
-1637 -1705 0
-1638 -1706 0
-1639 -1707 0
-1640 -1708 0
-1637 -1749 0
-1638 -1750 0
-1639 -1751 0
-1640 -1752 0
-1637 -1889 0
-1638 -1890 0
-1639 -1891 0
-1640 -1892 0
-1637 -1901 0
-1638 -1902 0
-1639 -1903 0
-1640 -1904 0
-1645 -1649 0
-1646 -1650 0
-1647 -1651 0
-1648 -1652 0
-1649 -1657 0
-1650 -1658 0
-1651 -1659 0
-1652 -1660 0
-1649 -1681 0
-1650 -1682 0
-1651 -1683 0
-1652 -1684 0
-1649 -1693 0
-1650 -1694 0
-1651 -1695 0
-1652 -1696 0
-1653 -1657 0
-1654 -1658 0
-1655 -1659 0
-1656 -1660 0
-1653 -1661 0
-1654 -1662 0
-1655 -1663 0
-1656 -1664 0
-1653 -2641 0
-1654 -2642 0
-1655 -2643 0
-1656 -2644 0
-1657 -1673 0
-1658 -1674 0
-1659 -1675 0
-1660 -1676 0
-1661 -1889 0
-1662 -1890 0
-1663 -1891 0
-1664 -1892 0
-1661 -2529 0
-1662 -2530 0
-1663 -2531 0
-1664 -2532 0
-1665 -1669 0
-1666 -1670 0
-1667 -1671 0
-1668 -1672 0
-1665 -1877 0
-1666 -1878 0
-1667 -1879 0
-1668 -1880 0
-1665 -1893 0
-1666 -1894 0
-1667 -1895 0
-1668 -1896 0
-1665 -2521 0
-1666 -2522 0
-1667 -2523 0
-1668 -2524 0
-1669 -1677 0
-1670 -1678 0
-1671 -1679 0
-1672 -1680 0
-1669 -1885 0
-1670 -1886 0
-1671 -1887 0
-1672 -1888 0
-1669 -1897 0
-1670 -1898 0
-1671 -1899 0
-1672 -1900 0
-1673 -1773 0
-1674 -1774 0
-1675 -1775 0
-1676 -1776 0
-1677 -1833 0
-1678 -1834 0
-1679 -1835 0
-1680 -1836 0
-1681 -1717 0
-1682 -1718 0
-1683 -1719 0
-1684 -1720 0
-1681 -1777 0
-1682 -1778 0
-1683 -1779 0
-1684 -1780 0
-1681 -2069 0
-1682 -2070 0
-1683 -2071 0
-1684 -2072 0
-1685 -1709 0
-1686 -1710 0
-1687 -1711 0
-1688 -1712 0
-1685 -1781 0
-1686 -1782 0
-1687 -1783 0
-1688 -1784 0
-1685 -1857 0
-1686 -1858 0
-1687 -1859 0
-1688 -1860 0
-1685 -2085 0
-1686 -2086 0
-1687 -2087 0
-1688 -2088 0
-1689 -1789 0
-1690 -1790 0
-1691 -1791 0
-1692 -1792 0
-1689 -1885 0
-1690 -1886 0
-1691 -1887 0
-1692 -1888 0
-1689 -2193 0
-1690 -2194 0
-1691 -2195 0
-1692 -2196 0
-1689 -2385 0
-1690 -2386 0
-1691 -2387 0
-1692 -2388 0
-1693 -2357 0
-1694 -2358 0
-1695 -2359 0
-1696 -2360 0
-1693 -2477 0
-1694 -2478 0
-1695 -2479 0
-1696 -2480 0
-1697 -1705 0
-1698 -1706 0
-1699 -1707 0
-1700 -1708 0
-1697 -1797 0
-1698 -1798 0
-1699 -1799 0
-1700 -1800 0
-1697 -2365 0
-1698 -2366 0
-1699 -2367 0
-1700 -2368 0
-1701 -2573 0
-1702 -2574 0
-1703 -2575 0
-1704 -2576 0
-1705 -1713 0
-1706 -1714 0
-1707 -1715 0
-1708 -1716 0
-1705 -1825 0
-1706 -1826 0
-1707 -1827 0
-1708 -1828 0
-1705 -1845 0
-1706 -1846 0
-1707 -1847 0
-1708 -1848 0
-1705 -2025 0
-1706 -2026 0
-1707 -2027 0
-1708 -2028 0
-1705 -2197 0
-1706 -2198 0
-1707 -2199 0
-1708 -2200 0
-1709 -1713 0
-1710 -1714 0
-1711 -1715 0
-1712 -1716 0
-1709 -1901 0
-1710 -1902 0
-1711 -1903 0
-1712 -1904 0
-1713 -1773 0
-1714 -1774 0
-1715 -1775 0
-1716 -1776 0
-1713 -1833 0
-1714 -1834 0
-1715 -1835 0
-1716 -1836 0
-1713 -1849 0
-1714 -1850 0
-1715 -1851 0
-1716 -1852 0
-1713 -1889 0
-1714 -1890 0
-1715 -1891 0
-1716 -1892 0
-1713 -2029 0
-1714 -2030 0
-1715 -2031 0
-1716 -2032 0
-1717 -1833 0
-1718 -1834 0
-1719 -1835 0
-1720 -1836 0
-1717 -1845 0
-1718 -1846 0
-1719 -1847 0
-1720 -1848 0
-1721 -2225 0
-1722 -2226 0
-1723 -2227 0
-1724 -2228 0
-1725 -2653 0
-1726 -2654 0
-1727 -2655 0
-1728 -2656 0
-1729 -1733 0
-1730 -1734 0
-1731 -1735 0
-1732 -1736 0
-1729 -1737 0
-1730 -1738 0
-1731 -1739 0
-1732 -1740 0
-1729 -1933 0
-1730 -1934 0
-1731 -1935 0
-1732 -1936 0
-1729 -2085 0
-1730 -2086 0
-1731 -2087 0
-1732 -2088 0
-1729 -2533 0
-1730 -2534 0
-1731 -2535 0
-1732 -2536 0
-1729 -2537 0
-1730 -2538 0
-1731 -2539 0
-1732 -2540 0
-1733 -1829 0
-1734 -1830 0
-1735 -1831 0
-1736 -1832 0
-1733 -2029 0
-1734 -2030 0
-1735 -2031 0
-1736 -2032 0
-1733 -2225 0
-1734 -2226 0
-1735 -2227 0
-1736 -2228 0
-1733 -2373 0
-1734 -2374 0
-1735 -2375 0
-1736 -2376 0
-1733 -2521 0
-1734 -2522 0
-1735 -2523 0
-1736 -2524 0
-1733 -2801 0
-1734 -2802 0
-1735 -2803 0
-1736 -2804 0
-1737 -2045 0
-1738 -2046 0
-1739 -2047 0
-1740 -2048 0
-1737 -2261 0
-1738 -2262 0
-1739 -2263 0
-1740 -2264 0
-1737 -2585 0
-1738 -2586 0
-1739 -2587 0
-1740 -2588 0
-1737 -2653 0
-1738 -2654 0
-1739 -2655 0
-1740 -2656 0
-1737 -2805 0
-1738 -2806 0
-1739 -2807 0
-1740 -2808 0
-1741 -2421 0
-1742 -2422 0
-1743 -2423 0
-1744 -2424 0
-1741 -2521 0
-1742 -2522 0
-1743 -2523 0
-1744 -2524 0
-1745 -1749 0
-1746 -1750 0
-1747 -1751 0
-1748 -1752 0
-1745 -1821 0
-1746 -1822 0
-1747 -1823 0
-1748 -1824 0
-1745 -1829 0
-1746 -1830 0
-1747 -1831 0
-1748 -1832 0
-1745 -1837 0
-1746 -1838 0
-1747 -1839 0
-1748 -1840 0
-1749 -1753 0
-1750 -1754 0
-1751 -1755 0
-1752 -1756 0
-1749 -1825 0
-1750 -1826 0
-1751 -1827 0
-1752 -1828 0
-1753 -1841 0
-1754 -1842 0
-1755 -1843 0
-1756 -1844 0
-1753 -2297 0
-1754 -2298 0
-1755 -2299 0
-1756 -2300 0
-1753 -2805 0
-1754 -2806 0
-1755 -2807 0
-1756 -2808 0
-1757 -1845 0
-1758 -1846 0
-1759 -1847 0
-1760 -1848 0
-1761 -1765 0
-1762 -1766 0
-1763 -1767 0
-1764 -1768 0
-1761 -1853 0
-1762 -1854 0
-1763 -1855 0
-1764 -1856 0
-1761 -2301 0
-1762 -2302 0
-1763 -2303 0
-1764 -2304 0
-1769 -1773 0
-1770 -1774 0
-1771 -1775 0
-1772 -1776 0
-1769 -2777 0
-1770 -2778 0
-1771 -2779 0
-1772 -2780 0
-1773 -1817 0
-1774 -1818 0
-1775 -1819 0
-1776 -1820 0
-1773 -2029 0
-1774 -2030 0
-1775 -2031 0
-1776 -2032 0
-1777 -1809 0
-1778 -1810 0
-1779 -1811 0
-1780 -1812 0
-1777 -1813 0
-1778 -1814 0
-1779 -1815 0
-1780 -1816 0
-1777 -2069 0
-1778 -2070 0
-1779 -2071 0
-1780 -2072 0
-1777 -2225 0
-1778 -2226 0
-1779 -2227 0
-1780 -2228 0
-1781 -2085 0
-1782 -2086 0
-1783 -2087 0
-1784 -2088 0
-1785 -1805 0
-1786 -1806 0
-1787 -1807 0
-1788 -1808 0
-1785 -1809 0
-1786 -1810 0
-1787 -1811 0
-1788 -1812 0
-1785 -2381 0
-1786 -2382 0
-1787 -2383 0
-1788 -2384 0
-1789 -1801 0
-1790 -1802 0
-1791 -1803 0
-1792 -1804 0
-1789 -1861 0
-1790 -1862 0
-1791 -1863 0
-1792 -1864 0
-1789 -2385 0
-1790 -2386 0
-1791 -2387 0
-1792 -2388 0
-1793 -1801 0
-1794 -1802 0
-1795 -1803 0
-1796 -1804 0
-1793 -1809 0
-1794 -1810 0
-1795 -1811 0
-1796 -1812 0
-1793 -1865 0
-1794 -1866 0
-1795 -1867 0
-1796 -1868 0
-1793 -2361 0
-1794 -2362 0
-1795 -2363 0
-1796 -2364 0
-1797 -1801 0
-1798 -1802 0
-1799 -1803 0
-1800 -1804 0
-1797 -1817 0
-1798 -1818 0
-1799 -1819 0
-1800 -1820 0
-1797 -1825 0
-1798 -1826 0
-1799 -1827 0
-1800 -1828 0
-1797 -1869 0
-1798 -1870 0
-1799 -1871 0
-1800 -1872 0
-1797 -2365 0
-1798 -2366 0
-1799 -2367 0
-1800 -2368 0
-1797 -2509 0
-1798 -2510 0
-1799 -2511 0
-1800 -2512 0
-1801 -1813 0
-1802 -1814 0
-1803 -1815 0
-1804 -1816 0
-1801 -1825 0
-1802 -1826 0
-1803 -1827 0
-1804 -1828 0
-1801 -1873 0
-1802 -1874 0
-1803 -1875 0
-1804 -1876 0
-1801 -2369 0
-1802 -2370 0
-1803 -2371 0
-1804 -2372 0
-1805 -2497 0
-1806 -2498 0
-1807 -2499 0
-1808 -2500 0
-1809 -1813 0
-1810 -1814 0
-1811 -1815 0
-1812 -1816 0
-1809 -1877 0
-1810 -1878 0
-1811 -1879 0
-1812 -1880 0
-1809 -2501 0
-1810 -2502 0
-1811 -2503 0
-1812 -2504 0
-1813 -1885 0
-1814 -1886 0
-1815 -1887 0
-1816 -1888 0
-1813 -2505 0
-1814 -2506 0
-1815 -2507 0
-1816 -2508 0
-1817 -1821 0
-1818 -1822 0
-1819 -1823 0
-1820 -1824 0
-1817 -1889 0
-1818 -1890 0
-1819 -1891 0
-1820 -1892 0
-1817 -2653 0
-1818 -2654 0
-1819 -2655 0
-1820 -2656 0
-1825 -1917 0
-1826 -1918 0
-1827 -1919 0
-1828 -1920 0
-1825 -2025 0
-1826 -2026 0
-1827 -2027 0
-1828 -2028 0
-1833 -2229 0
-1834 -2230 0
-1835 -2231 0
-1836 -2232 0
-1833 -2801 0
-1834 -2802 0
-1835 -2803 0
-1836 -2804 0
-1841 -1849 0
-1842 -1850 0
-1843 -1851 0
-1844 -1852 0
-1841 -2805 0
-1842 -2806 0
-1843 -2807 0
-1844 -2808 0
-1845 -1849 0
-1846 -1850 0
-1847 -1851 0
-1848 -1852 0
-1845 -2701 0
-1846 -2702 0
-1847 -2703 0
-1848 -2704 0
-1849 -2045 0
-1850 -2046 0
-1851 -2047 0
-1852 -2048 0
-1857 -2585 0
-1858 -2586 0
-1859 -2587 0
-1860 -2588 0
-1861 -1873 0
-1862 -1874 0
-1863 -1875 0
-1864 -1876 0
-1861 -1921 0
-1862 -1922 0
-1863 -1923 0
-1864 -1924 0
-1865 -1873 0
-1866 -1874 0
-1867 -1875 0
-1868 -1876 0
-1865 -1877 0
-1866 -1878 0
-1867 -1879 0
-1868 -1880 0
-1869 -1873 0
-1870 -1874 0
-1871 -1875 0
-1872 -1876 0
-1869 -1881 0
-1870 -1882 0
-1871 -1883 0
-1872 -1884 0
-1869 -1889 0
-1870 -1890 0
-1871 -1891 0
-1872 -1892 0
-1869 -1893 0
-1870 -1894 0
-1871 -1895 0
-1872 -1896 0
-1869 -1917 0
-1870 -1918 0
-1871 -1919 0
-1872 -1920 0
-1869 -2509 0
-1870 -2510 0
-1871 -2511 0
-1872 -2512 0
-1873 -1885 0
-1874 -1886 0
-1875 -1887 0
-1876 -1888 0
-1873 -1917 0
-1874 -1918 0
-1875 -1919 0
-1876 -1920 0
-1877 -1885 0
-1878 -1886 0
-1879 -1887 0
-1880 -1888 0
-1877 -1893 0
-1878 -1894 0
-1879 -1895 0
-1880 -1896 0
-1877 -2501 0
-1878 -2502 0
-1879 -2503 0
-1880 -2504 0
-1877 -2557 0
-1878 -2558 0
-1879 -2559 0
-1880 -2560 0
-1881 -1885 0
-1882 -1886 0
-1883 -1887 0
-1884 -1888 0
-1881 -1901 0
-1882 -1902 0
-1883 -1903 0
-1884 -1904 0
-1885 -1897 0
-1886 -1898 0
-1887 -1899 0
-1888 -1900 0
-1885 -1901 0
-1886 -1902 0
-1887 -1903 0
-1888 -1904 0
-1885 -2505 0
-1886 -2506 0
-1887 -2507 0
-1888 -2508 0
-1885 -2561 0
-1886 -2562 0
-1887 -2563 0
-1888 -2564 0
-1889 -2653 0
-1890 -2654 0
-1891 -2655 0
-1892 -2656 0
-1893 -1897 0
-1894 -1898 0
-1895 -1899 0
-1896 -1900 0
-1893 -1909 0
-1894 -1910 0
-1895 -1911 0
-1896 -1912 0
-1893 -2589 0
-1894 -2590 0
-1895 -2591 0
-1896 -2592 0
-1897 -1913 0
-1898 -1914 0
-1899 -1915 0
-1900 -1916 0
-1901 -1905 0
-1902 -1906 0
-1903 -1907 0
-1904 -1908 0
-1901 -1917 0
-1902 -1918 0
-1903 -1919 0
-1904 -1920 0
-1901 -2049 0
-1902 -2050 0
-1903 -2051 0
-1904 -2052 0
-1905 -2045 0
-1906 -2046 0
-1907 -2047 0
-1908 -2048 0
-1909 -1913 0
-1910 -1914 0
-1911 -1915 0
-1912 -1916 0
-1913 -1921 0
-1914 -1922 0
-1915 -1923 0
-1916 -1924 0
-1921 -4829 0
-1922 -4830 0
-1923 -4831 0
-1924 -4832 0
-1925 -1945 0
-1926 -1946 0
-1927 -1947 0
-1928 -1948 0
-1925 -2197 0
-1926 -2198 0
-1927 -2199 0
-1928 -2200 0
-1929 -1933 0
-1930 -1934 0
-1931 -1935 0
-1932 -1936 0
-1929 -2189 0
-1930 -2190 0
-1931 -2191 0
-1932 -2192 0
-1929 -2193 0
-1930 -2194 0
-1931 -2195 0
-1932 -2196 0
-1929 -2197 0
-1930 -2198 0
-1931 -2199 0
-1932 -2200 0
-1933 -2161 0
-1934 -2162 0
-1935 -2163 0
-1936 -2164 0
-1933 -2165 0
-1934 -2166 0
-1935 -2167 0
-1936 -2168 0
-1933 -2229 0
-1934 -2230 0
-1935 -2231 0
-1936 -2232 0
-1933 -2297 0
-1934 -2298 0
-1935 -2299 0
-1936 -2300 0
-1933 -2645 0
-1934 -2646 0
-1935 -2647 0
-1936 -2648 0
-1937 -1941 0
-1938 -1942 0
-1939 -1943 0
-1940 -1944 0
-1937 -2713 0
-1938 -2714 0
-1939 -2715 0
-1940 -2716 0
-1937 -2741 0
-1938 -2742 0
-1939 -2743 0
-1940 -2744 0
-1937 -2745 0
-1938 -2746 0
-1939 -2747 0
-1940 -2748 0
-1941 -2753 0
-1942 -2754 0
-1943 -2755 0
-1944 -2756 0
-1941 -2765 0
-1942 -2766 0
-1943 -2767 0
-1944 -2768 0
-1945 -1949 0
-1946 -1950 0
-1947 -1951 0
-1948 -1952 0
-1945 -2741 0
-1946 -2742 0
-1947 -2743 0
-1948 -2744 0
-1949 -2777 0
-1950 -2778 0
-1951 -2779 0
-1952 -2780 0
-1953 -1957 0
-1954 -1958 0
-1955 -1959 0
-1956 -1960 0
-1953 -2709 0
-1954 -2710 0
-1955 -2711 0
-1956 -2712 0
-1953 -2729 0
-1954 -2730 0
-1955 -2731 0
-1956 -2732 0
-1953 -2753 0
-1954 -2754 0
-1955 -2755 0
-1956 -2756 0
-1953 -2765 0
-1954 -2766 0
-1955 -2767 0
-1956 -2768 0
-1957 -2737 0
-1958 -2738 0
-1959 -2739 0
-1960 -2740 0
-1957 -2761 0
-1958 -2762 0
-1959 -2763 0
-1960 -2764 0
-1961 -2033 0
-1962 -2034 0
-1963 -2035 0
-1964 -2036 0
-1961 -2037 0
-1962 -2038 0
-1963 -2039 0
-1964 -2040 0
-1961 -2129 0
-1962 -2130 0
-1963 -2131 0
-1964 -2132 0
-1961 -2141 0
-1962 -2142 0
-1963 -2143 0
-1964 -2144 0
-1961 -2337 0
-1962 -2338 0
-1963 -2339 0
-1964 -2340 0
-1965 -1977 0
-1966 -1978 0
-1967 -1979 0
-1968 -1980 0
-1965 -2053 0
-1966 -2054 0
-1967 -2055 0
-1968 -2056 0
-1965 -2329 0
-1966 -2330 0
-1967 -2331 0
-1968 -2332 0
-1965 -2601 0
-1966 -2602 0
-1967 -2603 0
-1968 -2604 0
-1965 -2613 0
-1966 -2614 0
-1967 -2615 0
-1968 -2616 0
-1969 -1989 0
-1970 -1990 0
-1971 -1991 0
-1972 -1992 0
-1969 -2033 0
-1970 -2034 0
-1971 -2035 0
-1972 -2036 0
-1969 -2165 0
-1970 -2166 0
-1971 -2167 0
-1972 -2168 0
-1969 -2605 0
-1970 -2606 0
-1971 -2607 0
-1972 -2608 0
-1973 -2277 0
-1974 -2278 0
-1975 -2279 0
-1976 -2280 0
-1973 -2553 0
-1974 -2554 0
-1975 -2555 0
-1976 -2556 0
-1973 -2609 0
-1974 -2610 0
-1975 -2611 0
-1976 -2612 0
-1977 -1981 0
-1978 -1982 0
-1979 -1983 0
-1980 -1984 0
-1977 -2629 0
-1978 -2630 0
-1979 -2631 0
-1980 -2632 0
-1981 -1985 0
-1982 -1986 0
-1983 -1987 0
-1984 -1988 0
-1981 -2173 0
-1982 -2174 0
-1983 -2175 0
-1984 -2176 0
-1981 -2397 0
-1982 -2398 0
-1983 -2399 0
-1984 -2400 0
-1981 -2437 0
-1982 -2438 0
-1983 -2439 0
-1984 -2440 0
-1981 -2569 0
-1982 -2570 0
-1983 -2571 0
-1984 -2572 0
-1985 -1989 0
-1986 -1990 0
-1987 -1991 0
-1988 -1992 0
-1985 -2009 0
-1986 -2010 0
-1987 -2011 0
-1988 -2012 0
-1985 -2017 0
-1986 -2018 0
-1987 -2019 0
-1988 -2020 0
-1985 -2177 0
-1986 -2178 0
-1987 -2179 0
-1988 -2180 0
-1985 -2441 0
-1986 -2442 0
-1987 -2443 0
-1988 -2444 0
-1985 -2569 0
-1986 -2570 0
-1987 -2571 0
-1988 -2572 0
-1985 -2765 0
-1986 -2766 0
-1987 -2767 0
-1988 -2768 0
-1989 -2009 0
-1990 -2010 0
-1991 -2011 0
-1992 -2012 0
-1989 -2013 0
-1990 -2014 0
-1991 -2015 0
-1992 -2016 0
-1989 -2057 0
-1990 -2058 0
-1991 -2059 0
-1992 -2060 0
-1989 -2181 0
-1990 -2182 0
-1991 -2183 0
-1992 -2184 0
-1989 -2609 0
-1990 -2610 0
-1991 -2611 0
-1992 -2612 0
-1993 -2197 0
-1994 -2198 0
-1995 -2199 0
-1996 -2200 0
-1993 -2353 0
-1994 -2354 0
-1995 -2355 0
-1996 -2356 0
-1997 -2009 0
-1998 -2010 0
-1999 -2011 0
-2000 -2012 0
-1997 -2633 0
-1998 -2634 0
-1999 -2635 0
-2000 -2636 0
-2001 -2013 0
-2002 -2014 0
-2003 -2015 0
-2004 -2016 0
-2001 -2065 0
-2002 -2066 0
-2003 -2067 0
-2004 -2068 0
-2001 -2285 0
-2002 -2286 0
-2003 -2287 0
-2004 -2288 0
-2001 -2337 0
-2002 -2338 0
-2003 -2339 0
-2004 -2340 0
-2001 -2741 0
-2002 -2742 0
-2003 -2743 0
-2004 -2744 0
-2005 -2009 0
-2006 -2010 0
-2007 -2011 0
-2008 -2012 0
-2005 -2057 0
-2006 -2058 0
-2007 -2059 0
-2008 -2060 0
-2005 -2061 0
-2006 -2062 0
-2007 -2063 0
-2008 -2064 0
-2005 -2137 0
-2006 -2138 0
-2007 -2139 0
-2008 -2140 0
-2005 -2441 0
-2006 -2442 0
-2007 -2443 0
-2008 -2444 0
-2005 -2649 0
-2006 -2650 0
-2007 -2651 0
-2008 -2652 0
-2013 -2017 0
-2014 -2018 0
-2015 -2019 0
-2016 -2020 0
-2013 -2033 0
-2014 -2034 0
-2015 -2035 0
-2016 -2036 0
-2013 -2057 0
-2014 -2058 0
-2015 -2059 0
-2016 -2060 0
-2013 -2065 0
-2014 -2066 0
-2015 -2067 0
-2016 -2068 0
-2013 -2081 0
-2014 -2082 0
-2015 -2083 0
-2016 -2084 0
-2013 -2401 0
-2014 -2402 0
-2015 -2403 0
-2016 -2404 0
-2013 -2413 0
-2014 -2414 0
-2015 -2415 0
-2016 -2416 0
-2017 -2021 0
-2018 -2022 0
-2019 -2023 0
-2020 -2024 0
-2017 -2037 0
-2018 -2038 0
-2019 -2039 0
-2020 -2040 0
-2017 -2077 0
-2018 -2078 0
-2019 -2079 0
-2020 -2080 0
-2017 -2201 0
-2018 -2202 0
-2019 -2203 0
-2020 -2204 0
-2017 -2397 0
-2018 -2398 0
-2019 -2399 0
-2020 -2400 0
-2017 -2409 0
-2018 -2410 0
-2019 -2411 0
-2020 -2412 0
-2017 -2441 0
-2018 -2442 0
-2019 -2443 0
-2020 -2444 0
-2017 -2517 0
-2018 -2518 0
-2019 -2519 0
-2020 -2520 0
-2017 -2769 0
-2018 -2770 0
-2019 -2771 0
-2020 -2772 0
-2021 -2041 0
-2022 -2042 0
-2023 -2043 0
-2024 -2044 0
-2021 -2205 0
-2022 -2206 0
-2023 -2207 0
-2024 -2208 0
-2025 -2029 0
-2026 -2030 0
-2027 -2031 0
-2028 -2032 0
-2025 -2365 0
-2026 -2366 0
-2027 -2367 0
-2028 -2368 0
-2025 -2369 0
-2026 -2370 0
-2027 -2371 0
-2028 -2372 0
-2029 -2045 0
-2030 -2046 0
-2031 -2047 0
-2032 -2048 0
-2029 -2393 0
-2030 -2394 0
-2031 -2395 0
-2032 -2396 0
-2029 -2597 0
-2030 -2598 0
-2031 -2599 0
-2032 -2600 0
-2029 -2653 0
-2030 -2654 0
-2031 -2655 0
-2032 -2656 0
-2029 -2801 0
-2030 -2802 0
-2031 -2803 0
-2032 -2804 0
-2033 -2037 0
-2034 -2038 0
-2035 -2039 0
-2036 -2040 0
-2033 -2081 0
-2034 -2082 0
-2035 -2083 0
-2036 -2084 0
-2033 -2269 0
-2034 -2270 0
-2035 -2271 0
-2036 -2272 0
-2033 -2605 0
-2034 -2606 0
-2035 -2607 0
-2036 -2608 0
-2037 -2041 0
-2038 -2042 0
-2039 -2043 0
-2040 -2044 0
-2037 -2053 0
-2038 -2054 0
-2039 -2055 0
-2040 -2056 0
-2037 -2077 0
-2038 -2078 0
-2039 -2079 0
-2040 -2080 0
-2037 -2109 0
-2038 -2110 0
-2039 -2111 0
-2040 -2112 0
-2037 -2213 0
-2038 -2214 0
-2039 -2215 0
-2040 -2216 0
-2037 -2337 0
-2038 -2338 0
-2039 -2339 0
-2040 -2340 0
-2037 -2369 0
-2038 -2370 0
-2039 -2371 0
-2040 -2372 0
-2037 -2393 0
-2038 -2394 0
-2039 -2395 0
-2040 -2396 0
-2037 -2665 0
-2038 -2666 0
-2039 -2667 0
-2040 -2668 0
-2037 -2753 0
-2038 -2754 0
-2039 -2755 0
-2040 -2756 0
-2041 -2057 0
-2042 -2058 0
-2043 -2059 0
-2044 -2060 0
-2041 -2105 0
-2042 -2106 0
-2043 -2107 0
-2044 -2108 0
-2041 -2217 0
-2042 -2218 0
-2043 -2219 0
-2044 -2220 0
-2041 -2365 0
-2042 -2366 0
-2043 -2367 0
-2044 -2368 0
-2041 -2597 0
-2042 -2598 0
-2043 -2599 0
-2044 -2600 0
-2045 -2049 0
-2046 -2050 0
-2047 -2051 0
-2048 -2052 0
-2045 -2225 0
-2046 -2226 0
-2047 -2227 0
-2048 -2228 0
-2045 -2429 0
-2046 -2430 0
-2047 -2431 0
-2048 -2432 0
-2045 -2433 0
-2046 -2434 0
-2047 -2435 0
-2048 -2436 0
-2045 -2581 0
-2046 -2582 0
-2047 -2583 0
-2048 -2584 0
-2045 -2805 0
-2046 -2806 0
-2047 -2807 0
-2048 -2808 0
-2049 -2561 0
-2050 -2562 0
-2051 -2563 0
-2052 -2564 0
-2053 -2057 0
-2054 -2058 0
-2055 -2059 0
-2056 -2060 0
-2053 -2109 0
-2054 -2110 0
-2055 -2111 0
-2056 -2112 0
-2053 -2401 0
-2054 -2402 0
-2055 -2403 0
-2056 -2404 0
-2053 -2433 0
-2054 -2434 0
-2055 -2435 0
-2056 -2436 0
-2053 -2561 0
-2054 -2562 0
-2055 -2563 0
-2056 -2564 0
-2057 -2061 0
-2058 -2062 0
-2059 -2063 0
-2060 -2064 0
-2057 -2105 0
-2058 -2106 0
-2059 -2107 0
-2060 -2108 0
-2057 -2113 0
-2058 -2114 0
-2059 -2115 0
-2060 -2116 0
-2057 -2233 0
-2058 -2234 0
-2059 -2235 0
-2060 -2236 0
-2057 -2429 0
-2058 -2430 0
-2059 -2431 0
-2060 -2432 0
-2057 -2441 0
-2058 -2442 0
-2059 -2443 0
-2060 -2444 0
-2057 -2605 0
-2058 -2606 0
-2059 -2607 0
-2060 -2608 0
-2057 -2609 0
-2058 -2610 0
-2059 -2611 0
-2060 -2612 0
-2057 -2713 0
-2058 -2714 0
-2059 -2715 0
-2060 -2716 0
-2061 -2237 0
-2062 -2238 0
-2063 -2239 0
-2064 -2240 0
-2061 -2581 0
-2062 -2582 0
-2063 -2583 0
-2064 -2584 0
-2065 -2761 0
-2066 -2762 0
-2067 -2763 0
-2068 -2764 0
-2069 -2141 0
-2070 -2142 0
-2071 -2143 0
-2072 -2144 0
-2069 -2353 0
-2070 -2354 0
-2071 -2355 0
-2072 -2356 0
-2073 -2093 0
-2074 -2094 0
-2075 -2095 0
-2076 -2096 0
-2073 -2193 0
-2074 -2194 0
-2075 -2195 0
-2076 -2196 0
-2073 -2369 0
-2074 -2370 0
-2075 -2371 0
-2076 -2372 0
-2073 -2377 0
-2074 -2378 0
-2075 -2379 0
-2076 -2380 0
-2073 -2409 0
-2074 -2410 0
-2075 -2411 0
-2076 -2412 0
-2077 -2081 0
-2078 -2082 0
-2079 -2083 0
-2080 -2084 0
-2077 -2101 0
-2078 -2102 0
-2079 -2103 0
-2080 -2104 0
-2077 -2573 0
-2078 -2574 0
-2079 -2575 0
-2080 -2576 0
-2081 -2105 0
-2082 -2106 0
-2083 -2107 0
-2084 -2108 0
-2085 -2373 0
-2086 -2374 0
-2087 -2375 0
-2088 -2376 0
-2085 -2449 0
-2086 -2450 0
-2087 -2451 0
-2088 -2452 0
-2085 -2497 0
-2086 -2498 0
-2087 -2499 0
-2088 -2500 0
-2085 -2585 0
-2086 -2586 0
-2087 -2587 0
-2088 -2588 0
-2089 -2093 0
-2090 -2094 0
-2091 -2095 0
-2092 -2096 0
-2089 -2109 0
-2090 -2110 0
-2091 -2111 0
-2092 -2112 0
-2089 -2113 0
-2090 -2114 0
-2091 -2115 0
-2092 -2116 0
-2089 -2165 0
-2090 -2166 0
-2091 -2167 0
-2092 -2168 0
-2089 -2337 0
-2090 -2338 0
-2091 -2339 0
-2092 -2340 0
-2089 -2461 0
-2090 -2462 0
-2091 -2463 0
-2092 -2464 0
-2089 -2589 0
-2090 -2590 0
-2091 -2591 0
-2092 -2592 0
-2089 -2813 0
-2090 -2814 0
-2091 -2815 0
-2092 -2816 0
-2093 -2097 0
-2094 -2098 0
-2095 -2099 0
-2096 -2100 0
-2093 -2117 0
-2094 -2118 0
-2095 -2119 0
-2096 -2120 0
-2093 -2161 0
-2094 -2162 0
-2095 -2163 0
-2096 -2164 0
-2093 -2333 0
-2094 -2334 0
-2095 -2335 0
-2096 -2336 0
-2093 -2345 0
-2094 -2346 0
-2095 -2347 0
-2096 -2348 0
-2093 -2377 0
-2094 -2378 0
-2095 -2379 0
-2096 -2380 0
-2093 -2393 0
-2094 -2394 0
-2095 -2395 0
-2096 -2396 0
-2093 -2433 0
-2094 -2434 0
-2095 -2435 0
-2096 -2436 0
-2093 -2601 0
-2094 -2602 0
-2095 -2603 0
-2096 -2604 0
-2093 -2749 0
-2094 -2750 0
-2095 -2751 0
-2096 -2752 0
-2097 -2101 0
-2098 -2102 0
-2099 -2103 0
-2100 -2104 0
-2097 -2121 0
-2098 -2122 0
-2099 -2123 0
-2100 -2124 0
-2097 -2249 0
-2098 -2250 0
-2099 -2251 0
-2100 -2252 0
-2097 -2345 0
-2098 -2346 0
-2099 -2347 0
-2100 -2348 0
-2097 -2381 0
-2098 -2382 0
-2099 -2383 0
-2100 -2384 0
-2097 -2429 0
-2098 -2430 0
-2099 -2431 0
-2100 -2432 0
-2097 -2437 0
-2098 -2438 0
-2099 -2439 0
-2100 -2440 0
-2097 -2449 0
-2098 -2450 0
-2099 -2451 0
-2100 -2452 0
-2097 -2577 0
-2098 -2578 0
-2099 -2579 0
-2100 -2580 0
-2097 -2597 0
-2098 -2598 0
-2099 -2599 0
-2100 -2600 0
-2097 -2737 0
-2098 -2738 0
-2099 -2739 0
-2100 -2740 0
-2101 -2105 0
-2102 -2106 0
-2103 -2107 0
-2104 -2108 0
-2101 -2125 0
-2102 -2126 0
-2103 -2127 0
-2104 -2128 0
-2101 -2253 0
-2102 -2254 0
-2103 -2255 0
-2104 -2256 0
-2101 -2441 0
-2102 -2442 0
-2103 -2443 0
-2104 -2444 0
-2101 -2581 0
-2102 -2582 0
-2103 -2583 0
-2104 -2584 0
-2101 -2645 0
-2102 -2646 0
-2103 -2647 0
-2104 -2648 0
-2105 -2109 0
-2106 -2110 0
-2107 -2111 0
-2108 -2112 0
-2105 -2257 0
-2106 -2258 0
-2107 -2259 0
-2108 -2260 0
-2105 -2605 0
-2106 -2606 0
-2107 -2607 0
-2108 -2608 0
-2105 -2793 0
-2106 -2794 0
-2107 -2795 0
-2108 -2796 0
-2109 -2385 0
-2110 -2386 0
-2111 -2387 0
-2112 -2388 0
-2109 -2669 0
-2110 -2670 0
-2111 -2671 0
-2112 -2672 0
-2113 -2117 0
-2114 -2118 0
-2115 -2119 0
-2116 -2120 0
-2113 -2589 0
-2114 -2590 0
-2115 -2591 0
-2116 -2592 0
-2113 -2605 0
-2114 -2606 0
-2115 -2607 0
-2116 -2608 0
-2117 -2121 0
-2118 -2122 0
-2119 -2123 0
-2120 -2124 0
-2117 -2441 0
-2118 -2442 0
-2119 -2443 0
-2120 -2444 0
-2117 -2561 0
-2118 -2562 0
-2119 -2563 0
-2120 -2564 0
-2117 -2565 0
-2118 -2566 0
-2119 -2567 0
-2120 -2568 0
-2117 -2593 0
-2118 -2594 0
-2119 -2595 0
-2120 -2596 0
-2117 -2673 0
-2118 -2674 0
-2119 -2675 0
-2120 -2676 0
-2117 -2729 0
-2118 -2730 0
-2119 -2731 0
-2120 -2732 0
-2121 -2125 0
-2122 -2126 0
-2123 -2127 0
-2124 -2128 0
-2121 -2265 0
-2122 -2266 0
-2123 -2267 0
-2124 -2268 0
-2125 -2753 0
-2126 -2754 0
-2127 -2755 0
-2128 -2756 0
-2133 -2137 0
-2134 -2138 0
-2135 -2139 0
-2136 -2140 0
-2133 -2349 0
-2134 -2350 0
-2135 -2351 0
-2136 -2352 0
-2133 -2441 0
-2134 -2442 0
-2135 -2443 0
-2136 -2444 0
-2133 -2577 0
-2134 -2578 0
-2135 -2579 0
-2136 -2580 0
-2133 -2593 0
-2134 -2594 0
-2135 -2595 0
-2136 -2596 0
-2133 -2745 0
-2134 -2746 0
-2135 -2747 0
-2136 -2748 0
-2137 -2569 0
-2138 -2570 0
-2139 -2571 0
-2140 -2572 0
-2137 -2573 0
-2138 -2574 0
-2139 -2575 0
-2140 -2576 0
-2141 -2361 0
-2142 -2362 0
-2143 -2363 0
-2144 -2364 0
-2141 -2369 0
-2142 -2370 0
-2143 -2371 0
-2144 -2372 0
-2145 -2149 0
-2146 -2150 0
-2147 -2151 0
-2148 -2152 0
-2145 -2749 0
-2146 -2750 0
-2147 -2751 0
-2148 -2752 0
-2145 -2769 0
-2146 -2770 0
-2147 -2771 0
-2148 -2772 0
-2145 -2785 0
-2146 -2786 0
-2147 -2787 0
-2148 -2788 0
-2145 -2809 0
-2146 -2810 0
-2147 -2811 0
-2148 -2812 0
-2149 -2305 0
-2150 -2306 0
-2151 -2307 0
-2152 -2308 0
-2149 -2713 0
-2150 -2714 0
-2151 -2715 0
-2152 -2716 0
-2149 -2813 0
-2150 -2814 0
-2151 -2815 0
-2152 -2816 0
-2153 -2525 0
-2154 -2526 0
-2155 -2527 0
-2156 -2528 0
-2153 -2657 0
-2154 -2658 0
-2155 -2659 0
-2156 -2660 0
-2153 -2685 0
-2154 -2686 0
-2155 -2687 0
-2156 -2688 0
-2153 -2701 0
-2154 -2702 0
-2155 -2703 0
-2156 -2704 0
-2157 -2161 0
-2158 -2162 0
-2159 -2163 0
-2160 -2164 0
-2157 -2173 0
-2158 -2174 0
-2159 -2175 0
-2160 -2176 0
-2157 -2233 0
-2158 -2234 0
-2159 -2235 0
-2160 -2236 0
-2157 -2513 0
-2158 -2514 0
-2159 -2515 0
-2160 -2516 0
-2157 -2525 0
-2158 -2526 0
-2159 -2527 0
-2160 -2528 0
-2161 -2165 0
-2162 -2166 0
-2163 -2167 0
-2164 -2168 0
-2161 -2177 0
-2162 -2178 0
-2163 -2179 0
-2164 -2180 0
-2161 -2193 0
-2162 -2194 0
-2163 -2195 0
-2164 -2196 0
-2161 -2213 0
-2162 -2214 0
-2163 -2215 0
-2164 -2216 0
-2161 -2237 0
-2162 -2238 0
-2163 -2239 0
-2164 -2240 0
-2161 -2273 0
-2162 -2274 0
-2163 -2275 0
-2164 -2276 0
-2161 -2281 0
-2162 -2282 0
-2163 -2283 0
-2164 -2284 0
-2161 -2401 0
-2162 -2402 0
-2163 -2403 0
-2164 -2404 0
-2161 -2677 0
-2162 -2678 0
-2163 -2679 0
-2164 -2680 0
-2161 -2749 0
-2162 -2750 0
-2163 -2751 0
-2164 -2752 0
-2165 -2181 0
-2166 -2182 0
-2167 -2183 0
-2168 -2184 0
-2165 -2537 0
-2166 -2538 0
-2167 -2539 0
-2168 -2540 0
-2165 -2657 0
-2166 -2658 0
-2167 -2659 0
-2168 -2660 0
-2165 -2813 0
-2166 -2814 0
-2167 -2815 0
-2168 -2816 0
-2169 -2233 0
-2170 -2234 0
-2171 -2235 0
-2172 -2236 0
-2169 -2293 0
-2170 -2294 0
-2171 -2295 0
-2172 -2296 0
-2169 -2321 0
-2170 -2322 0
-2171 -2323 0
-2172 -2324 0
-2173 -2177 0
-2174 -2178 0
-2175 -2179 0
-2176 -2180 0
-2173 -2681 0
-2174 -2682 0
-2175 -2683 0
-2176 -2684 0
-2177 -2181 0
-2178 -2182 0
-2179 -2183 0
-2180 -2184 0
-2177 -2185 0
-2178 -2186 0
-2179 -2187 0
-2180 -2188 0
-2177 -2201 0
-2178 -2202 0
-2179 -2203 0
-2180 -2204 0
-2177 -2281 0
-2178 -2282 0
-2179 -2283 0
-2180 -2284 0
-2177 -2333 0
-2178 -2334 0
-2179 -2335 0
-2180 -2336 0
-2177 -2661 0
-2178 -2662 0
-2179 -2663 0
-2180 -2664 0
-2177 -2765 0
-2178 -2766 0
-2179 -2767 0
-2180 -2768 0
-2181 -2189 0
-2182 -2190 0
-2183 -2191 0
-2184 -2192 0
-2181 -2233 0
-2182 -2234 0
-2183 -2235 0
-2184 -2236 0
-2181 -2241 0
-2182 -2242 0
-2183 -2243 0
-2184 -2244 0
-2181 -2337 0
-2182 -2338 0
-2183 -2339 0
-2184 -2340 0
-2181 -2665 0
-2182 -2666 0
-2183 -2667 0
-2184 -2668 0
-2185 -2189 0
-2186 -2190 0
-2187 -2191 0
-2188 -2192 0
-2185 -2209 0
-2186 -2210 0
-2187 -2211 0
-2188 -2212 0
-2185 -2349 0
-2186 -2350 0
-2187 -2351 0
-2188 -2352 0
-2185 -2517 0
-2186 -2518 0
-2187 -2519 0
-2188 -2520 0
-2185 -2785 0
-2186 -2786 0
-2187 -2787 0
-2188 -2788 0
-2189 -2193 0
-2190 -2194 0
-2191 -2195 0
-2192 -2196 0
-2189 -2217 0
-2190 -2218 0
-2191 -2219 0
-2192 -2220 0
-2189 -2241 0
-2190 -2242 0
-2191 -2243 0
-2192 -2244 0
-2193 -2213 0
-2194 -2214 0
-2195 -2215 0
-2196 -2216 0
-2201 -2205 0
-2202 -2206 0
-2203 -2207 0
-2204 -2208 0
-2201 -2213 0
-2202 -2214 0
-2203 -2215 0
-2204 -2216 0
-2201 -2477 0
-2202 -2478 0
-2203 -2479 0
-2204 -2480 0
-2201 -2769 0
-2202 -2770 0
-2203 -2771 0
-2204 -2772 0
-2205 -2209 0
-2206 -2210 0
-2207 -2211 0
-2208 -2212 0
-2205 -2217 0
-2206 -2218 0
-2207 -2219 0
-2208 -2220 0
-2205 -2477 0
-2206 -2478 0
-2207 -2479 0
-2208 -2480 0
-2205 -2485 0
-2206 -2486 0
-2207 -2487 0
-2208 -2488 0
-2209 -2221 0
-2210 -2222 0
-2211 -2223 0
-2212 -2224 0
-2213 -2217 0
-2214 -2218 0
-2215 -2219 0
-2216 -2220 0
-2213 -2377 0
-2214 -2378 0
-2215 -2379 0
-2216 -2380 0
-2217 -2221 0
-2218 -2222 0
-2219 -2223 0
-2220 -2224 0
-2217 -2233 0
-2218 -2234 0
-2219 -2235 0
-2220 -2236 0
-2217 -2257 0
-2218 -2258 0
-2219 -2259 0
-2220 -2260 0
-2217 -2381 0
-2218 -2382 0
-2219 -2383 0
-2220 -2384 0
-2217 -2413 0
-2218 -2414 0
-2219 -2415 0
-2220 -2416 0
-2217 -2521 0
-2218 -2522 0
-2219 -2523 0
-2220 -2524 0
-2217 -2641 0
-2218 -2642 0
-2219 -2643 0
-2220 -2644 0
-2221 -2237 0
-2222 -2238 0
-2223 -2239 0
-2224 -2240 0
-2221 -2533 0
-2222 -2534 0
-2223 -2535 0
-2224 -2536 0
-2221 -2641 0
-2222 -2642 0
-2223 -2643 0
-2224 -2644 0
-2221 -2645 0
-2222 -2646 0
-2223 -2647 0
-2224 -2648 0
-2225 -2501 0
-2226 -2502 0
-2227 -2503 0
-2228 -2504 0
-2225 -2505 0
-2226 -2506 0
-2227 -2507 0
-2228 -2508 0
-2229 -2677 0
-2230 -2678 0
-2231 -2679 0
-2232 -2680 0
-2233 -2237 0
-2234 -2238 0
-2235 -2239 0
-2236 -2240 0
-2233 -2257 0
-2234 -2258 0
-2235 -2259 0
-2236 -2260 0
-2233 -2305 0
-2234 -2306 0
-2235 -2307 0
-2236 -2308 0
-2233 -2389 0
-2234 -2390 0
-2235 -2391 0
-2236 -2392 0
-2233 -2461 0
-2234 -2462 0
-2235 -2463 0
-2236 -2464 0
-2233 -2501 0
-2234 -2502 0
-2235 -2503 0
-2236 -2504 0
-2233 -2537 0
-2234 -2538 0
-2235 -2539 0
-2236 -2540 0
-2233 -2713 0
-2234 -2714 0
-2235 -2715 0
-2236 -2716 0
-2237 -2273 0
-2238 -2274 0
-2239 -2275 0
-2240 -2276 0
-2237 -2393 0
-2238 -2394 0
-2239 -2395 0
-2240 -2396 0
-2237 -2505 0
-2238 -2506 0
-2239 -2507 0
-2240 -2508 0
-2237 -2665 0
-2238 -2666 0
-2239 -2667 0
-2240 -2668 0
-2237 -2669 0
-2238 -2670 0
-2239 -2671 0
-2240 -2672 0
-2241 -2285 0
-2242 -2286 0
-2243 -2287 0
-2244 -2288 0
-2241 -2397 0
-2242 -2398 0
-2243 -2399 0
-2244 -2400 0
-2245 -2301 0
-2246 -2302 0
-2247 -2303 0
-2248 -2304 0
-2249 -2253 0
-2250 -2254 0
-2251 -2255 0
-2252 -2256 0
-2249 -2265 0
-2250 -2266 0
-2251 -2267 0
-2252 -2268 0
-2249 -2361 0
-2250 -2362 0
-2251 -2363 0
-2252 -2364 0
-2249 -2473 0
-2250 -2474 0
-2251 -2475 0
-2252 -2476 0
-2249 -2501 0
-2250 -2502 0
-2251 -2503 0
-2252 -2504 0
-2249 -2521 0
-2250 -2522 0
-2251 -2523 0
-2252 -2524 0
-2253 -2257 0
-2254 -2258 0
-2255 -2259 0
-2256 -2260 0
-2253 -2369 0
-2254 -2370 0
-2255 -2371 0
-2256 -2372 0
-2253 -2417 0
-2254 -2418 0
-2255 -2419 0
-2256 -2420 0
-2253 -2505 0
-2254 -2506 0
-2255 -2507 0
-2256 -2508 0
-2253 -2809 0
-2254 -2810 0
-2255 -2811 0
-2256 -2812 0
-2257 -2269 0
-2258 -2270 0
-2259 -2271 0
-2260 -2272 0
-2257 -2421 0
-2258 -2422 0
-2259 -2423 0
-2260 -2424 0
-2257 -2509 0
-2258 -2510 0
-2259 -2511 0
-2260 -2512 0
-2257 -2537 0
-2258 -2538 0
-2259 -2539 0
-2260 -2540 0
-2257 -2793 0
-2258 -2794 0
-2259 -2795 0
-2260 -2796 0
-2265 -2285 0
-2266 -2286 0
-2267 -2287 0
-2268 -2288 0
-2265 -2337 0
-2266 -2338 0
-2267 -2339 0
-2268 -2340 0
-2265 -2425 0
-2266 -2426 0
-2267 -2427 0
-2268 -2428 0
-2265 -2461 0
-2266 -2462 0
-2267 -2463 0
-2268 -2464 0
-2265 -2485 0
-2266 -2486 0
-2267 -2487 0
-2268 -2488 0
-2265 -2493 0
-2266 -2494 0
-2267 -2495 0
-2268 -2496 0
-2265 -2525 0
-2266 -2526 0
-2267 -2527 0
-2268 -2528 0
-2265 -2617 0
-2266 -2618 0
-2267 -2619 0
-2268 -2620 0
-2265 -2681 0
-2266 -2682 0
-2267 -2683 0
-2268 -2684 0
-2265 -2717 0
-2266 -2718 0
-2267 -2719 0
-2268 -2720 0
-2269 -2273 0
-2270 -2274 0
-2271 -2275 0
-2272 -2276 0
-2269 -2429 0
-2270 -2430 0
-2271 -2431 0
-2272 -2432 0
-2269 -2509 0
-2270 -2510 0
-2271 -2511 0
-2272 -2512 0
-2269 -2657 0
-2270 -2658 0
-2271 -2659 0
-2272 -2660 0
-2273 -2433 0
-2274 -2434 0
-2275 -2435 0
-2276 -2436 0
-2273 -2677 0
-2274 -2678 0
-2275 -2679 0
-2276 -2680 0
-2273 -2721 0
-2274 -2722 0
-2275 -2723 0
-2276 -2724 0
-2277 -2621 0
-2278 -2622 0
-2279 -2623 0
-2280 -2624 0
-2281 -2285 0
-2282 -2286 0
-2283 -2287 0
-2284 -2288 0
-2281 -2469 0
-2282 -2470 0
-2283 -2471 0
-2284 -2472 0
-2281 -2613 0
-2282 -2614 0
-2283 -2615 0
-2284 -2616 0
-2281 -2677 0
-2282 -2678 0
-2283 -2679 0
-2284 -2680 0
-2285 -2289 0
-2286 -2290 0
-2287 -2291 0
-2288 -2292 0
-2285 -2437 0
-2286 -2438 0
-2287 -2439 0
-2288 -2440 0
-2285 -2469 0
-2286 -2470 0
-2287 -2471 0
-2288 -2472 0
-2285 -2617 0
-2286 -2618 0
-2287 -2619 0
-2288 -2620 0
-2285 -2637 0
-2286 -2638 0
-2287 -2639 0
-2288 -2640 0
-2285 -2741 0
-2286 -2742 0
-2287 -2743 0
-2288 -2744 0
-2289 -2441 0
-2290 -2442 0
-2291 -2443 0
-2292 -2444 0
-2289 -2645 0
-2290 -2646 0
-2291 -2647 0
-2292 -2648 0
-2289 -2649 0
-2290 -2650 0
-2291 -2651 0
-2292 -2652 0
-2289 -2661 0
-2290 -2662 0
-2291 -2663 0
-2292 -2664 0
-2293 -2469 0
-2294 -2470 0
-2295 -2471 0
-2296 -2472 0
-2293 -2473 0
-2294 -2474 0
-2295 -2475 0
-2296 -2476 0
-2293 -2477 0
-2294 -2478 0
-2295 -2479 0
-2296 -2480 0
-2297 -2649 0
-2298 -2650 0
-2299 -2651 0
-2300 -2652 0
-2305 -2313 0
-2306 -2314 0
-2307 -2315 0
-2308 -2316 0
-2305 -2501 0
-2306 -2502 0
-2307 -2503 0
-2308 -2504 0
-2309 -2453 0
-2310 -2454 0
-2311 -2455 0
-2312 -2456 0
-2313 -2449 0
-2314 -2450 0
-2315 -2451 0
-2316 -2452 0
-2313 -2717 0
-2314 -2718 0
-2315 -2719 0
-2316 -2720 0
-2313 -2789 0
-2314 -2790 0
-2315 -2791 0
-2316 -2792 0
-2317 -2321 0
-2318 -2322 0
-2319 -2323 0
-2320 -2324 0
-2317 -2361 0
-2318 -2362 0
-2319 -2363 0
-2320 -2364 0
-2317 -2473 0
-2318 -2474 0
-2319 -2475 0
-2320 -2476 0
-2321 -2325 0
-2322 -2326 0
-2323 -2327 0
-2324 -2328 0
-2321 -2341 0
-2322 -2342 0
-2323 -2343 0
-2324 -2344 0
-2321 -2389 0
-2322 -2390 0
-2323 -2391 0
-2324 -2392 0
-2325 -2329 0
-2326 -2330 0
-2327 -2331 0
-2328 -2332 0
-2325 -2345 0
-2326 -2346 0
-2327 -2347 0
-2328 -2348 0
-2325 -2601 0
-2326 -2602 0
-2327 -2603 0
-2328 -2604 0
-2329 -2593 0
-2330 -2594 0
-2331 -2595 0
-2332 -2596 0
-2329 -2693 0
-2330 -2694 0
-2331 -2695 0
-2332 -2696 0
-2329 -2733 0
-2330 -2734 0
-2331 -2735 0
-2332 -2736 0
-2333 -2337 0
-2334 -2338 0
-2335 -2339 0
-2336 -2340 0
-2333 -2349 0
-2334 -2350 0
-2335 -2351 0
-2336 -2352 0
-2333 -2593 0
-2334 -2594 0
-2335 -2595 0
-2336 -2596 0
-2337 -2361 0
-2338 -2362 0
-2339 -2363 0
-2340 -2364 0
-2337 -2389 0
-2338 -2390 0
-2339 -2391 0
-2340 -2392 0
-2337 -2397 0
-2338 -2398 0
-2339 -2399 0
-2340 -2400 0
-2337 -2717 0
-2338 -2718 0
-2339 -2719 0
-2340 -2720 0
-2341 -2345 0
-2342 -2346 0
-2343 -2347 0
-2344 -2348 0
-2341 -2357 0
-2342 -2358 0
-2343 -2359 0
-2344 -2360 0
-2341 -2377 0
-2342 -2378 0
-2343 -2379 0
-2344 -2380 0
-2341 -2381 0
-2342 -2382 0
-2343 -2383 0
-2344 -2384 0
-2345 -2445 0
-2346 -2446 0
-2347 -2447 0
-2348 -2448 0
-2345 -2473 0
-2346 -2474 0
-2347 -2475 0
-2348 -2476 0
-2345 -2481 0
-2346 -2482 0
-2347 -2483 0
-2348 -2484 0
-2345 -2577 0
-2346 -2578 0
-2347 -2579 0
-2348 -2580 0
-2349 -2573 0
-2350 -2574 0
-2351 -2575 0
-2352 -2576 0
-2349 -2577 0
-2350 -2578 0
-2351 -2579 0
-2352 -2580 0
-2349 -2785 0
-2350 -2786 0
-2351 -2787 0
-2352 -2788 0
-2357 -2373 0
-2358 -2374 0
-2359 -2375 0
-2360 -2376 0
-2361 -2369 0
-2362 -2370 0
-2363 -2371 0
-2364 -2372 0
-2361 -2389 0
-2362 -2390 0
-2363 -2391 0
-2364 -2392 0
-2361 -2405 0
-2362 -2406 0
-2363 -2407 0
-2364 -2408 0
-2365 -2369 0
-2366 -2370 0
-2367 -2371 0
-2368 -2372 0
-2365 -2597 0
-2366 -2598 0
-2367 -2599 0
-2368 -2600 0
-2369 -2385 0
-2370 -2386 0
-2371 -2387 0
-2372 -2388 0
-2369 -2393 0
-2370 -2394 0
-2371 -2395 0
-2372 -2396 0
-2369 -2409 0
-2370 -2410 0
-2371 -2411 0
-2372 -2412 0
-2369 -2809 0
-2370 -2810 0
-2371 -2811 0
-2372 -2812 0
-2377 -2381 0
-2378 -2382 0
-2379 -2383 0
-2380 -2384 0
-2381 -2389 0
-2382 -2390 0
-2383 -2391 0
-2384 -2392 0
-2381 -2421 0
-2382 -2422 0
-2383 -2423 0
-2384 -2424 0
-2381 -2449 0
-2382 -2450 0
-2383 -2451 0
-2384 -2452 0
-2385 -2505 0
-2386 -2506 0
-2387 -2507 0
-2388 -2508 0
-2389 -2393 0
-2390 -2394 0
-2391 -2395 0
-2392 -2396 0
-2389 -2421 0
-2390 -2422 0
-2391 -2423 0
-2392 -2424 0
-2393 -2433 0
-2394 -2434 0
-2395 -2435 0
-2396 -2436 0
-2393 -2597 0
-2394 -2598 0
-2395 -2599 0
-2396 -2600 0
-2397 -2405 0
-2398 -2406 0
-2399 -2407 0
-2400 -2408 0
-2397 -2437 0
-2398 -2438 0
-2399 -2439 0
-2400 -2440 0
-2401 -2749 0
-2402 -2750 0
-2403 -2751 0
-2404 -2752 0
-2405 -2409 0
-2406 -2410 0
-2407 -2411 0
-2408 -2412 0
-2409 -2413 0
-2410 -2414 0
-2411 -2415 0
-2412 -2416 0
-2417 -2421 0
-2418 -2422 0
-2419 -2423 0
-2420 -2424 0
-2417 -2809 0
-2418 -2810 0
-2419 -2811 0
-2420 -2812 0
-2421 -2429 0
-2422 -2430 0
-2423 -2431 0
-2424 -2432 0
-2425 -2437 0
-2426 -2438 0
-2427 -2439 0
-2428 -2440 0
-2425 -2449 0
-2426 -2450 0
-2427 -2451 0
-2428 -2452 0
-2425 -2717 0
-2426 -2718 0
-2427 -2719 0
-2428 -2720 0
-2429 -2433 0
-2430 -2434 0
-2431 -2435 0
-2432 -2436 0
-2429 -2501 0
-2430 -2502 0
-2431 -2503 0
-2432 -2504 0
-2429 -2581 0
-2430 -2582 0
-2431 -2583 0
-2432 -2584 0
-2429 -2589 0
-2430 -2590 0
-2431 -2591 0
-2432 -2592 0
-2429 -2597 0
-2430 -2598 0
-2431 -2599 0
-2432 -2600 0
-2433 -2561 0
-2434 -2562 0
-2435 -2563 0
-2436 -2564 0
-2433 -2601 0
-2434 -2602 0
-2435 -2603 0
-2436 -2604 0
-2433 -2721 0
-2434 -2722 0
-2435 -2723 0
-2436 -2724 0
-2437 -2441 0
-2438 -2442 0
-2439 -2443 0
-2440 -2444 0
-2437 -2565 0
-2438 -2566 0
-2439 -2567 0
-2440 -2568 0
-2441 -2593 0
-2442 -2594 0
-2443 -2595 0
-2444 -2596 0
-2457 -2725 0
-2458 -2726 0
-2459 -2727 0
-2460 -2728 0
-2461 -2465 0
-2462 -2466 0
-2463 -2467 0
-2464 -2468 0
-2461 -2501 0
-2462 -2502 0
-2463 -2503 0
-2464 -2504 0
-2461 -2509 0
-2462 -2510 0
-2463 -2511 0
-2464 -2512 0
-2461 -2525 0
-2462 -2526 0
-2463 -2527 0
-2464 -2528 0
-2461 -2669 0
-2462 -2670 0
-2463 -2671 0
-2464 -2672 0
-2465 -2561 0
-2466 -2562 0
-2467 -2563 0
-2468 -2564 0
-2465 -2677 0
-2466 -2678 0
-2467 -2679 0
-2468 -2680 0
-2469 -2637 0
-2470 -2638 0
-2471 -2639 0
-2472 -2640 0
-2481 -2489 0
-2482 -2490 0
-2483 -2491 0
-2484 -2492 0
-2489 -2493 0
-2490 -2494 0
-2491 -2495 0
-2492 -2496 0
-2489 -2497 0
-2490 -2498 0
-2491 -2499 0
-2492 -2500 0
-2493 -2529 0
-2494 -2530 0
-2495 -2531 0
-2496 -2532 0
-2493 -2545 0
-2494 -2546 0
-2495 -2547 0
-2496 -2548 0
-2497 -2541 0
-2498 -2542 0
-2499 -2543 0
-2500 -2544 0
-2501 -2505 0
-2502 -2506 0
-2503 -2507 0
-2504 -2508 0
-2501 -2521 0
-2502 -2522 0
-2503 -2523 0
-2504 -2524 0
-2505 -2581 0
-2506 -2582 0
-2507 -2583 0
-2508 -2584 0
-2505 -2669 0
-2506 -2670 0
-2507 -2671 0
-2508 -2672 0
-2509 -2653 0
-2510 -2654 0
-2511 -2655 0
-2512 -2656 0
-2513 -2593 0
-2514 -2594 0
-2515 -2595 0
-2516 -2596 0
-2513 -2629 0
-2514 -2630 0
-2515 -2631 0
-2516 -2632 0
-2517 -2577 0
-2518 -2578 0
-2519 -2579 0
-2520 -2580 0
-2517 -2637 0
-2518 -2638 0
-2519 -2639 0
-2520 -2640 0
-2521 -2597 0
-2522 -2598 0
-2523 -2599 0
-2524 -2600 0
-2525 -2681 0
-2526 -2682 0
-2527 -2683 0
-2528 -2684 0
-2529 -2533 0
-2530 -2534 0
-2531 -2535 0
-2532 -2536 0
-2529 -2641 0
-2530 -2642 0
-2531 -2643 0
-2532 -2644 0
-2529 -2653 0
-2530 -2654 0
-2531 -2655 0
-2532 -2656 0
-2533 -2645 0
-2534 -2646 0
-2535 -2647 0
-2536 -2648 0
-2533 -2669 0
-2534 -2670 0
-2535 -2671 0
-2536 -2672 0
-2533 -2789 0
-2534 -2790 0
-2535 -2791 0
-2536 -2792 0
-2537 -2605 0
-2538 -2606 0
-2539 -2607 0
-2540 -2608 0
-2537 -2657 0
-2538 -2658 0
-2539 -2659 0
-2540 -2660 0
-2537 -2725 0
-2538 -2726 0
-2539 -2727 0
-2540 -2728 0
-2545 -2617 0
-2546 -2618 0
-2547 -2619 0
-2548 -2620 0
-2545 -2633 0
-2546 -2634 0
-2547 -2635 0
-2548 -2636 0
-2549 -2609 0
-2550 -2610 0
-2551 -2611 0
-2552 -2612 0
-2549 -2689 0
-2550 -2690 0
-2551 -2691 0
-2552 -2692 0
-2549 -2737 0
-2550 -2738 0
-2551 -2739 0
-2552 -2740 0
-2557 -2561 0
-2558 -2562 0
-2559 -2563 0
-2560 -2564 0
-2557 -2565 0
-2558 -2566 0
-2559 -2567 0
-2560 -2568 0
-2557 -2589 0
-2558 -2590 0
-2559 -2591 0
-2560 -2592 0
-2573 -2757 0
-2574 -2758 0
-2575 -2759 0
-2576 -2760 0
-2573 -2773 0
-2574 -2774 0
-2575 -2775 0
-2576 -2776 0
-2589 -2657 0
-2590 -2658 0
-2591 -2659 0
-2592 -2660 0
-2593 -2661 0
-2594 -2662 0
-2595 -2663 0
-2596 -2664 0
-2601 -2677 0
-2602 -2678 0
-2603 -2679 0
-2604 -2680 0
-2601 -2689 0
-2602 -2690 0
-2603 -2691 0
-2604 -2692 0
-2605 -2725 0
-2606 -2726 0
-2607 -2727 0
-2608 -2728 0
-2613 -2617 0
-2614 -2618 0
-2615 -2619 0
-2616 -2620 0
-2613 -2629 0
-2614 -2630 0
-2615 -2631 0
-2616 -2632 0
-2621 -2625 0
-2622 -2626 0
-2623 -2627 0
-2624 -2628 0
-2625 -2633 0
-2626 -2634 0
-2627 -2635 0
-2628 -2636 0
-2629 -2637 0
-2630 -2638 0
-2631 -2639 0
-2632 -2640 0
-2641 -2777 0
-2642 -2778 0
-2643 -2779 0
-2644 -2780 0
-2665 -2753 0
-2666 -2754 0
-2667 -2755 0
-2668 -2756 0
-2673 -2729 0
-2674 -2730 0
-2675 -2731 0
-2676 -2732 0
-2677 -2689 0
-2678 -2690 0
-2679 -2691 0
-2680 -2692 0
-2681 -2709 0
-2682 -2710 0
-2683 -2711 0
-2684 -2712 0
-2685 -2705 0
-2686 -2706 0
-2687 -2707 0
-2688 -2708 0
-2697 -2701 0
-2698 -2702 0
-2699 -2703 0
-2700 -2704 0
-2713 -2793 0
-2714 -2794 0
-2715 -2795 0
-2716 -2796 0
-2721 -2749 0
-2722 -2750 0
-2723 -2751 0
-2724 -2752 0
-2741 -2761 0
-2742 -2762 0
-2743 -2763 0
-2744 -2764 0
-2745 -2785 0
-2746 -2786 0
-2747 -2787 0
-2748 -2788 0
-2749 -2813 0
-2750 -2814 0
-2751 -2815 0
-2752 -2816 0
-2761 -2765 0
-2762 -2766 0
-2763 -2767 0
-2764 -2768 0
-2765 -2769 0
-2766 -2770 0
-2767 -2771 0
-2768 -2772 0
-2789 -2797 0
-2790 -2798 0
-2791 -2799 0
-2792 -2800 0
-2793 -2797 0
-2794 -2798 0
-2795 -2799 0
-2796 -2800 0
-2817 -2821 0
-2818 -2822 0
-2819 -2823 0
-2820 -2824 0
-2817 -2837 0
-2818 -2838 0
-2819 -2839 0
-2820 -2840 0
-2817 -2905 0
-2818 -2906 0
-2819 -2907 0
-2820 -2908 0
-2817 -2909 0
-2818 -2910 0
-2819 -2911 0
-2820 -2912 0
-2817 -2913 0
-2818 -2914 0
-2819 -2915 0
-2820 -2916 0
-2817 -2917 0
-2818 -2918 0
-2819 -2919 0
-2820 -2920 0
-2817 -2921 0
-2818 -2922 0
-2819 -2923 0
-2820 -2924 0
-2817 -2925 0
-2818 -2926 0
-2819 -2927 0
-2820 -2928 0
-2817 -2929 0
-2818 -2930 0
-2819 -2931 0
-2820 -2932 0
-2817 -2933 0
-2818 -2934 0
-2819 -2935 0
-2820 -2936 0
-2817 -2937 0
-2818 -2938 0
-2819 -2939 0
-2820 -2940 0
-2817 -2941 0
-2818 -2942 0
-2819 -2943 0
-2820 -2944 0
-2817 -2945 0
-2818 -2946 0
-2819 -2947 0
-2820 -2948 0
-2817 -2949 0
-2818 -2950 0
-2819 -2951 0
-2820 -2952 0
-2817 -2953 0
-2818 -2954 0
-2819 -2955 0
-2820 -2956 0
-2817 -2957 0
-2818 -2958 0
-2819 -2959 0
-2820 -2960 0
-2817 -2961 0
-2818 -2962 0
-2819 -2963 0
-2820 -2964 0
-2821 -2825 0
-2822 -2826 0
-2823 -2827 0
-2824 -2828 0
-2821 -2965 0
-2822 -2966 0
-2823 -2967 0
-2824 -2968 0
-2821 -2969 0
-2822 -2970 0
-2823 -2971 0
-2824 -2972 0
-2821 -2973 0
-2822 -2974 0
-2823 -2975 0
-2824 -2976 0
-2821 -2977 0
-2822 -2978 0
-2823 -2979 0
-2824 -2980 0
-2821 -2981 0
-2822 -2982 0
-2823 -2983 0
-2824 -2984 0
-2821 -2985 0
-2822 -2986 0
-2823 -2987 0
-2824 -2988 0
-2821 -2989 0
-2822 -2990 0
-2823 -2991 0
-2824 -2992 0
-2821 -2993 0
-2822 -2994 0
-2823 -2995 0
-2824 -2996 0
-2821 -2997 0
-2822 -2998 0
-2823 -2999 0
-2824 -3000 0
-2821 -3001 0
-2822 -3002 0
-2823 -3003 0
-2824 -3004 0
-2821 -3005 0
-2822 -3006 0
-2823 -3007 0
-2824 -3008 0
-2821 -3009 0
-2822 -3010 0
-2823 -3011 0
-2824 -3012 0
-2825 -2829 0
-2826 -2830 0
-2827 -2831 0
-2828 -2832 0
-2825 -3013 0
-2826 -3014 0
-2827 -3015 0
-2828 -3016 0
-2825 -3017 0
-2826 -3018 0
-2827 -3019 0
-2828 -3020 0
-2825 -3021 0
-2826 -3022 0
-2827 -3023 0
-2828 -3024 0
-2825 -3025 0
-2826 -3026 0
-2827 -3027 0
-2828 -3028 0
-2825 -3029 0
-2826 -3030 0
-2827 -3031 0
-2828 -3032 0
-2825 -3033 0
-2826 -3034 0
-2827 -3035 0
-2828 -3036 0
-2825 -3037 0
-2826 -3038 0
-2827 -3039 0
-2828 -3040 0
-2825 -3041 0
-2826 -3042 0
-2827 -3043 0
-2828 -3044 0
-2825 -3045 0
-2826 -3046 0
-2827 -3047 0
-2828 -3048 0
-2825 -3049 0
-2826 -3050 0
-2827 -3051 0
-2828 -3052 0
-2829 -2833 0
-2830 -2834 0
-2831 -2835 0
-2832 -2836 0
-2829 -3013 0
-2830 -3014 0
-2831 -3015 0
-2832 -3016 0
-2829 -3053 0
-2830 -3054 0
-2831 -3055 0
-2832 -3056 0
-2829 -3057 0
-2830 -3058 0
-2831 -3059 0
-2832 -3060 0
-2829 -3061 0
-2830 -3062 0
-2831 -3063 0
-2832 -3064 0
-2829 -3065 0
-2830 -3066 0
-2831 -3067 0
-2832 -3068 0
-2829 -3069 0
-2830 -3070 0
-2831 -3071 0
-2832 -3072 0
-2829 -3073 0
-2830 -3074 0
-2831 -3075 0
-2832 -3076 0
-2829 -3077 0
-2830 -3078 0
-2831 -3079 0
-2832 -3080 0
-2829 -3081 0
-2830 -3082 0
-2831 -3083 0
-2832 -3084 0
-2829 -3085 0
-2830 -3086 0
-2831 -3087 0
-2832 -3088 0
-2833 -2837 0
-2834 -2838 0
-2835 -2839 0
-2836 -2840 0
-2833 -3089 0
-2834 -3090 0
-2835 -3091 0
-2836 -3092 0
-2833 -3093 0
-2834 -3094 0
-2835 -3095 0
-2836 -3096 0
-2833 -3097 0
-2834 -3098 0
-2835 -3099 0
-2836 -3100 0
-2833 -3101 0
-2834 -3102 0
-2835 -3103 0
-2836 -3104 0
-2833 -3105 0
-2834 -3106 0
-2835 -3107 0
-2836 -3108 0
-2833 -3109 0
-2834 -3110 0
-2835 -3111 0
-2836 -3112 0
-2833 -3113 0
-2834 -3114 0
-2835 -3115 0
-2836 -3116 0
-2833 -3117 0
-2834 -3118 0
-2835 -3119 0
-2836 -3120 0
-2833 -3121 0
-2834 -3122 0
-2835 -3123 0
-2836 -3124 0
-2833 -3125 0
-2834 -3126 0
-2835 -3127 0
-2836 -3128 0
-2837 -2905 0
-2838 -2906 0
-2839 -2907 0
-2840 -2908 0
-2837 -3129 0
-2838 -3130 0
-2839 -3131 0
-2840 -3132 0
-2837 -3133 0
-2838 -3134 0
-2839 -3135 0
-2840 -3136 0
-2837 -3137 0
-2838 -3138 0
-2839 -3139 0
-2840 -3140 0
-2837 -3141 0
-2838 -3142 0
-2839 -3143 0
-2840 -3144 0
-2837 -3145 0
-2838 -3146 0
-2839 -3147 0
-2840 -3148 0
-2837 -3149 0
-2838 -3150 0
-2839 -3151 0
-2840 -3152 0
-2837 -3153 0
-2838 -3154 0
-2839 -3155 0
-2840 -3156 0
-2837 -3157 0
-2838 -3158 0
-2839 -3159 0
-2840 -3160 0
-2837 -3161 0
-2838 -3162 0
-2839 -3163 0
-2840 -3164 0
-2837 -3165 0
-2838 -3166 0
-2839 -3167 0
-2840 -3168 0
-2837 -3169 0
-2838 -3170 0
-2839 -3171 0
-2840 -3172 0
-2837 -3173 0
-2838 -3174 0
-2839 -3175 0
-2840 -3176 0
-2837 -3177 0
-2838 -3178 0
-2839 -3179 0
-2840 -3180 0
-2837 -3181 0
-2838 -3182 0
-2839 -3183 0
-2840 -3184 0
-2837 -3185 0
-2838 -3186 0
-2839 -3187 0
-2840 -3188 0
-2837 -3189 0
-2838 -3190 0
-2839 -3191 0
-2840 -3192 0
-2837 -3193 0
-2838 -3194 0
-2839 -3195 0
-2840 -3196 0
-2841 -2845 0
-2842 -2846 0
-2843 -2847 0
-2844 -2848 0
-2841 -2969 0
-2842 -2970 0
-2843 -2971 0
-2844 -2972 0
-2841 -3141 0
-2842 -3142 0
-2843 -3143 0
-2844 -3144 0
-2841 -3293 0
-2842 -3294 0
-2843 -3295 0
-2844 -3296 0
-2841 -3349 0
-2842 -3350 0
-2843 -3351 0
-2844 -3352 0
-2841 -3353 0
-2842 -3354 0
-2843 -3355 0
-2844 -3356 0
-2841 -3357 0
-2842 -3358 0
-2843 -3359 0
-2844 -3360 0
-2841 -3361 0
-2842 -3362 0
-2843 -3363 0
-2844 -3364 0
-2841 -3365 0
-2842 -3366 0
-2843 -3367 0
-2844 -3368 0
-2841 -3369 0
-2842 -3370 0
-2843 -3371 0
-2844 -3372 0
-2841 -3373 0
-2842 -3374 0
-2843 -3375 0
-2844 -3376 0
-2841 -3377 0
-2842 -3378 0
-2843 -3379 0
-2844 -3380 0
-2841 -3381 0
-2842 -3382 0
-2843 -3383 0
-2844 -3384 0
-2841 -3385 0
-2842 -3386 0
-2843 -3387 0
-2844 -3388 0
-2841 -3389 0
-2842 -3390 0
-2843 -3391 0
-2844 -3392 0
-2845 -2849 0
-2846 -2850 0
-2847 -2851 0
-2848 -2852 0
-2845 -2917 0
-2846 -2918 0
-2847 -2919 0
-2848 -2920 0
-2845 -3093 0
-2846 -3094 0
-2847 -3095 0
-2848 -3096 0
-2845 -3393 0
-2846 -3394 0
-2847 -3395 0
-2848 -3396 0
-2845 -3397 0
-2846 -3398 0
-2847 -3399 0
-2848 -3400 0
-2845 -3401 0
-2846 -3402 0
-2847 -3403 0
-2848 -3404 0
-2845 -3405 0
-2846 -3406 0
-2847 -3407 0
-2848 -3408 0
-2845 -3409 0
-2846 -3410 0
-2847 -3411 0
-2848 -3412 0
-2845 -3413 0
-2846 -3414 0
-2847 -3415 0
-2848 -3416 0
-2845 -3417 0
-2846 -3418 0
-2847 -3419 0
-2848 -3420 0
-2845 -3421 0
-2846 -3422 0
-2847 -3423 0
-2848 -3424 0
-2845 -3425 0
-2846 -3426 0
-2847 -3427 0
-2848 -3428 0
-2845 -3429 0
-2846 -3430 0
-2847 -3431 0
-2848 -3432 0
-2845 -3433 0
-2846 -3434 0
-2847 -3435 0
-2848 -3436 0
-2845 -3437 0
-2846 -3438 0
-2847 -3439 0
-2848 -3440 0
-2845 -3441 0
-2846 -3442 0
-2847 -3443 0
-2848 -3444 0
-2849 -2973 0
-2850 -2974 0
-2851 -2975 0
-2852 -2976 0
-2849 -3061 0
-2850 -3062 0
-2851 -3063 0
-2852 -3064 0
-2849 -3097 0
-2850 -3098 0
-2851 -3099 0
-2852 -3100 0
-2849 -3145 0
-2850 -3146 0
-2851 -3147 0
-2852 -3148 0
-2849 -3201 0
-2850 -3202 0
-2851 -3203 0
-2852 -3204 0
-2849 -3393 0
-2850 -3394 0
-2851 -3395 0
-2852 -3396 0
-2849 -3445 0
-2850 -3446 0
-2851 -3447 0
-2852 -3448 0
-2849 -3449 0
-2850 -3450 0
-2851 -3451 0
-2852 -3452 0
-2849 -3453 0
-2850 -3454 0
-2851 -3455 0
-2852 -3456 0
-2849 -3457 0
-2850 -3458 0
-2851 -3459 0
-2852 -3460 0
-2849 -3461 0
-2850 -3462 0
-2851 -3463 0
-2852 -3464 0
-2849 -3465 0
-2850 -3466 0
-2851 -3467 0
-2852 -3468 0
-2849 -3469 0
-2850 -3470 0
-2851 -3471 0
-2852 -3472 0
-2849 -3473 0
-2850 -3474 0
-2851 -3475 0
-2852 -3476 0
-2849 -3477 0
-2850 -3478 0
-2851 -3479 0
-2852 -3480 0
-2849 -3481 0
-2850 -3482 0
-2851 -3483 0
-2852 -3484 0
-2849 -3485 0
-2850 -3486 0
-2851 -3487 0
-2852 -3488 0
-2849 -3489 0
-2850 -3490 0
-2851 -3491 0
-2852 -3492 0
-2849 -3493 0
-2850 -3494 0
-2851 -3495 0
-2852 -3496 0
-2853 -2857 0
-2854 -2858 0
-2855 -2859 0
-2856 -2860 0
-2853 -2921 0
-2854 -2922 0
-2855 -2923 0
-2856 -2924 0
-2853 -2977 0
-2854 -2978 0
-2855 -2979 0
-2856 -2980 0
-2853 -3065 0
-2854 -3066 0
-2855 -3067 0
-2856 -3068 0
-2853 -3149 0
-2854 -3150 0
-2855 -3151 0
-2856 -3152 0
-2853 -3245 0
-2854 -3246 0
-2855 -3247 0
-2856 -3248 0
-2853 -3297 0
-2854 -3298 0
-2855 -3299 0
-2856 -3300 0
-2853 -3397 0
-2854 -3398 0
-2855 -3399 0
-2856 -3400 0
-2853 -3445 0
-2854 -3446 0
-2855 -3447 0
-2856 -3448 0
-2853 -3497 0
-2854 -3498 0
-2855 -3499 0
-2856 -3500 0
-2853 -3501 0
-2854 -3502 0
-2855 -3503 0
-2856 -3504 0
-2853 -3505 0
-2854 -3506 0
-2855 -3507 0
-2856 -3508 0
-2853 -3509 0
-2854 -3510 0
-2855 -3511 0
-2856 -3512 0
-2853 -3513 0
-2854 -3514 0
-2855 -3515 0
-2856 -3516 0
-2853 -3517 0
-2854 -3518 0
-2855 -3519 0
-2856 -3520 0
-2857 -3101 0
-2858 -3102 0
-2859 -3103 0
-2860 -3104 0
-2857 -3153 0
-2858 -3154 0
-2859 -3155 0
-2860 -3156 0
-2857 -3205 0
-2858 -3206 0
-2859 -3207 0
-2860 -3208 0
-2857 -3249 0
-2858 -3250 0
-2859 -3251 0
-2860 -3252 0
-2857 -3301 0
-2858 -3302 0
-2859 -3303 0
-2860 -3304 0
-2857 -3401 0
-2858 -3402 0
-2859 -3403 0
-2860 -3404 0
-2857 -3449 0
-2858 -3450 0
-2859 -3451 0
-2860 -3452 0
-2857 -3521 0
-2858 -3522 0
-2859 -3523 0
-2860 -3524 0
-2857 -3525 0
-2858 -3526 0
-2859 -3527 0
-2860 -3528 0
-2857 -3529 0
-2858 -3530 0
-2859 -3531 0
-2860 -3532 0
-2857 -3533 0
-2858 -3534 0
-2859 -3535 0
-2860 -3536 0
-2857 -3537 0
-2858 -3538 0
-2859 -3539 0
-2860 -3540 0
-2857 -3541 0
-2858 -3542 0
-2859 -3543 0
-2860 -3544 0
-2857 -3545 0
-2858 -3546 0
-2859 -3547 0
-2860 -3548 0
-2857 -3549 0
-2858 -3550 0
-2859 -3551 0
-2860 -3552 0
-2861 -2865 0
-2862 -2866 0
-2863 -2867 0
-2864 -2868 0
-2861 -2877 0
-2862 -2878 0
-2863 -2879 0
-2864 -2880 0
-2861 -2937 0
-2862 -2938 0
-2863 -2939 0
-2864 -2940 0
-2861 -3073 0
-2862 -3074 0
-2863 -3075 0
-2864 -3076 0
-2861 -3109 0
-2862 -3110 0
-2863 -3111 0
-2864 -3112 0
-2861 -3169 0
-2862 -3170 0
-2863 -3171 0
-2864 -3172 0
-2861 -3313 0
-2862 -3314 0
-2863 -3315 0
-2864 -3316 0
-2861 -3365 0
-2862 -3366 0
-2863 -3367 0
-2864 -3368 0
-2861 -3409 0
-2862 -3410 0
-2863 -3411 0
-2864 -3412 0
-2861 -3465 0
-2862 -3466 0
-2863 -3467 0
-2864 -3468 0
-2861 -3521 0
-2862 -3522 0
-2863 -3523 0
-2864 -3524 0
-2861 -3585 0
-2862 -3586 0
-2863 -3587 0
-2864 -3588 0
-2861 -3617 0
-2862 -3618 0
-2863 -3619 0
-2864 -3620 0
-2861 -3653 0
-2862 -3654 0
-2863 -3655 0
-2864 -3656 0
-2861 -3685 0
-2862 -3686 0
-2863 -3687 0
-2864 -3688 0
-2861 -3689 0
-2862 -3690 0
-2863 -3691 0
-2864 -3692 0
-2861 -3693 0
-2862 -3694 0
-2863 -3695 0
-2864 -3696 0
-2861 -3697 0
-2862 -3698 0
-2863 -3699 0
-2864 -3700 0
-2865 -2869 0
-2866 -2870 0
-2867 -2871 0
-2868 -2872 0
-2865 -2941 0
-2866 -2942 0
-2867 -2943 0
-2868 -2944 0
-2865 -3173 0
-2866 -3174 0
-2867 -3175 0
-2868 -3176 0
-2865 -3413 0
-2866 -3414 0
-2867 -3415 0
-2868 -3416 0
-2865 -3469 0
-2866 -3470 0
-2867 -3471 0
-2868 -3472 0
-2865 -3525 0
-2866 -3526 0
-2867 -3527 0
-2868 -3528 0
-2865 -3589 0
-2866 -3590 0
-2867 -3591 0
-2868 -3592 0
-2865 -3621 0
-2866 -3622 0
-2867 -3623 0
-2868 -3624 0
-2865 -3685 0
-2866 -3686 0
-2867 -3687 0
-2868 -3688 0
-2865 -3701 0
-2866 -3702 0
-2867 -3703 0
-2868 -3704 0
-2865 -3705 0
-2866 -3706 0
-2867 -3707 0
-2868 -3708 0
-2865 -3709 0
-2866 -3710 0
-2867 -3711 0
-2868 -3712 0
-2865 -3713 0
-2866 -3714 0
-2867 -3715 0
-2868 -3716 0
-2865 -3717 0
-2866 -3718 0
-2867 -3719 0
-2868 -3720 0
-2865 -3721 0
-2866 -3722 0
-2867 -3723 0
-2868 -3724 0
-2865 -3725 0
-2866 -3726 0
-2867 -3727 0
-2868 -3728 0
-2869 -2945 0
-2870 -2946 0
-2871 -2947 0
-2872 -2948 0
-2869 -2993 0
-2870 -2994 0
-2871 -2995 0
-2872 -2996 0
-2869 -3029 0
-2870 -3030 0
-2871 -3031 0
-2872 -3032 0
-2869 -3177 0
-2870 -3178 0
-2871 -3179 0
-2872 -3180 0
-2869 -3221 0
-2870 -3222 0
-2871 -3223 0
-2872 -3224 0
-2869 -3269 0
-2870 -3270 0
-2871 -3271 0
-2872 -3272 0
-2869 -3317 0
-2870 -3318 0
-2871 -3319 0
-2872 -3320 0
-2869 -3369 0
-2870 -3370 0
-2871 -3371 0
-2872 -3372 0
-2869 -3417 0
-2870 -3418 0
-2871 -3419 0
-2872 -3420 0
-2869 -3473 0
-2870 -3474 0
-2871 -3475 0
-2872 -3476 0
-2869 -3529 0
-2870 -3530 0
-2871 -3531 0
-2872 -3532 0
-2869 -3557 0
-2870 -3558 0
-2871 -3559 0
-2872 -3560 0
-2869 -3593 0
-2870 -3594 0
-2871 -3595 0
-2872 -3596 0
-2869 -3625 0
-2870 -3626 0
-2871 -3627 0
-2872 -3628 0
-2869 -3657 0
-2870 -3658 0
-2871 -3659 0
-2872 -3660 0
-2869 -3705 0
-2870 -3706 0
-2871 -3707 0
-2872 -3708 0
-2869 -3729 0
-2870 -3730 0
-2871 -3731 0
-2872 -3732 0
-2869 -3733 0
-2870 -3734 0
-2871 -3735 0
-2872 -3736 0
-2869 -3737 0
-2870 -3738 0
-2871 -3739 0
-2872 -3740 0
-2869 -3741 0
-2870 -3742 0
-2871 -3743 0
-2872 -3744 0
-2869 -3745 0
-2870 -3746 0
-2871 -3747 0
-2872 -3748 0
-2869 -3749 0
-2870 -3750 0
-2871 -3751 0
-2872 -3752 0
-2869 -3753 0
-2870 -3754 0
-2871 -3755 0
-2872 -3756 0
-2873 -2877 0
-2874 -2878 0
-2875 -2879 0
-2876 -2880 0
-2873 -3001 0
-2874 -3002 0
-2875 -3003 0
-2876 -3004 0
-2873 -3037 0
-2874 -3038 0
-2875 -3039 0
-2876 -3040 0
-2873 -3077 0
-2874 -3078 0
-2875 -3079 0
-2876 -3080 0
-2873 -3113 0
-2874 -3114 0
-2875 -3115 0
-2876 -3116 0
-2873 -3225 0
-2874 -3226 0
-2875 -3227 0
-2876 -3228 0
-2873 -3277 0
-2874 -3278 0
-2875 -3279 0
-2876 -3280 0
-2873 -3325 0
-2874 -3326 0
-2875 -3327 0
-2876 -3328 0
-2873 -3425 0
-2874 -3426 0
-2875 -3427 0
-2876 -3428 0
-2873 -3481 0
-2874 -3482 0
-2875 -3483 0
-2876 -3484 0
-2873 -3497 0
-2874 -3498 0
-2875 -3499 0
-2876 -3500 0
-2873 -3533 0
-2874 -3534 0
-2875 -3535 0
-2876 -3536 0
-2873 -3565 0
-2874 -3566 0
-2875 -3567 0
-2876 -3568 0
-2873 -3597 0
-2874 -3598 0
-2875 -3599 0
-2876 -3600 0
-2873 -3629 0
-2874 -3630 0
-2875 -3631 0
-2876 -3632 0
-2873 -3665 0
-2874 -3666 0
-2875 -3667 0
-2876 -3668 0
-2873 -3769 0
-2874 -3770 0
-2875 -3771 0
-2876 -3772 0
-2873 -3773 0
-2874 -3774 0
-2875 -3775 0
-2876 -3776 0
-2873 -3777 0
-2874 -3778 0
-2875 -3779 0
-2876 -3780 0
-2873 -3781 0
-2874 -3782 0
-2875 -3783 0
-2876 -3784 0
-2873 -3785 0
-2874 -3786 0
-2875 -3787 0
-2876 -3788 0
-2877 -3041 0
-2878 -3042 0
-2879 -3043 0
-2880 -3044 0
-2877 -3081 0
-2878 -3082 0
-2879 -3083 0
-2880 -3084 0
-2877 -3117 0
-2878 -3118 0
-2879 -3119 0
-2880 -3120 0
-2877 -3181 0
-2878 -3182 0
-2879 -3183 0
-2880 -3184 0
-2877 -3229 0
-2878 -3230 0
-2879 -3231 0
-2880 -3232 0
-2877 -3329 0
-2878 -3330 0
-2879 -3331 0
-2880 -3332 0
-2877 -3373 0
-2878 -3374 0
-2879 -3375 0
-2880 -3376 0
-2877 -3429 0
-2878 -3430 0
-2879 -3431 0
-2880 -3432 0
-2877 -3501 0
-2878 -3502 0
-2879 -3503 0
-2880 -3504 0
-2877 -3537 0
-2878 -3538 0
-2879 -3539 0
-2880 -3540 0
-2877 -3569 0
-2878 -3570 0
-2879 -3571 0
-2880 -3572 0
-2877 -3601 0
-2878 -3602 0
-2879 -3603 0
-2880 -3604 0
-2877 -3633 0
-2878 -3634 0
-2879 -3635 0
-2880 -3636 0
-2877 -3669 0
-2878 -3670 0
-2879 -3671 0
-2880 -3672 0
-2877 -3689 0
-2878 -3690 0
-2879 -3691 0
-2880 -3692 0
-2877 -3769 0
-2878 -3770 0
-2879 -3771 0
-2880 -3772 0
-2877 -3789 0
-2878 -3790 0
-2879 -3791 0
-2880 -3792 0
-2881 -2885 0
-2882 -2886 0
-2883 -2887 0
-2884 -2888 0
-2881 -2901 0
-2882 -2902 0
-2883 -2903 0
-2884 -2904 0
-2881 -2953 0
-2882 -2954 0
-2883 -2955 0
-2884 -2956 0
-2881 -3045 0
-2882 -3046 0
-2883 -3047 0
-2884 -3048 0
-2881 -3085 0
-2882 -3086 0
-2883 -3087 0
-2884 -3088 0
-2881 -3121 0
-2882 -3122 0
-2883 -3123 0
-2884 -3124 0
-2881 -3185 0
-2882 -3186 0
-2883 -3187 0
-2884 -3188 0
-2881 -3377 0
-2882 -3378 0
-2883 -3379 0
-2884 -3380 0
-2881 -3433 0
-2882 -3434 0
-2883 -3435 0
-2884 -3436 0
-2881 -3485 0
-2882 -3486 0
-2883 -3487 0
-2884 -3488 0
-2881 -3605 0
-2882 -3606 0
-2883 -3607 0
-2884 -3608 0
-2881 -3637 0
-2882 -3638 0
-2883 -3639 0
-2884 -3640 0
-2881 -3673 0
-2882 -3674 0
-2883 -3675 0
-2884 -3676 0
-2881 -3693 0
-2882 -3694 0
-2883 -3695 0
-2884 -3696 0
-2881 -3737 0
-2882 -3738 0
-2883 -3739 0
-2884 -3740 0
-2881 -3761 0
-2882 -3762 0
-2883 -3763 0
-2884 -3764 0
-2881 -3773 0
-2882 -3774 0
-2883 -3775 0
-2884 -3776 0
-2881 -3793 0
-2882 -3794 0
-2883 -3795 0
-2884 -3796 0
-2881 -3797 0
-2882 -3798 0
-2883 -3799 0
-2884 -3800 0
-2885 -2889 0
-2886 -2890 0
-2887 -2891 0
-2888 -2892 0
-2885 -3233 0
-2886 -3234 0
-2887 -3235 0
-2888 -3236 0
-2885 -3281 0
-2886 -3282 0
-2887 -3283 0
-2888 -3284 0
-2885 -3437 0
-2886 -3438 0
-2887 -3439 0
-2888 -3440 0
-2885 -3489 0
-2886 -3490 0
-2887 -3491 0
-2888 -3492 0
-2885 -3641 0
-2886 -3642 0
-2887 -3643 0
-2888 -3644 0
-2885 -3709 0
-2886 -3710 0
-2887 -3711 0
-2888 -3712 0
-2885 -3741 0
-2886 -3742 0
-2887 -3743 0
-2888 -3744 0
-2885 -3777 0
-2886 -3778 0
-2887 -3779 0
-2888 -3780 0
-2885 -3793 0
-2886 -3794 0
-2887 -3795 0
-2888 -3796 0
-2885 -3801 0
-2886 -3802 0
-2887 -3803 0
-2888 -3804 0
-2889 -2893 0
-2890 -2894 0
-2891 -2895 0
-2892 -2896 0
-2889 -3189 0
-2890 -3190 0
-2891 -3191 0
-2892 -3192 0
-2889 -3237 0
-2890 -3238 0
-2891 -3239 0
-2892 -3240 0
-2889 -3333 0
-2890 -3334 0
-2891 -3335 0
-2892 -3336 0
-2889 -3505 0
-2890 -3506 0
-2891 -3507 0
-2892 -3508 0
-2889 -3645 0
-2890 -3646 0
-2891 -3647 0
-2892 -3648 0
-2889 -3677 0
-2890 -3678 0
-2891 -3679 0
-2892 -3680 0
-2889 -3697 0
-2890 -3698 0
-2891 -3699 0
-2892 -3700 0
-2889 -3713 0
-2890 -3714 0
-2891 -3715 0
-2892 -3716 0
-2889 -3745 0
-2890 -3746 0
-2891 -3747 0
-2892 -3748 0
-2893 -2897 0
-2894 -2898 0
-2895 -2899 0
-2896 -2900 0
-2893 -2957 0
-2894 -2958 0
-2895 -2959 0
-2896 -2960 0
-2893 -3241 0
-2894 -3242 0
-2895 -3243 0
-2896 -3244 0
-2893 -3285 0
-2894 -3286 0
-2895 -3287 0
-2896 -3288 0
-2893 -3337 0
-2894 -3338 0
-2895 -3339 0
-2896 -3340 0
-2893 -3381 0
-2894 -3382 0
-2895 -3383 0
-2896 -3384 0
-2893 -3509 0
-2894 -3510 0
-2895 -3511 0
-2896 -3512 0
-2893 -3541 0
-2894 -3542 0
-2895 -3543 0
-2896 -3544 0
-2893 -3681 0
-2894 -3682 0
-2895 -3683 0
-2896 -3684 0
-2893 -3717 0
-2894 -3718 0
-2895 -3719 0
-2896 -3720 0
-2893 -3749 0
-2894 -3750 0
-2895 -3751 0
-2896 -3752 0
-2893 -3805 0
-2894 -3806 0
-2895 -3807 0
-2896 -3808 0
-2897 -2901 0
-2898 -2902 0
-2899 -2903 0
-2900 -2904 0
-2897 -2961 0
-2898 -2962 0
-2899 -2963 0
-2900 -2964 0
-2897 -3005 0
-2898 -3006 0
-2899 -3007 0
-2900 -3008 0
-2897 -3289 0
-2898 -3290 0
-2899 -3291 0
-2900 -3292 0
-2897 -3341 0
-2898 -3342 0
-2899 -3343 0
-2900 -3344 0
-2897 -3385 0
-2898 -3386 0
-2899 -3387 0
-2900 -3388 0
-2897 -3513 0
-2898 -3514 0
-2899 -3515 0
-2900 -3516 0
-2897 -3545 0
-2898 -3546 0
-2899 -3547 0
-2900 -3548 0
-2897 -3573 0
-2898 -3574 0
-2899 -3575 0
-2900 -3576 0
-2897 -3721 0
-2898 -3722 0
-2899 -3723 0
-2900 -3724 0
-2897 -3781 0
-2898 -3782 0
-2899 -3783 0
-2900 -3784 0
-2897 -3805 0
-2898 -3806 0
-2899 -3807 0
-2900 -3808 0
-2901 -3009 0
-2902 -3010 0
-2903 -3011 0
-2904 -3012 0
-2901 -3049 0
-2902 -3050 0
-2903 -3051 0
-2904 -3052 0
-2901 -3125 0
-2902 -3126 0
-2903 -3127 0
-2904 -3128 0
-2901 -3193 0
-2902 -3194 0
-2903 -3195 0
-2904 -3196 0
-2901 -3345 0
-2902 -3346 0
-2903 -3347 0
-2904 -3348 0
-2901 -3389 0
-2902 -3390 0
-2903 -3391 0
-2904 -3392 0
-2901 -3441 0
-2902 -3442 0
-2903 -3443 0
-2904 -3444 0
-2901 -3493 0
-2902 -3494 0
-2903 -3495 0
-2904 -3496 0
-2901 -3517 0
-2902 -3518 0
-2903 -3519 0
-2904 -3520 0
-2901 -3549 0
-2902 -3550 0
-2903 -3551 0
-2904 -3552 0
-2901 -3577 0
-2902 -3578 0
-2903 -3579 0
-2904 -3580 0
-2901 -3609 0
-2902 -3610 0
-2903 -3611 0
-2904 -3612 0
-2901 -3725 0
-2902 -3726 0
-2903 -3727 0
-2904 -3728 0
-2901 -3753 0
-2902 -3754 0
-2903 -3755 0
-2904 -3756 0
-2901 -3765 0
-2902 -3766 0
-2903 -3767 0
-2904 -3768 0
-2901 -3785 0
-2902 -3786 0
-2903 -3787 0
-2904 -3788 0
-2901 -3789 0
-2902 -3790 0
-2903 -3791 0
-2904 -3792 0
-2901 -3797 0
-2902 -3798 0
-2903 -3799 0
-2904 -3800 0
-2905 -3397 0
-2906 -3398 0
-2907 -3399 0
-2908 -3400 0
-2905 -3841 0
-2906 -3842 0
-2907 -3843 0
-2908 -3844 0
-2905 -3845 0
-2906 -3846 0
-2907 -3847 0
-2908 -3848 0
-2905 -3849 0
-2906 -3850 0
-2907 -3851 0
-2908 -3852 0
-2905 -3853 0
-2906 -3854 0
-2907 -3855 0
-2908 -3856 0
-2905 -3857 0
-2906 -3858 0
-2907 -3859 0
-2908 -3860 0
-2905 -3861 0
-2906 -3862 0
-2907 -3863 0
-2908 -3864 0
-2905 -3865 0
-2906 -3866 0
-2907 -3867 0
-2908 -3868 0
-2905 -3869 0
-2906 -3870 0
-2907 -3871 0
-2908 -3872 0
-2909 -3129 0
-2910 -3130 0
-2911 -3131 0
-2912 -3132 0
-2909 -3841 0
-2910 -3842 0
-2911 -3843 0
-2912 -3844 0
-2909 -3873 0
-2910 -3874 0
-2911 -3875 0
-2912 -3876 0
-2909 -3877 0
-2910 -3878 0
-2911 -3879 0
-2912 -3880 0
-2909 -3881 0
-2910 -3882 0
-2911 -3883 0
-2912 -3884 0
-2913 -2965 0
-2914 -2966 0
-2915 -2967 0
-2916 -2968 0
-2913 -3101 0
-2914 -3102 0
-2915 -3103 0
-2916 -3104 0
-2913 -3137 0
-2914 -3138 0
-2915 -3139 0
-2916 -3140 0
-2913 -3845 0
-2914 -3846 0
-2915 -3847 0
-2916 -3848 0
-2913 -3905 0
-2914 -3906 0
-2915 -3907 0
-2916 -3908 0
-2913 -3909 0
-2914 -3910 0
-2915 -3911 0
-2916 -3912 0
-2913 -3913 0
-2914 -3914 0
-2915 -3915 0
-2916 -3916 0
-2913 -3917 0
-2914 -3918 0
-2915 -3919 0
-2916 -3920 0
-2913 -3921 0
-2914 -3922 0
-2915 -3923 0
-2916 -3924 0
-2913 -3925 0
-2914 -3926 0
-2915 -3927 0
-2916 -3928 0
-2917 -3821 0
-2918 -3822 0
-2919 -3823 0
-2920 -3824 0
-2917 -3853 0
-2918 -3854 0
-2919 -3855 0
-2920 -3856 0
-2917 -3945 0
-2918 -3946 0
-2919 -3947 0
-2920 -3948 0
-2917 -3949 0
-2918 -3950 0
-2919 -3951 0
-2920 -3952 0
-2917 -3953 0
-2918 -3954 0
-2919 -3955 0
-2920 -3956 0
-2917 -3957 0
-2918 -3958 0
-2919 -3959 0
-2920 -3960 0
-2917 -3961 0
-2918 -3962 0
-2919 -3963 0
-2920 -3964 0
-2921 -2933 0
-2922 -2934 0
-2923 -2935 0
-2924 -2936 0
-2921 -2977 0
-2922 -2978 0
-2923 -2979 0
-2924 -2980 0
-2921 -3149 0
-2922 -3150 0
-2923 -3151 0
-2924 -3152 0
-2921 -3945 0
-2922 -3946 0
-2923 -3947 0
-2924 -3948 0
-2921 -3973 0
-2922 -3974 0
-2923 -3975 0
-2924 -3976 0
-2921 -3977 0
-2922 -3978 0
-2923 -3979 0
-2924 -3980 0
-2925 -2929 0
-2926 -2930 0
-2927 -2931 0
-2928 -2932 0
-2925 -2981 0
-2926 -2982 0
-2927 -2983 0
-2928 -2984 0
-2925 -3025 0
-2926 -3026 0
-2927 -3027 0
-2928 -3028 0
-2925 -3097 0
-2926 -3098 0
-2927 -3099 0
-2928 -3100 0
-2925 -3101 0
-2926 -3102 0
-2927 -3103 0
-2928 -3104 0
-2925 -3161 0
-2926 -3162 0
-2927 -3163 0
-2928 -3164 0
-2925 -3449 0
-2926 -3450 0
-2927 -3451 0
-2928 -3452 0
-2925 -3877 0
-2926 -3878 0
-2927 -3879 0
-2928 -3880 0
-2925 -3933 0
-2926 -3934 0
-2927 -3935 0
-2928 -3936 0
-2925 -3949 0
-2926 -3950 0
-2927 -3951 0
-2928 -3952 0
-2925 -4001 0
-2926 -4002 0
-2927 -4003 0
-2928 -4004 0
-2925 -4005 0
-2926 -4006 0
-2927 -4007 0
-2928 -4008 0
-2925 -4009 0
-2926 -4010 0
-2927 -4011 0
-2928 -4012 0
-2925 -4013 0
-2926 -4014 0
-2927 -4015 0
-2928 -4016 0
-2925 -4017 0
-2926 -4018 0
-2927 -4019 0
-2928 -4020 0
-2925 -4021 0
-2926 -4022 0
-2927 -4023 0
-2928 -4024 0
-2925 -4025 0
-2926 -4026 0
-2927 -4027 0
-2928 -4028 0
-2925 -4029 0
-2926 -4030 0
-2927 -4031 0
-2928 -4032 0
-2929 -2933 0
-2930 -2934 0
-2931 -2935 0
-2932 -2936 0
-2929 -2985 0
-2930 -2986 0
-2931 -2987 0
-2932 -2988 0
-2929 -3097 0
-2930 -3098 0
-2931 -3099 0
-2932 -3100 0
-2929 -3445 0
-2930 -3446 0
-2931 -3447 0
-2932 -3448 0
-2929 -3885 0
-2930 -3886 0
-2931 -3887 0
-2932 -3888 0
-2929 -3937 0
-2930 -3938 0
-2931 -3939 0
-2932 -3940 0
-2929 -3953 0
-2930 -3954 0
-2931 -3955 0
-2932 -3956 0
-2929 -4033 0
-2930 -4034 0
-2931 -4035 0
-2932 -4036 0
-2929 -4037 0
-2930 -4038 0
-2931 -4039 0
-2932 -4040 0
-2929 -4041 0
-2930 -4042 0
-2931 -4043 0
-2932 -4044 0
-2929 -4045 0
-2930 -4046 0
-2931 -4047 0
-2932 -4048 0
-2929 -4049 0
-2930 -4050 0
-2931 -4051 0
-2932 -4052 0
-2929 -4053 0
-2930 -4054 0
-2931 -4055 0
-2932 -4056 0
-2929 -4057 0
-2930 -4058 0
-2931 -4059 0
-2932 -4060 0
-2929 -4061 0
-2930 -4062 0
-2931 -4063 0
-2932 -4064 0
-2933 -2989 0
-2934 -2990 0
-2935 -2991 0
-2936 -2992 0
-2933 -3165 0
-2934 -3166 0
-2935 -3167 0
-2936 -3168 0
-2933 -3825 0
-2934 -3826 0
-2935 -3827 0
-2936 -3828 0
-2933 -4033 0
-2934 -4034 0
-2935 -4035 0
-2936 -4036 0
-2933 -4065 0
-2934 -4066 0
-2935 -4067 0
-2936 -4068 0
-2933 -4069 0
-2934 -4070 0
-2935 -4071 0
-2936 -4072 0
-2933 -4073 0
-2934 -4074 0
-2935 -4075 0
-2936 -4076 0
-2933 -4077 0
-2934 -4078 0
-2935 -4079 0
-2936 -4080 0
-2937 -2941 0
-2938 -2942 0
-2939 -2943 0
-2940 -2944 0
-2937 -3169 0
-2938 -3170 0
-2939 -3171 0
-2940 -3172 0
-2937 -3889 0
-2938 -3890 0
-2939 -3891 0
-2940 -3892 0
-2937 -3905 0
-2938 -3906 0
-2939 -3907 0
-2940 -3908 0
-2937 -4001 0
-2938 -4002 0
-2939 -4003 0
-2940 -4004 0
-2937 -4037 0
-2938 -4038 0
-2939 -4039 0
-2940 -4040 0
-2941 -2945 0
-2942 -2946 0
-2943 -2947 0
-2944 -2948 0
-2941 -3173 0
-2942 -3174 0
-2943 -3175 0
-2944 -3176 0
-2941 -3809 0
-2942 -3810 0
-2943 -3811 0
-2944 -3812 0
-2941 -3829 0
-2942 -3830 0
-2943 -3831 0
-2944 -3832 0
-2941 -3861 0
-2942 -3862 0
-2943 -3863 0
-2944 -3864 0
-2941 -3893 0
-2942 -3894 0
-2943 -3895 0
-2944 -3896 0
-2941 -3909 0
-2942 -3910 0
-2943 -3911 0
-2944 -3912 0
-2941 -3957 0
-2942 -3958 0
-2943 -3959 0
-2944 -3960 0
-2941 -3973 0
-2942 -3974 0
-2943 -3975 0
-2944 -3976 0
-2941 -3981 0
-2942 -3982 0
-2943 -3983 0
-2944 -3984 0
-2941 -4005 0
-2942 -4006 0
-2943 -4007 0
-2944 -4008 0
-2941 -4065 0
-2942 -4066 0
-2943 -4067 0
-2944 -4068 0
-2941 -4081 0
-2942 -4082 0
-2943 -4083 0
-2944 -4084 0
-2945 -2949 0
-2946 -2950 0
-2947 -2951 0
-2948 -2952 0
-2945 -2993 0
-2946 -2994 0
-2947 -2995 0
-2948 -2996 0
-2945 -3177 0
-2946 -3178 0
-2947 -3179 0
-2948 -3180 0
-2945 -3813 0
-2946 -3814 0
-2947 -3815 0
-2948 -3816 0
-2945 -3833 0
-2946 -3834 0
-2947 -3835 0
-2948 -3836 0
-2945 -3865 0
-2946 -3866 0
-2947 -3867 0
-2948 -3868 0
-2945 -3881 0
-2946 -3882 0
-2947 -3883 0
-2948 -3884 0
-2945 -3941 0
-2946 -3942 0
-2947 -3943 0
-2948 -3944 0
-2945 -3961 0
-2946 -3962 0
-2947 -3963 0
-2948 -3964 0
-2945 -3969 0
-2946 -3970 0
-2947 -3971 0
-2948 -3972 0
-2945 -3985 0
-2946 -3986 0
-2947 -3987 0
-2948 -3988 0
-2945 -3989 0
-2946 -3990 0
-2947 -3991 0
-2948 -3992 0
-2945 -4041 0
-2946 -4042 0
-2947 -4043 0
-2948 -4044 0
-2945 -4069 0
-2946 -4070 0
-2947 -4071 0
-2948 -4072 0
-2945 -4085 0
-2946 -4086 0
-2947 -4087 0
-2948 -4088 0
-2945 -4089 0
-2946 -4090 0
-2947 -4091 0
-2948 -4092 0
-2945 -4093 0
-2946 -4094 0
-2947 -4095 0
-2948 -4096 0
-2949 -2997 0
-2950 -2998 0
-2951 -2999 0
-2952 -3000 0
-2949 -3837 0
-2950 -3838 0
-2951 -3839 0
-2952 -3840 0
-2949 -3897 0
-2950 -3898 0
-2951 -3899 0
-2952 -3900 0
-2949 -3913 0
-2950 -3914 0
-2951 -3915 0
-2952 -3916 0
-2949 -4009 0
-2950 -4010 0
-2951 -4011 0
-2952 -4012 0
-2949 -4045 0
-2950 -4046 0
-2951 -4047 0
-2952 -4048 0
-2949 -4073 0
-2950 -4074 0
-2951 -4075 0
-2952 -4076 0
-2949 -4097 0
-2950 -4098 0
-2951 -4099 0
-2952 -4100 0
-2953 -3185 0
-2954 -3186 0
-2955 -3187 0
-2956 -3188 0
-2953 -3977 0
-2954 -3978 0
-2955 -3979 0
-2956 -3980 0
-2953 -4021 0
-2954 -4022 0
-2955 -4023 0
-2956 -4024 0
-2953 -4053 0
-2954 -4054 0
-2955 -4055 0
-2956 -4056 0
-2953 -4077 0
-2954 -4078 0
-2955 -4079 0
-2956 -4080 0
-2957 -2961 0
-2958 -2962 0
-2959 -2963 0
-2960 -2964 0
-2957 -3869 0
-2958 -3870 0
-2959 -3871 0
-2960 -3872 0
-2957 -3901 0
-2958 -3902 0
-2959 -3903 0
-2960 -3904 0
-2957 -3925 0
-2958 -3926 0
-2959 -3927 0
-2960 -3928 0
-2957 -4089 0
-2958 -4090 0
-2959 -4091 0
-2960 -4092 0
-2961 -3005 0
-2962 -3006 0
-2963 -3007 0
-2964 -3008 0
-2961 -3993 0
-2962 -3994 0
-2963 -3995 0
-2964 -3996 0
-2961 -4093 0
-2962 -4094 0
-2963 -4095 0
-2964 -4096 0
-2961 -4097 0
-2962 -4098 0
-2963 -4099 0
-2964 -4100 0
-2965 -2969 0
-2966 -2970 0
-2967 -2971 0
-2968 -2972 0
-2965 -3065 0
-2966 -3066 0
-2967 -3067 0
-2968 -3068 0
-2965 -4145 0
-2966 -4146 0
-2967 -4147 0
-2968 -4148 0
-2965 -4149 0
-2966 -4150 0
-2967 -4151 0
-2968 -4152 0
-2965 -4153 0
-2966 -4154 0
-2967 -4155 0
-2968 -4156 0
-2965 -4157 0
-2966 -4158 0
-2967 -4159 0
-2968 -4160 0
-2965 -4161 0
-2966 -4162 0
-2967 -4163 0
-2968 -4164 0
-2969 -3153 0
-2970 -3154 0
-2971 -3155 0
-2972 -3156 0
-2969 -3157 0
-2970 -3158 0
-2971 -3159 0
-2972 -3160 0
-2969 -3817 0
-2970 -3818 0
-2971 -3819 0
-2972 -3820 0
-2969 -4165 0
-2970 -4166 0
-2971 -4167 0
-2972 -4168 0
-2969 -4169 0
-2970 -4170 0
-2971 -4171 0
-2972 -4172 0
-2969 -4173 0
-2970 -4174 0
-2971 -4175 0
-2972 -4176 0
-2969 -4177 0
-2970 -4178 0
-2971 -4179 0
-2972 -4180 0
-2969 -4181 0
-2970 -4182 0
-2971 -4183 0
-2972 -4184 0
-2973 -4197 0
-2974 -4198 0
-2975 -4199 0
-2976 -4200 0
-2973 -4201 0
-2974 -4202 0
-2975 -4203 0
-2976 -4204 0
-2973 -4205 0
-2974 -4206 0
-2975 -4207 0
-2976 -4208 0
-2977 -2989 0
-2978 -2990 0
-2979 -2991 0
-2980 -2992 0
-2977 -4209 0
-2978 -4210 0
-2979 -4211 0
-2980 -4212 0
-2977 -4213 0
-2978 -4214 0
-2979 -4215 0
-2980 -4216 0
-2981 -2985 0
-2982 -2986 0
-2983 -2987 0
-2984 -2988 0
-2981 -3061 0
-2982 -3062 0
-2983 -3063 0
-2984 -3064 0
-2981 -3449 0
-2982 -3450 0
-2983 -3451 0
-2984 -3452 0
-2981 -4113 0
-2982 -4114 0
-2983 -4115 0
-2984 -4116 0
-2981 -4129 0
-2982 -4130 0
-2983 -4131 0
-2984 -4132 0
-2981 -4165 0
-2982 -4166 0
-2983 -4167 0
-2984 -4168 0
-2981 -4233 0
-2982 -4234 0
-2983 -4235 0
-2984 -4236 0
-2981 -4237 0
-2982 -4238 0
-2983 -4239 0
-2984 -4240 0
-2981 -4241 0
-2982 -4242 0
-2983 -4243 0
-2984 -4244 0
-2981 -4245 0
-2982 -4246 0
-2983 -4247 0
-2984 -4248 0
-2981 -4249 0
-2982 -4250 0
-2983 -4251 0
-2984 -4252 0
-2985 -2989 0
-2986 -2990 0
-2987 -2991 0
-2988 -2992 0
-2985 -3021 0
-2986 -3022 0
-2987 -3023 0
-2988 -3024 0
-2985 -3061 0
-2986 -3062 0
-2987 -3063 0
-2988 -3064 0
-2985 -3065 0
-2986 -3066 0
-2987 -3067 0
-2988 -3068 0
-2985 -3129 0
-2986 -3130 0
-2987 -3131 0
-2988 -3132 0
-2985 -3157 0
-2986 -3158 0
-2987 -3159 0
-2988 -3160 0
-2985 -3209 0
-2986 -3210 0
-2987 -3211 0
-2988 -3212 0
-2985 -3445 0
-2986 -3446 0
-2987 -3447 0
-2988 -3448 0
-2985 -3873 0
-2986 -3874 0
-2987 -3875 0
-2988 -3876 0
-2985 -4117 0
-2986 -4118 0
-2987 -4119 0
-2988 -4120 0
-2985 -4133 0
-2986 -4134 0
-2987 -4135 0
-2988 -4136 0
-2985 -4185 0
-2986 -4186 0
-2987 -4187 0
-2988 -4188 0
-2985 -4197 0
-2986 -4198 0
-2987 -4199 0
-2988 -4200 0
-2985 -4253 0
-2986 -4254 0
-2987 -4255 0
-2988 -4256 0
-2985 -4257 0
-2986 -4258 0
-2987 -4259 0
-2988 -4260 0
-2985 -4261 0
-2986 -4262 0
-2987 -4263 0
-2988 -4264 0
-2985 -4265 0
-2986 -4266 0
-2987 -4267 0
-2988 -4268 0
-2985 -4269 0
-2986 -4270 0
-2987 -4271 0
-2988 -4272 0
-2985 -4273 0
-2986 -4274 0
-2987 -4275 0
-2988 -4276 0
-2989 -3025 0
-2990 -3026 0
-2991 -3027 0
-2992 -3028 0
-2989 -3129 0
-2990 -3130 0
-2991 -3131 0
-2992 -3132 0
-2989 -3153 0
-2990 -3154 0
-2991 -3155 0
-2992 -3156 0
-2989 -3205 0
-2990 -3206 0
-2991 -3207 0
-2992 -3208 0
-2989 -3825 0
-2990 -3826 0
-2991 -3827 0
-2992 -3828 0
-2989 -4145 0
-2990 -4146 0
-2991 -4147 0
-2992 -4148 0
-2989 -4277 0
-2990 -4278 0
-2991 -4279 0
-2992 -4280 0
-2989 -4281 0
-2990 -4282 0
-2991 -4283 0
-2992 -4284 0
-2989 -4285 0
-2990 -4286 0
-2991 -4287 0
-2992 -4288 0
-2989 -4289 0
-2990 -4290 0
-2991 -4291 0
-2992 -4292 0
-2989 -4293 0
-2990 -4294 0
-2991 -4295 0
-2992 -4296 0
-2989 -4297 0
-2990 -4298 0
-2991 -4299 0
-2992 -4300 0
-2989 -4301 0
-2990 -4302 0
-2991 -4303 0
-2992 -4304 0
-2989 -4305 0
-2990 -4306 0
-2991 -4307 0
-2992 -4308 0
-2993 -2997 0
-2994 -2998 0
-2995 -2999 0
-2996 -3000 0
-2993 -3029 0
-2994 -3030 0
-2995 -3031 0
-2996 -3032 0
-2993 -3833 0
-2994 -3834 0
-2995 -3835 0
-2996 -3836 0
-2993 -4101 0
-2994 -4102 0
-2995 -4103 0
-2996 -4104 0
-2993 -4105 0
-2994 -4106 0
-2995 -4107 0
-2996 -4108 0
-2993 -4121 0
-2994 -4122 0
-2995 -4123 0
-2996 -4124 0
-2993 -4137 0
-2994 -4138 0
-2995 -4139 0
-2996 -4140 0
-2993 -4149 0
-2994 -4150 0
-2995 -4151 0
-2996 -4152 0
-2993 -4177 0
-2994 -4178 0
-2995 -4179 0
-2996 -4180 0
-2993 -4209 0
-2994 -4210 0
-2995 -4211 0
-2996 -4212 0
-2993 -4217 0
-2994 -4218 0
-2995 -4219 0
-2996 -4220 0
-2993 -4225 0
-2994 -4226 0
-2995 -4227 0
-2996 -4228 0
-2993 -4233 0
-2994 -4234 0
-2995 -4235 0
-2996 -4236 0
-2993 -4281 0
-2994 -4282 0
-2995 -4283 0
-2996 -4284 0
-2993 -4309 0
-2994 -4310 0
-2995 -4311 0
-2996 -4312 0
-2993 -4313 0
-2994 -4314 0
-2995 -4315 0
-2996 -4316 0
-2997 -3001 0
-2998 -3002 0
-2999 -3003 0
-3000 -3004 0
-2997 -3033 0
-2998 -3034 0
-2999 -3035 0
-3000 -3036 0
-2997 -3837 0
-2998 -3838 0
-2999 -3839 0
-3000 -3840 0
-2997 -4125 0
-2998 -4126 0
-2999 -4127 0
-3000 -4128 0
-2997 -4141 0
-2998 -4142 0
-2999 -4143 0
-3000 -4144 0
-2997 -4153 0
-2998 -4154 0
-2999 -4155 0
-3000 -4156 0
-2997 -4181 0
-2998 -4182 0
-2999 -4183 0
-3000 -4184 0
-2997 -4193 0
-2998 -4194 0
-2999 -4195 0
-3000 -4196 0
-2997 -4205 0
-2998 -4206 0
-2999 -4207 0
-3000 -4208 0
-2997 -4213 0
-2998 -4214 0
-2999 -4215 0
-3000 -4216 0
-2997 -4221 0
-2998 -4222 0
-2999 -4223 0
-3000 -4224 0
-2997 -4229 0
-2998 -4230 0
-2999 -4231 0
-3000 -4232 0
-2997 -4237 0
-2998 -4238 0
-2999 -4239 0
-3000 -4240 0
-2997 -4257 0
-2998 -4258 0
-2999 -4259 0
-3000 -4260 0
-2997 -4285 0
-2998 -4286 0
-2999 -4287 0
-3000 -4288 0
-2997 -4309 0
-2998 -4310 0
-2999 -4311 0
-3000 -4312 0
-2997 -4317 0
-2998 -4318 0
-2999 -4319 0
-3000 -4320 0
-2997 -4321 0
-2998 -4322 0
-2999 -4323 0
-3000 -4324 0
-2997 -4325 0
-2998 -4326 0
-2999 -4327 0
-3000 -4328 0
-3001 -3037 0
-3002 -3038 0
-3003 -3039 0
-3004 -3040 0
-3001 -4109 0
-3002 -4110 0
-3003 -4111 0
-3004 -4112 0
-3001 -4241 0
-3002 -4242 0
-3003 -4243 0
-3004 -4244 0
-3001 -4261 0
-3002 -4262 0
-3003 -4263 0
-3004 -4264 0
-3001 -4289 0
-3002 -4290 0
-3003 -4291 0
-3004 -4292 0
-3005 -3009 0
-3006 -3010 0
-3007 -3011 0
-3008 -3012 0
-3005 -4161 0
-3006 -4162 0
-3007 -4163 0
-3008 -4164 0
-3005 -4321 0
-3006 -4322 0
-3007 -4323 0
-3008 -4324 0
-3005 -4329 0
-3006 -4330 0
-3007 -4331 0
-3008 -4332 0
-3009 -3049 0
-3010 -3050 0
-3011 -3051 0
-3012 -3052 0
-3009 -4249 0
-3010 -4250 0
-3011 -4251 0
-3012 -4252 0
-3009 -4325 0
-3010 -4326 0
-3011 -4327 0
-3012 -4328 0
-3013 -3253 0
-3014 -3254 0
-3015 -3255 0
-3016 -3256 0
-3013 -3257 0
-3014 -3258 0
-3015 -3259 0
-3016 -3260 0
-3013 -3553 0
-3014 -3554 0
-3015 -3555 0
-3016 -3556 0
-3013 -4337 0
-3014 -4338 0
-3015 -4339 0
-3016 -4340 0
-3013 -4341 0
-3014 -4342 0
-3015 -4343 0
-3016 -4344 0
-3013 -4345 0
-3014 -4346 0
-3015 -4347 0
-3016 -4348 0
-3013 -4349 0
-3014 -4350 0
-3015 -4351 0
-3016 -4352 0
-3013 -4353 0
-3014 -4354 0
-3015 -4355 0
-3016 -4356 0
-3013 -4357 0
-3014 -4358 0
-3015 -4359 0
-3016 -4360 0
-3013 -4361 0
-3014 -4362 0
-3015 -4363 0
-3016 -4364 0
-3017 -3057 0
-3018 -3058 0
-3019 -3059 0
-3020 -3060 0
-3017 -4365 0
-3018 -4366 0
-3019 -4367 0
-3020 -4368 0
-3017 -4369 0
-3018 -4370 0
-3019 -4371 0
-3020 -4372 0
-3021 -3025 0
-3022 -3026 0
-3023 -3027 0
-3024 -3028 0
-3021 -3105 0
-3022 -3106 0
-3023 -3107 0
-3024 -3108 0
-3021 -3209 0
-3022 -3210 0
-3023 -3211 0
-3024 -3212 0
-3021 -4349 0
-3022 -4350 0
-3023 -4351 0
-3024 -4352 0
-3021 -4365 0
-3022 -4366 0
-3023 -4367 0
-3024 -4368 0
-3021 -4377 0
-3022 -4378 0
-3023 -4379 0
-3024 -4380 0
-3021 -4437 0
-3022 -4438 0
-3023 -4439 0
-3024 -4440 0
-3021 -4441 0
-3022 -4442 0
-3023 -4443 0
-3024 -4444 0
-3021 -4445 0
-3022 -4446 0
-3023 -4447 0
-3024 -4448 0
-3021 -4449 0
-3022 -4450 0
-3023 -4451 0
-3024 -4452 0
-3025 -3069 0
-3026 -3070 0
-3027 -3071 0
-3028 -3072 0
-3025 -3101 0
-3026 -3102 0
-3027 -3103 0
-3028 -3104 0
-3025 -3205 0
-3026 -3206 0
-3027 -3207 0
-3028 -3208 0
-3025 -3257 0
-3026 -3258 0
-3027 -3259 0
-3028 -3260 0
-3025 -3877 0
-3026 -3878 0
-3027 -3879 0
-3028 -3880 0
-3025 -3885 0
-3026 -3886 0
-3027 -3887 0
-3028 -3888 0
-3025 -3969 0
-3026 -3970 0
-3027 -3971 0
-3028 -3972 0
-3025 -4129 0
-3026 -4130 0
-3027 -4131 0
-3028 -4132 0
-3025 -4453 0
-3026 -4454 0
-3027 -4455 0
-3028 -4456 0
-3025 -4457 0
-3026 -4458 0
-3027 -4459 0
-3028 -4460 0
-3025 -4461 0
-3026 -4462 0
-3027 -4463 0
-3028 -4464 0
-3025 -4465 0
-3026 -4466 0
-3027 -4467 0
-3028 -4468 0
-3025 -4469 0
-3026 -4470 0
-3027 -4471 0
-3028 -4472 0
-3025 -4473 0
-3026 -4474 0
-3027 -4475 0
-3028 -4476 0
-3029 -3033 0
-3030 -3034 0
-3031 -3035 0
-3032 -3036 0
-3029 -4105 0
-3030 -4106 0
-3031 -4107 0
-3032 -4108 0
-3029 -4405 0
-3030 -4406 0
-3031 -4407 0
-3032 -4408 0
-3029 -4413 0
-3030 -4414 0
-3031 -4415 0
-3032 -4416 0
-3029 -4461 0
-3030 -4462 0
-3031 -4463 0
-3032 -4464 0
-3029 -4477 0
-3030 -4478 0
-3031 -4479 0
-3032 -4480 0
-3033 -3037 0
-3034 -3038 0
-3035 -3039 0
-3036 -3040 0
-3033 -3933 0
-3034 -3934 0
-3035 -3935 0
-3036 -3936 0
-3033 -4005 0
-3034 -4006 0
-3035 -4007 0
-3036 -4008 0
-3033 -4353 0
-3034 -4354 0
-3035 -4355 0
-3036 -4356 0
-3033 -4369 0
-3034 -4370 0
-3035 -4371 0
-3036 -4372 0
-3033 -4381 0
-3034 -4382 0
-3035 -4383 0
-3036 -4384 0
-3033 -4385 0
-3034 -4386 0
-3035 -4387 0
-3036 -4388 0
-3033 -4417 0
-3034 -4418 0
-3035 -4419 0
-3036 -4420 0
-3033 -4425 0
-3034 -4426 0
-3035 -4427 0
-3036 -4428 0
-3033 -4429 0
-3034 -4430 0
-3035 -4431 0
-3036 -4432 0
-3033 -4437 0
-3034 -4438 0
-3035 -4439 0
-3036 -4440 0
-3033 -4477 0
-3034 -4478 0
-3035 -4479 0
-3036 -4480 0
-3037 -3041 0
-3038 -3042 0
-3039 -3043 0
-3040 -3044 0
-3037 -3077 0
-3038 -3078 0
-3039 -3079 0
-3040 -3080 0
-3037 -3901 0
-3038 -3902 0
-3039 -3903 0
-3040 -3904 0
-3037 -3933 0
-3038 -3934 0
-3039 -3935 0
-3040 -3936 0
-3037 -3965 0
-3038 -3966 0
-3039 -3967 0
-3040 -3968 0
-3037 -3969 0
-3038 -3970 0
-3039 -3971 0
-3040 -3972 0
-3037 -3989 0
-3038 -3990 0
-3039 -3991 0
-3040 -3992 0
-3037 -4001 0
-3038 -4002 0
-3039 -4003 0
-3040 -4004 0
-3037 -4109 0
-3038 -4110 0
-3039 -4111 0
-3040 -4112 0
-3037 -4333 0
-3038 -4334 0
-3039 -4335 0
-3040 -4336 0
-3037 -4357 0
-3038 -4358 0
-3039 -4359 0
-3040 -4360 0
-3037 -4389 0
-3038 -4390 0
-3039 -4391 0
-3040 -4392 0
-3037 -4409 0
-3038 -4410 0
-3039 -4411 0
-3040 -4412 0
-3037 -4421 0
-3038 -4422 0
-3039 -4423 0
-3040 -4424 0
-3037 -4433 0
-3038 -4434 0
-3039 -4435 0
-3040 -4436 0
-3037 -4441 0
-3038 -4442 0
-3039 -4443 0
-3040 -4444 0
-3041 -3081 0
-3042 -3082 0
-3043 -3083 0
-3044 -3084 0
-3041 -3965 0
-3042 -3966 0
-3043 -3967 0
-3044 -3968 0
-3041 -4361 0
-3042 -4362 0
-3043 -4363 0
-3044 -4364 0
-3041 -4393 0
-3042 -4394 0
-3043 -4395 0
-3044 -4396 0
-3041 -4445 0
-3042 -4446 0
-3043 -4447 0
-3044 -4448 0
-3045 -3049 0
-3046 -3050 0
-3047 -3051 0
-3048 -3052 0
-3045 -3085 0
-3046 -3086 0
-3047 -3087 0
-3048 -3088 0
-3045 -3893 0
-3046 -3894 0
-3047 -3895 0
-3048 -3896 0
-3045 -4397 0
-3046 -4398 0
-3047 -4399 0
-3048 -4400 0
-3045 -4449 0
-3046 -4450 0
-3047 -4451 0
-3048 -4452 0
-3045 -4465 0
-3046 -4466 0
-3047 -4467 0
-3048 -4468 0
-3049 -3893 0
-3050 -3894 0
-3051 -3895 0
-3052 -3896 0
-3049 -3901 0
-3050 -3902 0
-3051 -3903 0
-3052 -3904 0
-3049 -4401 0
-3050 -4402 0
-3051 -4403 0
-3052 -4404 0
-3053 -3057 0
-3054 -3058 0
-3055 -3059 0
-3056 -3060 0
-3053 -3061 0
-3054 -3062 0
-3055 -3063 0
-3056 -3064 0
-3053 -4129 0
-3054 -4130 0
-3055 -4131 0
-3056 -4132 0
-3053 -4133 0
-3054 -4134 0
-3055 -4135 0
-3056 -4136 0
-3053 -4337 0
-3054 -4338 0
-3055 -4339 0
-3056 -4340 0
-3053 -4481 0
-3054 -4482 0
-3055 -4483 0
-3056 -4484 0
-3053 -4509 0
-3054 -4510 0
-3055 -4511 0
-3056 -4512 0
-3053 -4513 0
-3054 -4514 0
-3055 -4515 0
-3056 -4516 0
-3053 -4517 0
-3054 -4518 0
-3055 -4519 0
-3056 -4520 0
-3057 -3089 0
-3058 -3090 0
-3059 -3091 0
-3060 -3092 0
-3057 -4485 0
-3058 -4486 0
-3059 -4487 0
-3060 -4488 0
-3057 -4521 0
-3058 -4522 0
-3059 -4523 0
-3060 -4524 0
-3061 -3097 0
-3062 -3098 0
-3063 -3099 0
-3064 -3100 0
-3061 -3581 0
-3062 -3582 0
-3063 -3583 0
-3064 -3584 0
-3061 -4253 0
-3062 -4254 0
-3063 -4255 0
-3064 -4256 0
-3061 -4313 0
-3062 -4314 0
-3063 -4315 0
-3064 -4316 0
-3061 -4329 0
-3062 -4330 0
-3063 -4331 0
-3064 -4332 0
-3061 -4345 0
-3062 -4346 0
-3063 -4347 0
-3064 -4348 0
-3061 -4557 0
-3062 -4558 0
-3063 -4559 0
-3064 -4560 0
-3065 -3069 0
-3066 -3070 0
-3067 -3071 0
-3068 -3072 0
-3065 -3133 0
-3066 -3134 0
-3067 -3135 0
-3068 -3136 0
-3065 -3157 0
-3066 -3158 0
-3067 -3159 0
-3068 -3160 0
-3065 -3253 0
-3066 -3254 0
-3067 -3255 0
-3068 -3256 0
-3065 -3305 0
-3066 -3306 0
-3067 -3307 0
-3068 -3308 0
-3065 -4121 0
-3066 -4122 0
-3067 -4123 0
-3068 -4124 0
-3065 -4125 0
-3066 -4126 0
-3067 -4127 0
-3068 -4128 0
-3065 -4133 0
-3066 -4134 0
-3067 -4135 0
-3068 -4136 0
-3065 -4145 0
-3066 -4146 0
-3067 -4147 0
-3068 -4148 0
-3065 -4309 0
-3066 -4310 0
-3067 -4311 0
-3068 -4312 0
-3065 -4377 0
-3066 -4378 0
-3067 -4379 0
-3068 -4380 0
-3065 -4521 0
-3066 -4522 0
-3067 -4523 0
-3068 -4524 0
-3065 -4561 0
-3066 -4562 0
-3067 -4563 0
-3068 -4564 0
-3065 -4565 0
-3066 -4566 0
-3067 -4567 0
-3068 -4568 0
-3065 -4569 0
-3066 -4570 0
-3067 -4571 0
-3068 -4572 0
-3069 -3133 0
-3070 -3134 0
-3071 -3135 0
-3072 -3136 0
-3069 -3161 0
-3070 -3162 0
-3071 -3163 0
-3072 -3164 0
-3069 -3257 0
-3070 -3258 0
-3071 -3259 0
-3072 -3260 0
-3069 -4253 0
-3070 -4254 0
-3071 -4255 0
-3072 -4256 0
-3069 -4489 0
-3070 -4490 0
-3071 -4491 0
-3072 -4492 0
-3069 -4525 0
-3070 -4526 0
-3071 -4527 0
-3072 -4528 0
-3069 -4537 0
-3070 -4538 0
-3071 -4539 0
-3072 -4540 0
-3069 -4593 0
-3070 -4594 0
-3071 -4595 0
-3072 -4596 0
-3069 -4597 0
-3070 -4598 0
-3071 -4599 0
-3072 -4600 0
-3073 -3081 0
-3074 -3082 0
-3075 -3083 0
-3076 -3084 0
-3073 -3109 0
-3074 -3110 0
-3075 -3111 0
-3076 -3112 0
-3073 -4113 0
-3074 -4114 0
-3075 -4115 0
-3076 -4116 0
-3073 -4121 0
-3074 -4122 0
-3075 -4123 0
-3076 -4124 0
-3073 -4233 0
-3074 -4234 0
-3075 -4235 0
-3076 -4236 0
-3073 -4529 0
-3074 -4530 0
-3075 -4531 0
-3076 -4532 0
-3073 -4573 0
-3074 -4574 0
-3075 -4575 0
-3076 -4576 0
-3077 -3081 0
-3078 -3082 0
-3079 -3083 0
-3080 -3084 0
-3077 -3113 0
-3078 -3114 0
-3079 -3115 0
-3080 -3116 0
-3077 -4185 0
-3078 -4186 0
-3079 -4187 0
-3080 -4188 0
-3077 -4357 0
-3078 -4358 0
-3079 -4359 0
-3080 -4360 0
-3077 -4493 0
-3078 -4494 0
-3079 -4495 0
-3080 -4496 0
-3077 -4513 0
-3078 -4514 0
-3079 -4515 0
-3080 -4516 0
-3077 -4541 0
-3078 -4542 0
-3079 -4543 0
-3080 -4544 0
-3077 -4557 0
-3078 -4558 0
-3079 -4559 0
-3080 -4560 0
-3077 -4565 0
-3078 -4566 0
-3079 -4567 0
-3080 -4568 0
-3077 -4589 0
-3078 -4590 0
-3079 -4591 0
-3080 -4592 0
-3077 -4597 0
-3078 -4598 0
-3079 -4599 0
-3080 -4600 0
-3077 -4601 0
-3078 -4602 0
-3079 -4603 0
-3080 -4604 0
-3077 -4605 0
-3078 -4606 0
-3079 -4607 0
-3080 -4608 0
-3081 -3117 0
-3082 -3118 0
-3083 -3119 0
-3084 -3120 0
-3081 -4113 0
-3082 -4114 0
-3083 -4115 0
-3084 -4116 0
-3081 -4125 0
-3082 -4126 0
-3083 -4127 0
-3084 -4128 0
-3081 -4161 0
-3082 -4162 0
-3083 -4163 0
-3084 -4164 0
-3081 -4185 0
-3082 -4186 0
-3083 -4187 0
-3084 -4188 0
-3081 -4189 0
-3082 -4190 0
-3083 -4191 0
-3084 -4192 0
-3081 -4237 0
-3082 -4238 0
-3083 -4239 0
-3084 -4240 0
-3081 -4329 0
-3082 -4330 0
-3083 -4331 0
-3084 -4332 0
-3081 -4361 0
-3082 -4362 0
-3083 -4363 0
-3084 -4364 0
-3081 -4497 0
-3082 -4498 0
-3083 -4499 0
-3084 -4500 0
-3081 -4517 0
-3082 -4518 0
-3083 -4519 0
-3084 -4520 0
-3081 -4533 0
-3082 -4534 0
-3083 -4535 0
-3084 -4536 0
-3081 -4549 0
-3082 -4550 0
-3083 -4551 0
-3084 -4552 0
-3085 -3121 0
-3086 -3122 0
-3087 -3123 0
-3088 -3124 0
-3085 -4149 0
-3086 -4150 0
-3087 -4151 0
-3088 -4152 0
-3085 -4161 0
-3086 -4162 0
-3087 -4163 0
-3088 -4164 0
-3085 -4501 0
-3086 -4502 0
-3087 -4503 0
-3088 -4504 0
-3085 -4553 0
-3086 -4554 0
-3087 -4555 0
-3088 -4556 0
-3085 -4601 0
-3086 -4602 0
-3087 -4603 0
-3088 -4604 0
-3085 -4609 0
-3086 -4610 0
-3087 -4611 0
-3088 -4612 0
-3089 -3133 0
-3090 -3134 0
-3091 -3135 0
-3092 -3136 0
-3089 -4041 0
-3090 -4042 0
-3091 -4043 0
-3092 -4044 0
-3089 -4377 0
-3090 -4378 0
-3091 -4379 0
-3092 -4380 0
-3089 -4485 0
-3090 -4486 0
-3091 -4487 0
-3092 -4488 0
-3089 -4613 0
-3090 -4614 0
-3091 -4615 0
-3092 -4616 0
-3089 -4641 0
-3090 -4642 0
-3091 -4643 0
-3092 -4644 0
-3093 -3097 0
-3094 -3098 0
-3095 -3099 0
-3096 -3100 0
-3093 -3933 0
-3094 -3934 0
-3095 -3935 0
-3096 -3936 0
-3093 -3937 0
-3094 -3938 0
-3095 -3939 0
-3096 -3940 0
-3093 -4437 0
-3094 -4438 0
-3095 -4439 0
-3096 -4440 0
-3093 -4441 0
-3094 -4442 0
-3095 -4443 0
-3096 -4444 0
-3093 -4649 0
-3094 -4650 0
-3095 -4651 0
-3096 -4652 0
-3097 -3145 0
-3098 -3146 0
-3099 -3147 0
-3100 -3148 0
-3097 -3581 0
-3098 -3582 0
-3099 -3583 0
-3100 -3584 0
-3097 -4089 0
-3098 -4090 0
-3099 -4091 0
-3100 -4092 0
-3097 -4093 0
-3098 -4094 0
-3099 -4095 0
-3100 -4096 0
-3097 -4653 0
-3098 -4654 0
-3099 -4655 0
-3100 -4656 0
-3097 -4657 0
-3098 -4658 0
-3099 -4659 0
-3100 -4660 0
-3097 -4661 0
-3098 -4662 0
-3099 -4663 0
-3100 -4664 0
-3101 -3105 0
-3102 -3106 0
-3103 -3107 0
-3104 -3108 0
-3101 -3153 0
-3102 -3154 0
-3103 -3155 0
-3104 -3156 0
-3101 -3361 0
-3102 -3362 0
-3103 -3363 0
-3104 -3364 0
-3101 -3933 0
-3102 -3934 0
-3103 -3935 0
-3104 -3936 0
-3101 -3957 0
-3102 -3958 0
-3103 -3959 0
-3104 -3960 0
-3101 -3961 0
-3102 -3962 0
-3103 -3963 0
-3104 -3964 0
-3101 -4369 0
-3102 -4370 0
-3103 -4371 0
-3104 -4372 0
-3101 -4537 0
-3102 -4538 0
-3103 -4539 0
-3104 -4540 0
-3101 -4645 0
-3102 -4646 0
-3103 -4647 0
-3104 -4648 0
-3101 -4673 0
-3102 -4674 0
-3103 -4675 0
-3104 -4676 0
-3101 -4677 0
-3102 -4678 0
-3103 -4679 0
-3104 -4680 0
-3101 -4681 0
-3102 -4682 0
-3103 -4683 0
-3104 -4684 0
-3101 -4685 0
-3102 -4686 0
-3103 -4687 0
-3104 -4688 0
-3101 -4689 0
-3102 -4690 0
-3103 -4691 0
-3104 -4692 0
-3105 -3157 0
-3106 -3158 0
-3107 -3159 0
-3108 -3160 0
-3105 -3357 0
-3106 -3358 0
-3107 -3359 0
-3108 -3360 0
-3105 -4377 0
-3106 -4378 0
-3107 -4379 0
-3108 -4380 0
-3105 -4477 0
-3106 -4478 0
-3107 -4479 0
-3108 -4480 0
-3105 -4693 0
-3106 -4694 0
-3107 -4695 0
-3108 -4696 0
-3105 -4697 0
-3106 -4698 0
-3107 -4699 0
-3108 -4700 0
-3105 -4701 0
-3106 -4702 0
-3107 -4703 0
-3108 -4704 0
-3105 -4705 0
-3106 -4706 0
-3107 -4707 0
-3108 -4708 0
-3109 -3117 0
-3110 -3118 0
-3111 -3119 0
-3112 -3120 0
-3109 -3169 0
-3110 -3170 0
-3111 -3171 0
-3112 -3172 0
-3109 -3877 0
-3110 -3878 0
-3111 -3879 0
-3112 -3880 0
-3109 -3881 0
-3110 -3882 0
-3111 -3883 0
-3112 -3884 0
-3109 -4365 0
-3110 -4366 0
-3111 -4367 0
-3112 -4368 0
-3109 -4401 0
-3110 -4402 0
-3111 -4403 0
-3112 -4404 0
-3109 -4441 0
-3110 -4442 0
-3111 -4443 0
-3112 -4444 0
-3109 -4461 0
-3110 -4462 0
-3111 -4463 0
-3112 -4464 0
-3109 -4617 0
-3110 -4618 0
-3111 -4619 0
-3112 -4620 0
-3109 -4653 0
-3110 -4654 0
-3111 -4655 0
-3112 -4656 0
-3109 -4713 0
-3110 -4714 0
-3111 -4715 0
-3112 -4716 0
-3113 -3117 0
-3114 -3118 0
-3115 -3119 0
-3116 -3120 0
-3113 -3953 0
-3114 -3954 0
-3115 -3955 0
-3116 -3956 0
-3113 -3961 0
-3114 -3962 0
-3115 -3963 0
-3116 -3964 0
-3113 -4041 0
-3114 -4042 0
-3115 -4043 0
-3116 -4044 0
-3113 -4493 0
-3114 -4494 0
-3115 -4495 0
-3116 -4496 0
-3113 -4637 0
-3114 -4638 0
-3115 -4639 0
-3116 -4640 0
-3113 -4661 0
-3114 -4662 0
-3115 -4663 0
-3116 -4664 0
-3113 -4697 0
-3114 -4698 0
-3115 -4699 0
-3116 -4700 0
-3117 -3181 0
-3118 -3182 0
-3119 -3183 0
-3120 -3184 0
-3117 -3877 0
-3118 -3878 0
-3119 -3879 0
-3120 -3880 0
-3117 -3925 0
-3118 -3926 0
-3119 -3927 0
-3120 -3928 0
-3117 -3953 0
-3118 -3954 0
-3119 -3955 0
-3120 -3956 0
-3117 -3957 0
-3118 -3958 0
-3119 -3959 0
-3120 -3960 0
-3117 -4009 0
-3118 -4010 0
-3119 -4011 0
-3120 -4012 0
-3117 -4497 0
-3118 -4498 0
-3119 -4499 0
-3120 -4500 0
-3117 -4625 0
-3118 -4626 0
-3119 -4627 0
-3120 -4628 0
-3117 -4709 0
-3118 -4710 0
-3119 -4711 0
-3120 -4712 0
-3121 -3125 0
-3122 -3126 0
-3123 -3127 0
-3124 -3128 0
-3121 -3185 0
-3122 -3186 0
-3123 -3187 0
-3124 -3188 0
-3121 -4093 0
-3122 -4094 0
-3123 -4095 0
-3124 -4096 0
-3121 -4501 0
-3122 -4502 0
-3123 -4503 0
-3124 -4504 0
-3121 -4649 0
-3122 -4650 0
-3123 -4651 0
-3124 -4652 0
-3121 -4665 0
-3122 -4666 0
-3123 -4667 0
-3124 -4668 0
-3121 -4681 0
-3122 -4682 0
-3123 -4683 0
-3124 -4684 0
-3121 -4701 0
-3122 -4702 0
-3123 -4703 0
-3124 -4704 0
-3125 -3193 0
-3126 -3194 0
-3127 -3195 0
-3128 -3196 0
-3125 -4689 0
-3126 -4690 0
-3127 -4691 0
-3128 -4692 0
-3125 -4705 0
-3126 -4706 0
-3127 -4707 0
-3128 -4708 0
-3129 -3133 0
-3130 -3134 0
-3131 -3135 0
-3132 -3136 0
-3129 -3145 0
-3130 -3146 0
-3131 -3147 0
-3132 -3148 0
-3129 -3613 0
-3130 -3614 0
-3131 -3615 0
-3132 -3616 0
-3129 -3841 0
-3130 -3842 0
-3131 -3843 0
-3132 -3844 0
-3129 -4033 0
-3130 -4034 0
-3131 -4035 0
-3132 -4036 0
-3129 -4253 0
-3130 -4254 0
-3131 -4255 0
-3132 -4256 0
-3129 -4321 0
-3130 -4322 0
-3131 -4323 0
-3132 -4324 0
-3129 -4325 0
-3130 -4326 0
-3131 -4327 0
-3132 -4328 0
-3129 -4721 0
-3130 -4722 0
-3131 -4723 0
-3132 -4724 0
-3133 -3137 0
-3134 -3138 0
-3135 -3139 0
-3136 -3140 0
-3133 -4145 0
-3134 -4146 0
-3135 -4147 0
-3136 -4148 0
-3133 -4601 0
-3134 -4602 0
-3135 -4603 0
-3136 -4604 0
-3133 -4605 0
-3134 -4606 0
-3135 -4607 0
-3136 -4608 0
-3133 -4609 0
-3134 -4610 0
-3135 -4611 0
-3136 -4612 0
-3133 -4613 0
-3134 -4614 0
-3135 -4615 0
-3136 -4616 0
-3133 -4725 0
-3134 -4726 0
-3135 -4727 0
-3136 -4728 0
-3133 -4729 0
-3134 -4730 0
-3135 -4731 0
-3136 -4732 0
-3137 -3141 0
-3138 -3142 0
-3139 -3143 0
-3140 -3144 0
-3137 -3845 0
-3138 -3846 0
-3139 -3847 0
-3140 -3848 0
-3137 -4281 0
-3138 -4282 0
-3139 -4283 0
-3140 -4284 0
-3137 -4285 0
-3138 -4286 0
-3139 -4287 0
-3140 -4288 0
-3137 -4309 0
-3138 -4310 0
-3139 -4311 0
-3140 -4312 0
-3137 -4537 0
-3138 -4538 0
-3139 -4539 0
-3140 -4540 0
-3137 -4725 0
-3138 -4726 0
-3139 -4727 0
-3140 -4728 0
-3137 -4733 0
-3138 -4734 0
-3139 -4735 0
-3140 -4736 0
-3141 -3849 0
-3142 -3850 0
-3143 -3851 0
-3144 -3852 0
-3141 -4565 0
-3142 -4566 0
-3143 -4567 0
-3144 -4568 0
-3141 -4737 0
-3142 -4738 0
-3143 -4739 0
-3144 -4740 0
-3141 -4741 0
-3142 -4742 0
-3143 -4743 0
-3144 -4744 0
-3145 -4185 0
-3146 -4186 0
-3147 -4187 0
-3148 -4188 0
-3145 -4597 0
-3146 -4598 0
-3147 -4599 0
-3148 -4600 0
-3145 -4749 0
-3146 -4750 0
-3147 -4751 0
-3148 -4752 0
-3149 -3153 0
-3150 -3154 0
-3151 -3155 0
-3152 -3156 0
-3149 -3165 0
-3150 -3166 0
-3151 -3167 0
-3152 -3168 0
-3149 -4753 0
-3150 -4754 0
-3151 -4755 0
-3152 -4756 0
-3149 -4757 0
-3150 -4758 0
-3151 -4759 0
-3152 -4760 0
-3149 -4761 0
-3150 -4762 0
-3151 -4763 0
-3152 -4764 0
-3149 -4765 0
-3150 -4766 0
-3151 -4767 0
-3152 -4768 0
-3149 -4769 0
-3150 -4770 0
-3151 -4771 0
-3152 -4772 0
-3153 -3157 0
-3154 -3158 0
-3155 -3159 0
-3156 -3160 0
-3153 -3361 0
-3154 -3362 0
-3155 -3363 0
-3156 -3364 0
-3153 -3857 0
-3154 -3858 0
-3155 -3859 0
-3156 -3860 0
-3153 -4141 0
-3154 -4142 0
-3155 -4143 0
-3156 -4144 0
-3153 -4145 0
-3154 -4146 0
-3155 -4147 0
-3156 -4148 0
-3153 -4737 0
-3154 -4738 0
-3155 -4739 0
-3156 -4740 0
-3153 -4773 0
-3154 -4774 0
-3155 -4775 0
-3156 -4776 0
-3153 -4777 0
-3154 -4778 0
-3155 -4779 0
-3156 -4780 0
-3153 -4781 0
-3154 -4782 0
-3155 -4783 0
-3156 -4784 0
-3153 -4785 0
-3154 -4786 0
-3155 -4787 0
-3156 -4788 0
-3153 -4789 0
-3154 -4790 0
-3155 -4791 0
-3156 -4792 0
-3157 -3161 0
-3158 -3162 0
-3159 -3163 0
-3160 -3164 0
-3157 -3357 0
-3158 -3358 0
-3159 -3359 0
-3160 -3360 0
-3157 -3397 0
-3158 -3398 0
-3159 -3399 0
-3160 -3400 0
-3157 -3937 0
-3158 -3938 0
-3159 -3939 0
-3160 -3940 0
-3157 -4165 0
-3158 -4166 0
-3159 -4167 0
-3160 -4168 0
-3157 -4185 0
-3158 -4186 0
-3159 -4187 0
-3160 -4188 0
-3157 -4205 0
-3158 -4206 0
-3159 -4207 0
-3160 -4208 0
-3157 -4309 0
-3158 -4310 0
-3159 -4311 0
-3160 -4312 0
-3157 -4533 0
-3158 -4534 0
-3159 -4535 0
-3160 -4536 0
-3157 -4793 0
-3158 -4794 0
-3159 -4795 0
-3160 -4796 0
-3157 -4797 0
-3158 -4798 0
-3159 -4799 0
-3160 -4800 0
-3157 -4801 0
-3158 -4802 0
-3159 -4803 0
-3160 -4804 0
-3161 -4253 0
-3162 -4254 0
-3163 -4255 0
-3164 -4256 0
-3161 -4509 0
-3162 -4510 0
-3163 -4511 0
-3164 -4512 0
-3161 -4513 0
-3162 -4514 0
-3163 -4515 0
-3164 -4516 0
-3161 -4537 0
-3162 -4538 0
-3163 -4539 0
-3164 -4540 0
-3161 -4805 0
-3162 -4806 0
-3163 -4807 0
-3164 -4808 0
-3161 -4809 0
-3162 -4810 0
-3163 -4811 0
-3164 -4812 0
-3161 -4813 0
-3162 -4814 0
-3163 -4815 0
-3164 -4816 0
-3165 -4825 0
-3166 -4826 0
-3167 -4827 0
-3168 -4828 0
-3165 -4829 0
-3166 -4830 0
-3167 -4831 0
-3168 -4832 0
-3169 -3173 0
-3170 -3174 0
-3171 -3175 0
-3172 -3176 0
-3169 -3181 0
-3170 -3182 0
-3171 -3183 0
-3172 -3184 0
-3169 -4133 0
-3170 -4134 0
-3171 -4135 0
-3172 -4136 0
-3169 -4261 0
-3170 -4262 0
-3171 -4263 0
-3172 -4264 0
-3169 -4281 0
-3170 -4282 0
-3171 -4283 0
-3172 -4284 0
-3169 -4513 0
-3170 -4514 0
-3171 -4515 0
-3172 -4516 0
-3169 -4565 0
-3170 -4566 0
-3171 -4567 0
-3172 -4568 0
-3169 -4617 0
-3170 -4618 0
-3171 -4619 0
-3172 -4620 0
-3169 -4729 0
-3170 -4730 0
-3171 -4731 0
-3172 -4732 0
-3169 -4753 0
-3170 -4754 0
-3171 -4755 0
-3172 -4756 0
-3169 -4817 0
-3170 -4818 0
-3171 -4819 0
-3172 -4820 0
-3173 -3177 0
-3174 -3178 0
-3175 -3179 0
-3176 -3180 0
-3173 -3861 0
-3174 -3862 0
-3175 -3863 0
-3176 -3864 0
-3173 -4133 0
-3174 -4134 0
-3175 -4135 0
-3176 -4136 0
-3173 -4141 0
-3174 -4142 0
-3175 -4143 0
-3176 -4144 0
-3173 -4257 0
-3174 -4258 0
-3175 -4259 0
-3176 -4260 0
-3173 -4509 0
-3174 -4510 0
-3175 -4511 0
-3176 -4512 0
-3173 -4525 0
-3174 -4526 0
-3175 -4527 0
-3176 -4528 0
-3173 -4533 0
-3174 -4534 0
-3175 -4535 0
-3176 -4536 0
-3173 -4553 0
-3174 -4554 0
-3175 -4555 0
-3176 -4556 0
-3173 -4609 0
-3174 -4610 0
-3175 -4611 0
-3176 -4612 0
-3173 -4621 0
-3174 -4622 0
-3175 -4623 0
-3176 -4624 0
-3173 -4717 0
-3174 -4718 0
-3175 -4719 0
-3176 -4720 0
-3173 -4721 0
-3174 -4722 0
-3175 -4723 0
-3176 -4724 0
-3173 -4757 0
-3174 -4758 0
-3175 -4759 0
-3176 -4760 0
-3173 -4821 0
-3174 -4822 0
-3175 -4823 0
-3176 -4824 0
-3173 -4833 0
-3174 -4834 0
-3175 -4835 0
-3176 -4836 0
-3177 -3865 0
-3178 -3866 0
-3179 -3867 0
-3180 -3868 0
-3177 -4525 0
-3178 -4526 0
-3179 -4527 0
-3180 -4528 0
-3177 -4597 0
-3178 -4598 0
-3179 -4599 0
-3180 -4600 0
-3177 -4745 0
-3178 -4746 0
-3179 -4747 0
-3180 -4748 0
-3177 -4773 0
-3178 -4774 0
-3179 -4775 0
-3180 -4776 0
-3177 -4805 0
-3178 -4806 0
-3179 -4807 0
-3180 -4808 0
-3181 -4205 0
-3182 -4206 0
-3183 -4207 0
-3184 -4208 0
-3181 -4285 0
-3182 -4286 0
-3183 -4287 0
-3184 -4288 0
-3181 -4625 0
-3182 -4626 0
-3183 -4627 0
-3184 -4628 0
-3181 -4809 0
-3182 -4810 0
-3183 -4811 0
-3184 -4812 0
-3185 -3193 0
-3186 -3194 0
-3187 -3195 0
-3188 -3196 0
-3185 -4761 0
-3186 -4762 0
-3187 -4763 0
-3188 -4764 0
-3185 -4777 0
-3186 -4778 0
-3187 -4779 0
-3188 -4780 0
-3185 -4797 0
-3186 -4798 0
-3187 -4799 0
-3188 -4800 0
-3185 -4813 0
-3186 -4814 0
-3187 -4815 0
-3188 -4816 0
-3185 -4825 0
-3186 -4826 0
-3187 -4827 0
-3188 -4828 0
-3189 -4181 0
-3190 -4182 0
-3191 -4183 0
-3192 -4184 0
-3189 -4321 0
-3190 -4322 0
-3191 -4323 0
-3192 -4324 0
-3189 -4553 0
-3190 -4554 0
-3191 -4555 0
-3192 -4556 0
-3189 -4601 0
-3190 -4602 0
-3191 -4603 0
-3192 -4604 0
-3189 -4633 0
-3190 -4634 0
-3191 -4635 0
-3192 -4636 0
-3193 -4769 0
-3194 -4770 0
-3195 -4771 0
-3196 -4772 0
-3193 -4789 0
-3194 -4790 0
-3195 -4791 0
-3196 -4792 0
-3193 -4801 0
-3194 -4802 0
-3195 -4803 0
-3196 -4804 0
-3193 -4829 0
-3194 -4830 0
-3195 -4831 0
-3196 -4832 0
-3197 -3653 0
-3198 -3654 0
-3199 -3655 0
-3200 -3656 0
-3197 -3685 0
-3198 -3686 0
-3199 -3687 0
-3200 -3688 0
-3197 -4853 0
-3198 -4854 0
-3199 -4855 0
-3200 -4856 0
-3197 -4857 0
-3198 -4858 0
-3199 -4859 0
-3200 -4860 0
-3197 -4861 0
-3198 -4862 0
-3199 -4863 0
-3200 -4864 0
-3197 -4865 0
-3198 -4866 0
-3199 -4867 0
-3200 -4868 0
-3201 -3617 0
-3202 -3618 0
-3203 -3619 0
-3204 -3620 0
-3201 -3633 0
-3202 -3634 0
-3203 -3635 0
-3204 -3636 0
-3201 -3689 0
-3202 -3690 0
-3203 -3691 0
-3204 -3692 0
-3201 -4869 0
-3202 -4870 0
-3203 -4871 0
-3204 -4872 0
-3201 -4873 0
-3202 -4874 0
-3203 -4875 0
-3204 -4876 0
-3201 -4877 0
-3202 -4878 0
-3203 -4879 0
-3204 -4880 0
-3201 -4881 0
-3202 -4882 0
-3203 -4883 0
-3204 -4884 0
-3205 -3209 0
-3206 -3210 0
-3207 -3211 0
-3208 -3212 0
-3205 -3249 0
-3206 -3250 0
-3207 -3251 0
-3208 -3252 0
-3205 -3313 0
-3206 -3314 0
-3207 -3315 0
-3208 -3316 0
-3205 -3329 0
-3206 -3330 0
-3207 -3331 0
-3208 -3332 0
-3205 -3449 0
-3206 -3450 0
-3207 -3451 0
-3208 -3452 0
-3205 -3689 0
-3206 -3690 0
-3207 -3691 0
-3208 -3692 0
-3205 -4129 0
-3206 -4130 0
-3207 -4131 0
-3208 -4132 0
-3205 -4897 0
-3206 -4898 0
-3207 -4899 0
-3208 -4900 0
-3205 -4901 0
-3206 -4902 0
-3207 -4903 0
-3208 -4904 0
-3205 -4905 0
-3206 -4906 0
-3207 -4907 0
-3208 -4908 0
-3209 -3213 0
-3210 -3214 0
-3211 -3215 0
-3212 -3216 0
-3209 -3253 0
-3210 -3254 0
-3211 -3255 0
-3212 -3256 0
-3209 -3409 0
-3210 -3410 0
-3211 -3411 0
-3212 -3412 0
-3209 -3413 0
-3210 -3414 0
-3211 -3415 0
-3212 -3416 0
-3209 -3453 0
-3210 -3454 0
-3211 -3455 0
-3212 -3456 0
-3209 -3685 0
-3210 -3686 0
-3211 -3687 0
-3212 -3688 0
-3209 -3873 0
-3210 -3874 0
-3211 -3875 0
-3212 -3876 0
-3209 -4345 0
-3210 -4346 0
-3211 -4347 0
-3212 -4348 0
-3209 -4837 0
-3210 -4838 0
-3211 -4839 0
-3212 -4840 0
-3209 -4873 0
-3210 -4874 0
-3211 -4875 0
-3212 -4876 0
-3209 -4909 0
-3210 -4910 0
-3211 -4911 0
-3212 -4912 0
-3209 -4913 0
-3210 -4914 0
-3211 -4915 0
-3212 -4916 0
-3213 -3257 0
-3214 -3258 0
-3215 -3259 0
-3216 -3260 0
-3213 -3457 0
-3214 -3458 0
-3215 -3459 0
-3216 -3460 0
-3213 -3877 0
-3214 -3878 0
-3215 -3879 0
-3216 -3880 0
-3213 -4113 0
-3214 -4114 0
-3215 -4115 0
-3216 -4116 0
-3213 -4253 0
-3214 -4254 0
-3215 -4255 0
-3216 -4256 0
-3213 -4345 0
-3214 -4346 0
-3215 -4347 0
-3216 -4348 0
-3213 -4497 0
-3214 -4498 0
-3215 -4499 0
-3216 -4500 0
-3213 -4853 0
-3214 -4854 0
-3215 -4855 0
-3216 -4856 0
-3213 -4917 0
-3214 -4918 0
-3215 -4919 0
-3216 -4920 0
-3213 -4921 0
-3214 -4922 0
-3215 -4923 0
-3216 -4924 0
-3217 -3265 0
-3218 -3266 0
-3219 -3267 0
-3220 -3268 0
-3217 -3461 0
-3218 -3462 0
-3219 -3463 0
-3220 -3464 0
-3217 -4937 0
-3218 -4938 0
-3219 -4939 0
-3220 -4940 0
-3217 -4941 0
-3218 -4942 0
-3219 -4943 0
-3220 -4944 0
-3217 -4945 0
-3218 -4946 0
-3219 -4947 0
-3220 -4948 0
-3221 -3269 0
-3222 -3270 0
-3223 -3271 0
-3224 -3272 0
-3221 -3305 0
-3222 -3306 0
-3223 -3307 0
-3224 -3308 0
-3221 -3313 0
-3222 -3314 0
-3223 -3315 0
-3224 -3316 0
-3221 -3473 0
-3222 -3474 0
-3223 -3475 0
-3224 -3476 0
-3221 -3617 0
-3222 -3618 0
-3223 -3619 0
-3224 -3620 0
-3221 -3881 0
-3222 -3882 0
-3223 -3883 0
-3224 -3884 0
-3221 -4121 0
-3222 -4122 0
-3223 -4123 0
-3224 -4124 0
-3221 -4841 0
-3222 -4842 0
-3223 -4843 0
-3224 -4844 0
-3221 -4925 0
-3222 -4926 0
-3223 -4927 0
-3224 -4928 0
-3221 -4949 0
-3222 -4950 0
-3223 -4951 0
-3224 -4952 0
-3225 -3229 0
-3226 -3230 0
-3227 -3231 0
-3228 -3232 0
-3225 -3277 0
-3226 -3278 0
-3227 -3279 0
-3228 -3280 0
-3225 -3409 0
-3226 -3410 0
-3227 -3411 0
-3228 -3412 0
-3225 -3481 0
-3226 -3482 0
-3227 -3483 0
-3228 -3484 0
-3225 -3653 0
-3226 -3654 0
-3227 -3655 0
-3228 -3656 0
-3225 -4001 0
-3226 -4002 0
-3227 -4003 0
-3228 -4004 0
-3225 -4513 0
-3226 -4514 0
-3227 -4515 0
-3228 -4516 0
-3225 -4637 0
-3226 -4638 0
-3227 -4639 0
-3228 -4640 0
-3225 -4849 0
-3226 -4850 0
-3227 -4851 0
-3228 -4852 0
-3225 -4877 0
-3226 -4878 0
-3227 -4879 0
-3228 -4880 0
-3225 -4901 0
-3226 -4902 0
-3227 -4903 0
-3228 -4904 0
-3225 -4917 0
-3226 -4918 0
-3227 -4919 0
-3228 -4920 0
-3225 -4969 0
-3226 -4970 0
-3227 -4971 0
-3228 -4972 0
-3225 -4973 0
-3226 -4974 0
-3227 -4975 0
-3228 -4976 0
-3225 -4977 0
-3226 -4978 0
-3227 -4979 0
-3228 -4980 0
-3225 -4981 0
-3226 -4982 0
-3227 -4983 0
-3228 -4984 0
-3229 -4517 0
-3230 -4518 0
-3231 -4519 0
-3232 -4520 0
-3229 -4909 0
-3230 -4910 0
-3231 -4911 0
-3232 -4912 0
-3229 -4985 0
-3230 -4986 0
-3231 -4987 0
-3232 -4988 0
-3229 -4989 0
-3230 -4990 0
-3231 -4991 0
-3232 -4992 0
-3233 -3237 0
-3234 -3238 0
-3235 -3239 0
-3236 -3240 0
-3233 -3281 0
-3234 -3282 0
-3235 -3283 0
-3236 -3284 0
-3233 -3489 0
-3234 -3490 0
-3235 -3491 0
-3236 -3492 0
-3233 -4325 0
-3234 -4326 0
-3235 -4327 0
-3236 -4328 0
-3233 -4861 0
-3234 -4862 0
-3235 -4863 0
-3236 -4864 0
-3233 -4881 0
-3234 -4882 0
-3235 -4883 0
-3236 -4884 0
-3233 -4885 0
-3234 -4886 0
-3235 -4887 0
-3236 -4888 0
-3233 -4921 0
-3234 -4922 0
-3235 -4923 0
-3236 -4924 0
-3233 -4933 0
-3234 -4934 0
-3235 -4935 0
-3236 -4936 0
-3233 -4941 0
-3234 -4942 0
-3235 -4943 0
-3236 -4944 0
-3233 -4949 0
-3234 -4950 0
-3235 -4951 0
-3236 -4952 0
-3233 -4957 0
-3234 -4958 0
-3235 -4959 0
-3236 -4960 0
-3233 -4973 0
-3234 -4974 0
-3235 -4975 0
-3236 -4976 0
-3233 -4985 0
-3234 -4986 0
-3235 -4987 0
-3236 -4988 0
-3233 -4993 0
-3234 -4994 0
-3235 -4995 0
-3236 -4996 0
-3237 -3241 0
-3238 -3242 0
-3239 -3243 0
-3240 -3244 0
-3237 -4321 0
-3238 -4322 0
-3239 -4323 0
-3240 -4324 0
-3237 -4865 0
-3238 -4866 0
-3239 -4867 0
-3240 -4868 0
-3237 -4889 0
-3238 -4890 0
-3239 -4891 0
-3240 -4892 0
-3237 -4945 0
-3238 -4946 0
-3239 -4947 0
-3240 -4948 0
-3237 -4961 0
-3238 -4962 0
-3239 -4963 0
-3240 -4964 0
-3237 -4977 0
-3238 -4978 0
-3239 -4979 0
-3240 -4980 0
-3237 -4989 0
-3238 -4990 0
-3239 -4991 0
-3240 -4992 0
-3237 -4997 0
-3238 -4998 0
-3239 -4999 0
-3240 -5000 0
-3241 -3285 0
-3242 -3286 0
-3243 -3287 0
-3244 -3288 0
-3241 -4893 0
-3242 -4894 0
-3243 -4895 0
-3244 -4896 0
-3241 -4905 0
-3242 -4906 0
-3243 -4907 0
-3244 -4908 0
-3241 -4965 0
-3242 -4966 0
-3243 -4967 0
-3244 -4968 0
-3241 -4981 0
-3242 -4982 0
-3243 -4983 0
-3244 -4984 0
-3241 -4997 0
-3242 -4998 0
-3243 -4999 0
-3244 -5000 0
-3245 -3249 0
-3246 -3250 0
-3247 -3251 0
-3248 -3252 0
-3245 -3265 0
-3246 -3266 0
-3247 -3267 0
-3248 -3268 0
-3245 -3297 0
-3246 -3298 0
-3247 -3299 0
-3248 -3300 0
-3245 -4521 0
-3246 -4522 0
-3247 -4523 0
-3248 -4524 0
-3245 -4641 0
-3246 -4642 0
-3247 -4643 0
-3248 -4644 0
-3245 -5025 0
-3246 -5026 0
-3247 -5027 0
-3248 -5028 0
-3245 -5029 0
-3246 -5030 0
-3247 -5031 0
-3248 -5032 0
-3245 -5033 0
-3246 -5034 0
-3247 -5035 0
-3248 -5036 0
-3245 -5037 0
-3246 -5038 0
-3247 -5039 0
-3248 -5040 0
-3245 -5041 0
-3246 -5042 0
-3247 -5043 0
-3248 -5044 0
-3245 -5045 0
-3246 -5046 0
-3247 -5047 0
-3248 -5048 0
-3249 -3253 0
-3250 -3254 0
-3251 -3255 0
-3252 -3256 0
-3249 -3301 0
-3250 -3302 0
-3251 -3303 0
-3252 -3304 0
-3249 -3829 0
-3250 -3830 0
-3251 -3831 0
-3252 -3832 0
-3249 -3833 0
-3250 -3834 0
-3251 -3835 0
-3252 -3836 0
-3249 -4145 0
-3250 -4146 0
-3251 -4147 0
-3252 -4148 0
-3249 -5049 0
-3250 -5050 0
-3251 -5051 0
-3252 -5052 0
-3249 -5053 0
-3250 -5054 0
-3251 -5055 0
-3252 -5056 0
-3249 -5057 0
-3250 -5058 0
-3251 -5059 0
-3252 -5060 0
-3253 -3257 0
-3254 -3258 0
-3255 -3259 0
-3256 -3260 0
-3253 -3365 0
-3254 -3366 0
-3255 -3367 0
-3256 -3368 0
-3253 -3685 0
-3254 -3686 0
-3255 -3687 0
-3256 -3688 0
-3253 -4377 0
-3254 -4378 0
-3255 -4379 0
-3256 -4380 0
-3253 -5009 0
-3254 -5010 0
-3255 -5011 0
-3256 -5012 0
-3253 -5061 0
-3254 -5062 0
-3255 -5063 0
-3256 -5064 0
-3253 -5065 0
-3254 -5066 0
-3255 -5067 0
-3256 -5068 0
-3253 -5069 0
-3254 -5070 0
-3255 -5071 0
-3256 -5072 0
-3257 -3261 0
-3258 -3262 0
-3259 -3263 0
-3260 -3264 0
-3257 -3469 0
-3258 -3470 0
-3259 -3471 0
-3260 -3472 0
-3257 -3473 0
-3258 -3474 0
-3259 -3475 0
-3260 -3476 0
-3257 -3705 0
-3258 -3706 0
-3259 -3707 0
-3260 -3708 0
-3257 -4129 0
-3258 -4130 0
-3259 -4131 0
-3260 -4132 0
-3257 -4349 0
-3258 -4350 0
-3259 -4351 0
-3260 -4352 0
-3257 -4481 0
-3258 -4482 0
-3259 -4483 0
-3260 -4484 0
-3257 -4853 0
-3258 -4854 0
-3259 -4855 0
-3260 -4856 0
-3257 -5073 0
-3258 -5074 0
-3259 -5075 0
-3260 -5076 0
-3257 -5077 0
-3258 -5078 0
-3259 -5079 0
-3260 -5080 0
-3257 -5081 0
-3258 -5082 0
-3259 -5083 0
-3260 -5084 0
-3257 -5085 0
-3258 -5086 0
-3259 -5087 0
-3260 -5088 0
-3261 -3265 0
-3262 -3266 0
-3263 -3267 0
-3264 -3268 0
-3261 -3305 0
-3262 -3306 0
-3263 -3307 0
-3264 -3308 0
-3261 -3885 0
-3262 -3886 0
-3263 -3887 0
-3264 -3888 0
-3261 -4133 0
-3262 -4134 0
-3263 -4135 0
-3264 -4136 0
-3261 -4365 0
-3262 -4366 0
-3263 -4367 0
-3264 -4368 0
-3261 -4481 0
-3262 -4482 0
-3263 -4483 0
-3264 -4484 0
-3261 -4617 0
-3262 -4618 0
-3263 -4619 0
-3264 -4620 0
-3261 -4621 0
-3262 -4622 0
-3263 -4623 0
-3264 -4624 0
-3261 -4841 0
-3262 -4842 0
-3263 -4843 0
-3264 -4844 0
-3261 -4845 0
-3262 -4846 0
-3263 -4847 0
-3264 -4848 0
-3261 -4857 0
-3262 -4858 0
-3263 -4859 0
-3264 -4860 0
-3261 -5001 0
-3262 -5002 0
-3263 -5003 0
-3264 -5004 0
-3261 -5013 0
-3262 -5014 0
-3263 -5015 0
-3264 -5016 0
-3261 -5089 0
-3262 -5090 0
-3263 -5091 0
-3264 -5092 0
-3261 -5093 0
-3262 -5094 0
-3263 -5095 0
-3264 -5096 0
-3261 -5097 0
-3262 -5098 0
-3263 -5099 0
-3264 -5100 0
-3265 -3309 0
-3266 -3310 0
-3267 -3311 0
-3268 -3312 0
-3265 -5101 0
-3266 -5102 0
-3267 -5103 0
-3268 -5104 0
-3265 -5105 0
-3266 -5106 0
-3267 -5107 0
-3268 -5108 0
-3265 -5109 0
-3266 -5110 0
-3267 -5111 0
-3268 -5112 0
-3265 -5113 0
-3266 -5114 0
-3267 -5115 0
-3268 -5116 0
-3269 -3273 0
-3270 -3274 0
-3271 -3275 0
-3272 -3276 0
-3269 -3317 0
-3270 -3318 0
-3271 -3319 0
-3272 -3320 0
-3269 -4137 0
-3270 -4138 0
-3271 -4139 0
-3272 -4140 0
-3269 -5025 0
-3270 -5026 0
-3271 -5027 0
-3272 -5028 0
-3269 -5077 0
-3270 -5078 0
-3271 -5079 0
-3272 -5080 0
-3269 -5117 0
-3270 -5118 0
-3271 -5119 0
-3272 -5120 0
-3269 -5121 0
-3270 -5122 0
-3271 -5123 0
-3272 -5124 0
-3269 -5125 0
-3270 -5126 0
-3271 -5127 0
-3272 -5128 0
-3273 -3277 0
-3274 -3278 0
-3275 -3279 0
-3276 -3280 0
-3273 -3321 0
-3274 -3322 0
-3275 -3323 0
-3276 -3324 0
-3273 -3361 0
-3274 -3362 0
-3275 -3363 0
-3276 -3364 0
-3273 -3897 0
-3274 -3898 0
-3275 -3899 0
-3276 -3900 0
-3273 -4141 0
-3274 -4142 0
-3275 -4143 0
-3276 -4144 0
-3273 -4369 0
-3274 -4370 0
-3275 -4371 0
-3276 -4372 0
-3273 -4621 0
-3274 -4622 0
-3275 -4623 0
-3276 -4624 0
-3273 -5005 0
-3274 -5006 0
-3275 -5007 0
-3276 -5008 0
-3273 -5017 0
-3274 -5018 0
-3275 -5019 0
-3276 -5020 0
-3273 -5029 0
-3274 -5030 0
-3275 -5031 0
-3276 -5032 0
-3273 -5049 0
-3274 -5050 0
-3275 -5051 0
-3276 -5052 0
-3273 -5081 0
-3274 -5082 0
-3275 -5083 0
-3276 -5084 0
-3273 -5117 0
-3274 -5118 0
-3275 -5119 0
-3276 -5120 0
-3273 -5129 0
-3274 -5130 0
-3275 -5131 0
-3276 -5132 0
-3273 -5133 0
-3274 -5134 0
-3275 -5135 0
-3276 -5136 0
-3273 -5137 0
-3274 -5138 0
-3275 -5139 0
-3276 -5140 0
-3277 -3325 0
-3278 -3326 0
-3279 -3327 0
-3280 -3328 0
-3277 -3361 0
-3278 -3362 0
-3279 -3363 0
-3280 -3364 0
-3277 -3365 0
-3278 -3366 0
-3279 -3367 0
-3280 -3368 0
-3277 -3445 0
-3278 -3446 0
-3279 -3447 0
-3280 -3448 0
-3277 -3473 0
-3278 -3474 0
-3279 -3475 0
-3280 -3476 0
-3277 -3653 0
-3278 -3654 0
-3279 -3655 0
-3280 -3656 0
-3277 -3833 0
-3278 -3834 0
-3279 -3835 0
-3280 -3836 0
-3277 -4041 0
-3278 -4042 0
-3279 -4043 0
-3280 -4044 0
-3277 -4617 0
-3278 -4618 0
-3279 -4619 0
-3280 -4620 0
-3277 -5033 0
-3278 -5034 0
-3279 -5035 0
-3280 -5036 0
-3277 -5101 0
-3278 -5102 0
-3279 -5103 0
-3280 -5104 0
-3277 -5141 0
-3278 -5142 0
-3279 -5143 0
-3280 -5144 0
-3277 -5145 0
-3278 -5146 0
-3279 -5147 0
-3280 -5148 0
-3277 -5149 0
-3278 -5150 0
-3279 -5151 0
-3280 -5152 0
-3277 -5153 0
-3278 -5154 0
-3279 -5155 0
-3280 -5156 0
-3277 -5157 0
-3278 -5158 0
-3279 -5159 0
-3280 -5160 0
-3277 -5161 0
-3278 -5162 0
-3279 -5163 0
-3280 -5164 0
-3281 -4861 0
-3282 -4862 0
-3283 -4863 0
-3284 -4864 0
-3281 -5085 0
-3282 -5086 0
-3283 -5087 0
-3284 -5088 0
-3281 -5089 0
-3282 -5090 0
-3283 -5091 0
-3284 -5092 0
-3281 -5145 0
-3282 -5146 0
-3283 -5147 0
-3284 -5148 0
-3281 -5169 0
-3282 -5170 0
-3283 -5171 0
-3284 -5172 0
-3285 -3289 0
-3286 -3290 0
-3287 -3291 0
-3288 -3292 0
-3285 -3337 0
-3286 -3338 0
-3287 -3339 0
-3288 -3340 0
-3285 -3901 0
-3286 -3902 0
-3287 -3903 0
-3288 -3904 0
-3285 -4357 0
-3286 -4358 0
-3287 -4359 0
-3288 -4360 0
-3285 -4605 0
-3286 -4606 0
-3287 -4607 0
-3288 -4608 0
-3285 -5021 0
-3286 -5022 0
-3287 -5023 0
-3288 -5024 0
-3285 -5045 0
-3286 -5046 0
-3287 -5047 0
-3288 -5048 0
-3285 -5053 0
-3286 -5054 0
-3287 -5055 0
-3288 -5056 0
-3285 -5097 0
-3286 -5098 0
-3287 -5099 0
-3288 -5100 0
-3285 -5113 0
-3286 -5114 0
-3287 -5115 0
-3288 -5116 0
-3285 -5125 0
-3286 -5126 0
-3287 -5127 0
-3288 -5128 0
-3285 -5137 0
-3286 -5138 0
-3287 -5139 0
-3288 -5140 0
-3285 -5153 0
-3286 -5154 0
-3287 -5155 0
-3288 -5156 0
-3285 -5173 0
-3286 -5174 0
-3287 -5175 0
-3288 -5176 0
-3289 -3341 0
-3290 -3342 0
-3291 -3343 0
-3292 -3344 0
-3289 -5057 0
-3290 -5058 0
-3291 -5059 0
-3292 -5060 0
-3289 -5069 0
-3290 -5070 0
-3291 -5071 0
-3292 -5072 0
-3289 -5157 0
-3290 -5158 0
-3291 -5159 0
-3292 -5160 0
-3289 -5173 0
-3290 -5174 0
-3291 -5175 0
-3292 -5176 0
-3293 -3529 0
-3294 -3530 0
-3295 -3531 0
-3296 -3532 0
-3293 -3733 0
-3294 -3734 0
-3295 -3735 0
-3296 -3736 0
-3293 -5185 0
-3294 -5186 0
-3295 -5187 0
-3296 -5188 0
-3293 -5189 0
-3294 -5190 0
-3295 -5191 0
-3296 -5192 0
-3297 -3301 0
-3298 -3302 0
-3299 -3303 0
-3300 -3304 0
-3297 -3309 0
-3298 -3310 0
-3299 -3311 0
-3300 -3312 0
-3297 -4373 0
-3298 -4374 0
-3299 -4375 0
-3300 -4376 0
-3297 -4957 0
-3298 -4958 0
-3299 -4959 0
-3300 -4960 0
-3297 -5193 0
-3298 -5194 0
-3299 -5195 0
-3300 -5196 0
-3301 -5197 0
-3302 -5198 0
-3303 -5199 0
-3304 -5200 0
-3301 -5201 0
-3302 -5202 0
-3303 -5203 0
-3304 -5204 0
-3301 -5205 0
-3302 -5206 0
-3303 -5207 0
-3304 -5208 0
-3301 -5209 0
-3302 -5210 0
-3303 -5211 0
-3304 -5212 0
-3301 -5213 0
-3302 -5214 0
-3303 -5215 0
-3304 -5216 0
-3301 -5217 0
-3302 -5218 0
-3303 -5219 0
-3304 -5220 0
-3305 -3309 0
-3306 -3310 0
-3307 -3311 0
-3308 -3312 0
-3305 -3357 0
-3306 -3358 0
-3307 -3359 0
-3308 -3360 0
-3305 -3733 0
-3306 -3734 0
-3307 -3735 0
-3308 -3736 0
-3305 -4377 0
-3306 -4378 0
-3307 -4379 0
-3308 -4380 0
-3305 -4489 0
-3306 -4490 0
-3307 -4491 0
-3308 -4492 0
-3305 -4613 0
-3306 -4614 0
-3307 -4615 0
-3308 -4616 0
-3305 -4953 0
-3306 -4954 0
-3307 -4955 0
-3308 -4956 0
-3305 -5013 0
-3306 -5014 0
-3307 -5015 0
-3308 -5016 0
-3305 -5117 0
-3306 -5118 0
-3307 -5119 0
-3308 -5120 0
-3305 -5237 0
-3306 -5238 0
-3307 -5239 0
-3308 -5240 0
-3309 -3361 0
-3310 -3362 0
-3311 -3363 0
-3312 -3364 0
-3309 -3861 0
-3310 -3862 0
-3311 -3863 0
-3312 -3864 0
-3309 -3865 0
-3310 -3866 0
-3311 -3867 0
-3312 -3868 0
-3309 -4145 0
-3310 -4146 0
-3311 -4147 0
-3312 -4148 0
-3309 -4525 0
-3310 -4526 0
-3311 -4527 0
-3312 -4528 0
-3309 -4613 0
-3310 -4614 0
-3311 -4615 0
-3312 -4616 0
-3309 -5005 0
-3310 -5006 0
-3311 -5007 0
-3312 -5008 0
-3309 -5241 0
-3310 -5242 0
-3311 -5243 0
-3312 -5244 0
-3313 -3329 0
-3314 -3330 0
-3315 -3331 0
-3316 -3332 0
-3313 -3365 0
-3314 -3366 0
-3315 -3367 0
-3316 -3368 0
-3313 -3529 0
-3314 -3530 0
-3315 -3531 0
-3316 -3532 0
-3313 -3905 0
-3314 -3906 0
-3315 -3907 0
-3316 -3908 0
-3313 -4105 0
-3314 -4106 0
-3315 -4107 0
-3316 -4108 0
-3313 -4281 0
-3314 -4282 0
-3315 -4283 0
-3316 -4284 0
-3313 -4461 0
-3314 -4462 0
-3315 -4463 0
-3316 -4464 0
-3313 -4529 0
-3314 -4530 0
-3315 -4531 0
-3316 -4532 0
-3313 -4897 0
-3314 -4898 0
-3315 -4899 0
-3316 -4900 0
-3313 -4921 0
-3314 -4922 0
-3315 -4923 0
-3316 -4924 0
-3313 -5245 0
-3314 -5246 0
-3315 -5247 0
-3316 -5248 0
-3317 -3321 0
-3318 -3322 0
-3319 -3323 0
-3320 -3324 0
-3317 -3369 0
-3318 -3370 0
-3319 -3371 0
-3320 -3372 0
-3317 -4149 0
-3318 -4150 0
-3319 -4151 0
-3320 -4152 0
-3317 -4501 0
-3318 -4502 0
-3319 -4503 0
-3320 -4504 0
-3317 -4505 0
-3318 -4506 0
-3319 -4507 0
-3320 -4508 0
-3317 -5197 0
-3318 -5198 0
-3319 -5199 0
-3320 -5200 0
-3317 -5221 0
-3318 -5222 0
-3319 -5223 0
-3320 -5224 0
-3321 -3325 0
-3322 -3326 0
-3323 -3327 0
-3324 -3328 0
-3321 -3913 0
-3322 -3914 0
-3323 -3915 0
-3324 -3916 0
-3321 -4153 0
-3322 -4154 0
-3323 -4155 0
-3324 -4156 0
-3321 -4381 0
-3322 -4382 0
-3323 -4383 0
-3324 -4384 0
-3321 -5017 0
-3322 -5018 0
-3323 -5019 0
-3324 -5020 0
-3321 -5201 0
-3322 -5202 0
-3323 -5203 0
-3324 -5204 0
-3321 -5225 0
-3322 -5226 0
-3323 -5227 0
-3324 -5228 0
-3321 -5241 0
-3322 -5242 0
-3323 -5243 0
-3324 -5244 0
-3321 -5261 0
-3322 -5262 0
-3323 -5263 0
-3324 -5264 0
-3321 -5265 0
-3322 -5266 0
-3323 -5267 0
-3324 -5268 0
-3325 -3329 0
-3326 -3330 0
-3327 -3331 0
-3328 -3332 0
-3325 -3397 0
-3326 -3398 0
-3327 -3399 0
-3328 -3400 0
-3325 -3417 0
-3326 -3418 0
-3327 -3419 0
-3328 -3420 0
-3325 -3865 0
-3326 -3866 0
-3327 -3867 0
-3328 -3868 0
-3325 -3917 0
-3326 -3918 0
-3327 -3919 0
-3328 -3920 0
-3325 -3989 0
-3326 -3990 0
-3327 -3991 0
-3328 -3992 0
-3325 -4733 0
-3326 -4734 0
-3327 -4735 0
-3328 -4736 0
-3325 -4953 0
-3326 -4954 0
-3327 -4955 0
-3328 -4956 0
-3325 -5177 0
-3326 -5178 0
-3327 -5179 0
-3328 -5180 0
-3325 -5205 0
-3326 -5206 0
-3327 -5207 0
-3328 -5208 0
-3325 -5261 0
-3326 -5262 0
-3327 -5263 0
-3328 -5264 0
-3325 -5269 0
-3326 -5270 0
-3327 -5271 0
-3328 -5272 0
-3325 -5273 0
-3326 -5274 0
-3327 -5275 0
-3328 -5276 0
-3325 -5277 0
-3326 -5278 0
-3327 -5279 0
-3328 -5280 0
-3329 -3373 0
-3330 -3374 0
-3331 -3375 0
-3332 -3376 0
-3329 -3397 0
-3330 -3398 0
-3331 -3399 0
-3332 -3400 0
-3329 -3413 0
-3330 -3414 0
-3331 -3415 0
-3332 -3416 0
-3329 -3861 0
-3330 -3862 0
-3331 -3863 0
-3332 -3864 0
-3329 -3921 0
-3330 -3922 0
-3331 -3923 0
-3332 -3924 0
-3329 -4157 0
-3330 -4158 0
-3331 -4159 0
-3332 -4160 0
-3329 -4285 0
-3330 -4286 0
-3331 -4287 0
-3332 -4288 0
-3329 -4533 0
-3330 -4534 0
-3331 -4535 0
-3332 -4536 0
-3329 -4901 0
-3330 -4902 0
-3331 -4903 0
-3332 -4904 0
-3329 -4941 0
-3330 -4942 0
-3331 -4943 0
-3332 -4944 0
-3329 -4945 0
-3330 -4946 0
-3331 -4947 0
-3332 -4948 0
-3329 -5049 0
-3330 -5050 0
-3331 -5051 0
-3332 -5052 0
-3329 -5193 0
-3330 -5194 0
-3331 -5195 0
-3332 -5196 0
-3329 -5209 0
-3330 -5210 0
-3331 -5211 0
-3332 -5212 0
-3329 -5281 0
-3330 -5282 0
-3331 -5283 0
-3332 -5284 0
-3329 -5285 0
-3330 -5286 0
-3331 -5287 0
-3332 -5288 0
-3329 -5289 0
-3330 -5290 0
-3331 -5291 0
-3332 -5292 0
-3333 -3337 0
-3334 -3338 0
-3335 -3339 0
-3336 -3340 0
-3333 -5245 0
-3334 -5246 0
-3335 -5247 0
-3336 -5248 0
-3333 -5249 0
-3334 -5250 0
-3335 -5251 0
-3336 -5252 0
-3333 -5289 0
-3334 -5290 0
-3335 -5291 0
-3336 -5292 0
-3333 -5293 0
-3334 -5294 0
-3335 -5295 0
-3336 -5296 0
-3337 -3341 0
-3338 -3342 0
-3339 -3343 0
-3340 -3344 0
-3337 -3381 0
-3338 -3382 0
-3339 -3383 0
-3340 -3384 0
-3337 -3925 0
-3338 -3926 0
-3339 -3927 0
-3340 -3928 0
-3337 -4497 0
-3338 -4498 0
-3339 -4499 0
-3340 -4500 0
-3337 -4505 0
-3338 -4506 0
-3339 -4507 0
-3340 -4508 0
-3337 -4921 0
-3338 -4922 0
-3339 -4923 0
-3340 -4924 0
-3337 -4957 0
-3338 -4958 0
-3339 -4959 0
-3340 -4960 0
-3337 -5021 0
-3338 -5022 0
-3339 -5023 0
-3340 -5024 0
-3337 -5213 0
-3338 -5214 0
-3339 -5215 0
-3340 -5216 0
-3337 -5253 0
-3338 -5254 0
-3339 -5255 0
-3340 -5256 0
-3337 -5273 0
-3338 -5274 0
-3339 -5275 0
-3340 -5276 0
-3337 -5293 0
-3338 -5294 0
-3339 -5295 0
-3340 -5296 0
-3341 -3345 0
-3342 -3346 0
-3343 -3347 0
-3344 -3348 0
-3341 -3385 0
-3342 -3386 0
-3343 -3387 0
-3344 -3388 0
-3341 -4161 0
-3342 -4162 0
-3343 -4163 0
-3344 -4164 0
-3341 -4497 0
-3342 -4498 0
-3343 -4499 0
-3344 -4500 0
-3341 -4501 0
-3342 -4502 0
-3343 -4503 0
-3344 -4504 0
-3341 -4945 0
-3342 -4946 0
-3343 -4947 0
-3344 -4948 0
-3341 -5181 0
-3342 -5182 0
-3343 -5183 0
-3344 -5184 0
-3341 -5189 0
-3342 -5190 0
-3343 -5191 0
-3344 -5192 0
-3341 -5217 0
-3342 -5218 0
-3343 -5219 0
-3344 -5220 0
-3341 -5257 0
-3342 -5258 0
-3343 -5259 0
-3344 -5260 0
-3341 -5265 0
-3342 -5266 0
-3343 -5267 0
-3344 -5268 0
-3341 -5277 0
-3342 -5278 0
-3343 -5279 0
-3344 -5280 0
-3345 -3389 0
-3346 -3390 0
-3347 -3391 0
-3348 -3392 0
-3345 -4941 0
-3346 -4942 0
-3347 -4943 0
-3348 -4944 0
-3345 -4949 0
-3346 -4950 0
-3347 -4951 0
-3348 -4952 0
-3345 -5233 0
-3346 -5234 0
-3347 -5235 0
-3348 -5236 0
-3349 -3353 0
-3350 -3354 0
-3351 -3355 0
-3352 -3356 0
-3349 -3929 0
-3350 -3930 0
-3351 -3931 0
-3352 -3932 0
-3349 -5333 0
-3350 -5334 0
-3351 -5335 0
-3352 -5336 0
-3349 -5337 0
-3350 -5338 0
-3351 -5339 0
-3352 -5340 0
-3349 -5341 0
-3350 -5342 0
-3351 -5343 0
-3352 -5344 0
-3349 -5345 0
-3350 -5346 0
-3351 -5347 0
-3352 -5348 0
-3353 -3357 0
-3354 -3358 0
-3355 -3359 0
-3356 -3360 0
-3353 -3933 0
-3354 -3934 0
-3355 -3935 0
-3356 -3936 0
-3353 -4165 0
-3354 -4166 0
-3355 -4167 0
-3356 -4168 0
-3353 -4353 0
-3354 -4354 0
-3355 -4355 0
-3356 -4356 0
-3353 -4357 0
-3354 -4358 0
-3355 -4359 0
-3356 -4360 0
-3353 -5133 0
-3354 -5134 0
-3355 -5135 0
-3356 -5136 0
-3353 -5137 0
-3354 -5138 0
-3355 -5139 0
-3356 -5140 0
-3353 -5185 0
-3354 -5186 0
-3355 -5187 0
-3356 -5188 0
-3353 -5349 0
-3354 -5350 0
-3355 -5351 0
-3356 -5352 0
-3357 -3361 0
-3358 -3362 0
-3359 -3363 0
-3360 -3364 0
-3357 -3405 0
-3358 -3406 0
-3359 -3407 0
-3360 -3408 0
-3357 -3473 0
-3358 -3474 0
-3359 -3475 0
-3360 -3476 0
-3357 -3477 0
-3358 -3478 0
-3359 -3479 0
-3360 -3480 0
-3357 -3733 0
-3358 -3734 0
-3359 -3735 0
-3360 -3736 0
-3357 -3937 0
-3358 -3938 0
-3359 -3939 0
-3360 -3940 0
-3357 -4741 0
-3358 -4742 0
-3359 -4743 0
-3360 -4744 0
-3357 -5081 0
-3358 -5082 0
-3359 -5083 0
-3360 -5084 0
-3357 -5353 0
-3358 -5354 0
-3359 -5355 0
-3360 -5356 0
-3357 -5357 0
-3358 -5358 0
-3359 -5359 0
-3360 -5360 0
-3357 -5361 0
-3358 -5362 0
-3359 -5363 0
-3360 -5364 0
-3361 -3845 0
-3362 -3846 0
-3363 -3847 0
-3364 -3848 0
-3361 -4537 0
-3362 -4538 0
-3363 -4539 0
-3364 -4540 0
-3361 -5129 0
-3362 -5130 0
-3363 -5131 0
-3364 -5132 0
-3361 -5261 0
-3362 -5262 0
-3363 -5263 0
-3364 -5264 0
-3361 -5365 0
-3362 -5366 0
-3363 -5367 0
-3364 -5368 0
-3361 -5369 0
-3362 -5370 0
-3363 -5371 0
-3364 -5372 0
-3361 -5373 0
-3362 -5374 0
-3363 -5375 0
-3364 -5376 0
-3365 -3373 0
-3366 -3374 0
-3367 -3375 0
-3368 -3376 0
-3365 -3409 0
-3366 -3410 0
-3367 -3411 0
-3368 -3412 0
-3365 -3449 0
-3366 -3450 0
-3367 -3451 0
-3368 -3452 0
-3365 -3473 0
-3366 -3474 0
-3367 -3475 0
-3368 -3476 0
-3365 -3529 0
-3366 -3530 0
-3367 -3531 0
-3368 -3532 0
-3365 -3565 0
-3366 -3566 0
-3367 -3567 0
-3368 -3568 0
-3365 -3833 0
-3366 -3834 0
-3367 -3835 0
-3368 -3836 0
-3365 -4169 0
-3366 -4170 0
-3367 -4171 0
-3368 -4172 0
-3365 -4233 0
-3366 -4234 0
-3367 -4235 0
-3368 -4236 0
-3365 -4357 0
-3366 -4358 0
-3367 -4359 0
-3368 -4360 0
-3365 -4565 0
-3366 -4566 0
-3367 -4567 0
-3368 -4568 0
-3365 -5041 0
-3366 -5042 0
-3367 -5043 0
-3368 -5044 0
-3365 -5045 0
-3366 -5046 0
-3367 -5047 0
-3368 -5048 0
-3365 -5065 0
-3366 -5066 0
-3367 -5067 0
-3368 -5068 0
-3365 -5333 0
-3366 -5334 0
-3367 -5335 0
-3368 -5336 0
-3365 -5377 0
-3366 -5378 0
-3367 -5379 0
-3368 -5380 0
-3365 -5381 0
-3366 -5382 0
-3367 -5383 0
-3368 -5384 0
-3369 -3417 0
-3370 -3418 0
-3371 -3419 0
-3372 -3420 0
-3369 -3941 0
-3370 -3942 0
-3371 -3943 0
-3372 -3944 0
-3369 -4177 0
-3370 -4178 0
-3371 -4179 0
-3372 -4180 0
-3369 -5129 0
-3370 -5130 0
-3371 -5131 0
-3372 -5132 0
-3369 -5177 0
-3370 -5178 0
-3371 -5179 0
-3372 -5180 0
-3369 -5305 0
-3370 -5306 0
-3371 -5307 0
-3372 -5308 0
-3369 -5329 0
-3370 -5330 0
-3371 -5331 0
-3372 -5332 0
-3369 -5393 0
-3370 -5394 0
-3371 -5395 0
-3372 -5396 0
-3373 -3429 0
-3374 -3430 0
-3375 -3431 0
-3376 -3432 0
-3373 -3449 0
-3374 -3450 0
-3375 -3451 0
-3376 -3452 0
-3373 -3477 0
-3374 -3478 0
-3375 -3479 0
-3376 -3480 0
-3373 -3837 0
-3374 -3838 0
-3375 -3839 0
-3376 -3840 0
-3373 -4009 0
-3374 -4010 0
-3375 -4011 0
-3376 -4012 0
-3373 -4237 0
-3374 -4238 0
-3375 -4239 0
-3376 -4240 0
-3373 -4393 0
-3374 -4394 0
-3375 -4395 0
-3376 -4396 0
-3373 -5345 0
-3374 -5346 0
-3375 -5347 0
-3376 -5348 0
-3373 -5397 0
-3374 -5398 0
-3375 -5399 0
-3376 -5400 0
-3373 -5401 0
-3374 -5402 0
-3375 -5403 0
-3376 -5404 0
-3377 -3389 0
-3378 -3390 0
-3379 -3391 0
-3380 -3392 0
-3377 -3433 0
-3378 -3434 0
-3379 -3435 0
-3380 -3436 0
-3377 -4397 0
-3378 -4398 0
-3379 -4399 0
-3380 -4400 0
-3377 -5029 0
-3378 -5030 0
-3379 -5031 0
-3380 -5032 0
-3377 -5041 0
-3378 -5042 0
-3379 -5043 0
-3380 -5044 0
-3377 -5133 0
-3378 -5134 0
-3379 -5135 0
-3380 -5136 0
-3377 -5309 0
-3378 -5310 0
-3379 -5311 0
-3380 -5312 0
-3377 -5357 0
-3378 -5358 0
-3379 -5359 0
-3380 -5360 0
-3377 -5369 0
-3378 -5370 0
-3379 -5371 0
-3380 -5372 0
-3377 -5385 0
-3378 -5386 0
-3379 -5387 0
-3380 -5388 0
-3377 -5397 0
-3378 -5398 0
-3379 -5399 0
-3380 -5400 0
-3381 -3385 0
-3382 -3386 0
-3383 -3387 0
-3384 -3388 0
-3381 -5317 0
-3382 -5318 0
-3383 -5319 0
-3384 -5320 0
-3381 -5373 0
-3382 -5374 0
-3383 -5375 0
-3384 -5376 0
-3381 -5377 0
-3382 -5378 0
-3383 -5379 0
-3384 -5380 0
-3381 -5389 0
-3382 -5390 0
-3383 -5391 0
-3384 -5392 0
-3385 -3389 0
-3386 -3390 0
-3387 -3391 0
-3388 -3392 0
-3385 -4617 0
-3386 -4618 0
-3387 -4619 0
-3388 -4620 0
-3385 -4633 0
-3386 -4634 0
-3387 -4635 0
-3388 -4636 0
-3385 -5093 0
-3386 -5094 0
-3387 -5095 0
-3388 -5096 0
-3385 -5149 0
-3386 -5150 0
-3387 -5151 0
-3388 -5152 0
-3385 -5189 0
-3386 -5190 0
-3387 -5191 0
-3388 -5192 0
-3385 -5297 0
-3386 -5298 0
-3387 -5299 0
-3388 -5300 0
-3385 -5321 0
-3386 -5322 0
-3387 -5323 0
-3388 -5324 0
-3385 -5381 0
-3386 -5382 0
-3387 -5383 0
-3388 -5384 0
-3385 -5405 0
-3386 -5406 0
-3387 -5407 0
-3388 -5408 0
-3389 -3441 0
-3390 -3442 0
-3391 -3443 0
-3392 -3444 0
-3389 -4401 0
-3390 -4402 0
-3391 -4403 0
-3392 -4404 0
-3389 -4617 0
-3390 -4618 0
-3391 -4619 0
-3392 -4620 0
-3389 -4629 0
-3390 -4630 0
-3391 -4631 0
-3392 -4632 0
-3389 -5029 0
-3390 -5030 0
-3391 -5031 0
-3392 -5032 0
-3389 -5045 0
-3390 -5046 0
-3391 -5047 0
-3392 -5048 0
-3389 -5089 0
-3390 -5090 0
-3391 -5091 0
-3392 -5092 0
-3389 -5137 0
-3390 -5138 0
-3391 -5139 0
-3392 -5140 0
-3389 -5145 0
-3390 -5146 0
-3391 -5147 0
-3392 -5148 0
-3389 -5301 0
-3390 -5302 0
-3391 -5303 0
-3392 -5304 0
-3389 -5313 0
-3390 -5314 0
-3391 -5315 0
-3392 -5316 0
-3389 -5325 0
-3390 -5326 0
-3391 -5327 0
-3392 -5328 0
-3389 -5361 0
-3390 -5362 0
-3391 -5363 0
-3392 -5364 0
-3389 -5393 0
-3390 -5394 0
-3391 -5395 0
-3392 -5396 0
-3389 -5401 0
-3390 -5402 0
-3391 -5403 0
-3392 -5404 0
-3393 -3597 0
-3394 -3598 0
-3395 -3599 0
-3396 -3600 0
-3393 -3601 0
-3394 -3602 0
-3395 -3603 0
-3396 -3604 0
-3393 -3769 0
-3394 -3770 0
-3395 -3771 0
-3396 -3772 0
-3393 -5409 0
-3394 -5410 0
-3395 -5411 0
-3396 -5412 0
-3393 -5413 0
-3394 -5414 0
-3395 -5415 0
-3396 -5416 0
-3397 -3401 0
-3398 -3402 0
-3399 -3403 0
-3400 -3404 0
-3397 -3445 0
-3398 -3446 0
-3399 -3447 0
-3400 -3448 0
-3397 -3769 0
-3398 -3770 0
-3399 -3771 0
-3400 -3772 0
-3397 -3817 0
-3398 -3818 0
-3399 -3819 0
-3400 -3820 0
-3397 -3857 0
-3398 -3858 0
-3399 -3859 0
-3400 -3860 0
-3397 -3937 0
-3398 -3938 0
-3399 -3939 0
-3400 -3940 0
-3397 -3945 0
-3398 -3946 0
-3399 -3947 0
-3400 -3948 0
-3397 -4901 0
-3398 -4902 0
-3399 -4903 0
-3400 -4904 0
-3397 -5269 0
-3398 -5270 0
-3399 -5271 0
-3400 -5272 0
-3397 -5417 0
-3398 -5418 0
-3399 -5419 0
-3400 -5420 0
-3397 -5421 0
-3398 -5422 0
-3399 -5423 0
-3400 -5424 0
-3397 -5425 0
-3398 -5426 0
-3399 -5427 0
-3400 -5428 0
-3397 -5429 0
-3398 -5430 0
-3399 -5431 0
-3400 -5432 0
-3401 -3449 0
-3402 -3450 0
-3403 -3451 0
-3404 -3452 0
-3401 -3817 0
-3402 -3818 0
-3403 -3819 0
-3404 -3820 0
-3401 -3933 0
-3402 -3934 0
-3403 -3935 0
-3404 -3936 0
-3401 -4109 0
-3402 -4110 0
-3403 -4111 0
-3404 -4112 0
-3401 -4165 0
-3402 -4166 0
-3403 -4167 0
-3404 -4168 0
-3401 -4973 0
-3402 -4974 0
-3403 -4975 0
-3404 -4976 0
-3401 -4977 0
-3402 -4978 0
-3403 -4979 0
-3404 -4980 0
-3405 -3953 0
-3406 -3954 0
-3407 -3955 0
-3408 -3956 0
-3405 -4185 0
-3406 -4186 0
-3407 -4187 0
-3408 -4188 0
-3405 -4493 0
-3406 -4494 0
-3407 -4495 0
-3408 -4496 0
-3405 -4497 0
-3406 -4498 0
-3407 -4499 0
-3408 -4500 0
-3405 -4917 0
-3406 -4918 0
-3407 -4919 0
-3408 -4920 0
-3405 -5273 0
-3406 -5274 0
-3407 -5275 0
-3408 -5276 0
-3405 -5277 0
-3406 -5278 0
-3407 -5279 0
-3408 -5280 0
-3409 -3413 0
-3410 -3414 0
-3411 -3415 0
-3412 -3416 0
-3409 -3429 0
-3410 -3430 0
-3411 -3431 0
-3412 -3432 0
-3409 -3465 0
-3410 -3466 0
-3411 -3467 0
-3412 -3468 0
-3409 -3565 0
-3410 -3566 0
-3411 -3567 0
-3412 -3568 0
-3409 -4109 0
-3410 -4110 0
-3411 -4111 0
-3412 -4112 0
-3409 -4261 0
-3410 -4262 0
-3411 -4263 0
-3412 -4264 0
-3409 -4441 0
-3410 -4442 0
-3411 -4443 0
-3412 -4444 0
-3409 -4889 0
-3410 -4890 0
-3411 -4891 0
-3412 -4892 0
-3409 -4893 0
-3410 -4894 0
-3411 -4895 0
-3412 -4896 0
-3409 -4901 0
-3410 -4902 0
-3411 -4903 0
-3412 -4904 0
-3409 -4909 0
-3410 -4910 0
-3411 -4911 0
-3412 -4912 0
-3409 -4917 0
-3410 -4918 0
-3411 -4919 0
-3412 -4920 0
-3409 -4997 0
-3410 -4998 0
-3411 -4999 0
-3412 -5000 0
-3413 -3417 0
-3414 -3418 0
-3415 -3419 0
-3416 -3420 0
-3413 -3469 0
-3414 -3470 0
-3415 -3471 0
-3416 -3472 0
-3413 -3561 0
-3414 -3562 0
-3415 -3563 0
-3416 -3564 0
-3413 -3601 0
-3414 -3602 0
-3415 -3603 0
-3416 -3604 0
-3413 -3957 0
-3414 -3958 0
-3415 -3959 0
-3416 -3960 0
-3413 -4189 0
-3414 -4190 0
-3415 -4191 0
-3416 -4192 0
-3413 -4257 0
-3414 -4258 0
-3415 -4259 0
-3416 -4260 0
-3413 -4437 0
-3414 -4438 0
-3415 -4439 0
-3416 -4440 0
-3413 -4497 0
-3414 -4498 0
-3415 -4499 0
-3416 -4500 0
-3413 -4545 0
-3414 -4546 0
-3415 -4547 0
-3416 -4548 0
-3413 -4933 0
-3414 -4934 0
-3415 -4935 0
-3416 -4936 0
-3413 -5213 0
-3414 -5214 0
-3415 -5215 0
-3416 -5216 0
-3413 -5217 0
-3414 -5218 0
-3415 -5219 0
-3416 -5220 0
-3413 -5433 0
-3414 -5434 0
-3415 -5435 0
-3416 -5436 0
-3413 -5437 0
-3414 -5438 0
-3415 -5439 0
-3416 -5440 0
-3417 -3421 0
-3418 -3422 0
-3419 -3423 0
-3420 -3424 0
-3417 -3473 0
-3418 -3474 0
-3419 -3475 0
-3420 -3476 0
-3417 -3597 0
-3418 -3598 0
-3419 -3599 0
-3420 -3600 0
-3417 -3961 0
-3418 -3962 0
-3419 -3963 0
-3420 -3964 0
-3417 -4405 0
-3418 -4406 0
-3419 -4407 0
-3420 -4408 0
-3417 -4493 0
-3418 -4494 0
-3419 -4495 0
-3420 -4496 0
-3417 -4745 0
-3418 -4746 0
-3419 -4747 0
-3420 -4748 0
-3417 -4953 0
-3418 -4954 0
-3419 -4955 0
-3420 -4956 0
-3417 -5225 0
-3418 -5226 0
-3419 -5227 0
-3420 -5228 0
-3417 -5293 0
-3418 -5294 0
-3419 -5295 0
-3420 -5296 0
-3417 -5305 0
-3418 -5306 0
-3419 -5307 0
-3420 -5308 0
-3417 -5349 0
-3418 -5350 0
-3419 -5351 0
-3420 -5352 0
-3421 -3425 0
-3422 -3426 0
-3423 -3427 0
-3424 -3428 0
-3421 -3477 0
-3422 -3478 0
-3423 -3479 0
-3424 -3480 0
-3421 -4193 0
-3422 -4194 0
-3423 -4195 0
-3424 -4196 0
-3421 -5269 0
-3422 -5270 0
-3423 -5271 0
-3424 -5272 0
-3421 -5441 0
-3422 -5442 0
-3423 -5443 0
-3424 -5444 0
-3421 -5453 0
-3422 -5454 0
-3423 -5455 0
-3424 -5456 0
-3425 -3429 0
-3426 -3430 0
-3427 -3431 0
-3428 -3432 0
-3425 -3481 0
-3426 -3482 0
-3427 -3483 0
-3428 -3484 0
-3425 -3869 0
-3426 -3870 0
-3427 -3871 0
-3428 -3872 0
-3429 -4549 0
-3430 -4550 0
-3431 -4551 0
-3432 -4552 0
-3429 -5417 0
-3430 -5418 0
-3431 -5419 0
-3432 -5420 0
-3429 -5457 0
-3430 -5458 0
-3431 -5459 0
-3432 -5460 0
-3433 -3437 0
-3434 -3438 0
-3435 -3439 0
-3436 -3440 0
-3433 -3441 0
-3434 -3442 0
-3435 -3443 0
-3436 -3444 0
-3433 -3485 0
-3434 -3486 0
-3435 -3487 0
-3436 -3488 0
-3433 -3861 0
-3434 -3862 0
-3435 -3863 0
-3436 -3864 0
-3433 -4553 0
-3434 -4554 0
-3435 -4555 0
-3436 -4556 0
-3433 -4649 0
-3434 -4650 0
-3435 -4651 0
-3436 -4652 0
-3433 -4889 0
-3434 -4890 0
-3435 -4891 0
-3436 -4892 0
-3433 -4961 0
-3434 -4962 0
-3435 -4963 0
-3436 -4964 0
-3433 -5205 0
-3434 -5206 0
-3435 -5207 0
-3436 -5208 0
-3433 -5217 0
-3434 -5218 0
-3435 -5219 0
-3436 -5220 0
-3433 -5277 0
-3434 -5278 0
-3435 -5279 0
-3436 -5280 0
-3433 -5289 0
-3434 -5290 0
-3435 -5291 0
-3436 -5292 0
-3433 -5309 0
-3434 -5310 0
-3435 -5311 0
-3436 -5312 0
-3433 -5409 0
-3434 -5410 0
-3435 -5411 0
-3436 -5412 0
-3433 -5421 0
-3434 -5422 0
-3435 -5423 0
-3436 -5424 0
-3433 -5445 0
-3434 -5446 0
-3435 -5447 0
-3436 -5448 0
-3437 -3489 0
-3438 -3490 0
-3439 -3491 0
-3440 -3492 0
-3437 -5205 0
-3438 -5206 0
-3439 -5207 0
-3440 -5208 0
-3437 -5213 0
-3438 -5214 0
-3439 -5215 0
-3440 -5216 0
-3437 -5273 0
-3438 -5274 0
-3439 -5275 0
-3440 -5276 0
-3437 -5413 0
-3438 -5414 0
-3439 -5415 0
-3440 -5416 0
-3437 -5449 0
-3438 -5450 0
-3439 -5451 0
-3440 -5452 0
-3441 -3493 0
-3442 -3494 0
-3443 -3495 0
-3444 -3496 0
-3441 -3861 0
-3442 -3862 0
-3443 -3863 0
-3444 -3864 0
-3441 -3869 0
-3442 -3870 0
-3443 -3871 0
-3444 -3872 0
-3441 -4893 0
-3442 -4894 0
-3443 -4895 0
-3444 -4896 0
-3441 -4933 0
-3442 -4934 0
-3443 -4935 0
-3444 -4936 0
-3441 -4965 0
-3442 -4966 0
-3443 -4967 0
-3444 -4968 0
-3441 -4973 0
-3442 -4974 0
-3443 -4975 0
-3444 -4976 0
-3441 -5313 0
-3442 -5314 0
-3443 -5315 0
-3444 -5316 0
-3441 -5429 0
-3442 -5430 0
-3443 -5431 0
-3444 -5432 0
-3441 -5453 0
-3442 -5454 0
-3443 -5455 0
-3444 -5456 0
-3441 -5457 0
-3442 -5458 0
-3443 -5459 0
-3444 -5460 0
-3445 -3449 0
-3446 -3450 0
-3447 -3451 0
-3448 -3452 0
-3445 -3461 0
-3446 -3462 0
-3447 -3463 0
-3448 -3464 0
-3445 -3769 0
-3446 -3770 0
-3447 -3771 0
-3448 -3772 0
-3445 -3825 0
-3446 -3826 0
-3447 -3827 0
-3448 -3828 0
-3445 -3841 0
-3446 -3842 0
-3447 -3843 0
-3448 -3844 0
-3445 -3873 0
-3446 -3874 0
-3447 -3875 0
-3448 -3876 0
-3445 -4869 0
-3446 -4870 0
-3447 -4871 0
-3448 -4872 0
-3445 -5461 0
-3446 -5462 0
-3447 -5463 0
-3448 -5464 0
-3445 -5465 0
-3446 -5466 0
-3447 -5467 0
-3448 -5468 0
-3445 -5469 0
-3446 -5470 0
-3447 -5471 0
-3448 -5472 0
-3445 -5473 0
-3446 -5474 0
-3447 -5475 0
-3448 -5476 0
-3445 -5477 0
-3446 -5478 0
-3447 -5479 0
-3448 -5480 0
-3449 -3453 0
-3450 -3454 0
-3451 -3455 0
-3452 -3456 0
-3449 -3689 0
-3450 -3690 0
-3451 -3691 0
-3452 -3692 0
-3449 -5065 0
-3450 -5066 0
-3451 -5067 0
-3452 -5068 0
-3449 -5481 0
-3450 -5482 0
-3451 -5483 0
-3452 -5484 0
-3449 -5485 0
-3450 -5486 0
-3451 -5487 0
-3452 -5488 0
-3453 -3457 0
-3454 -3458 0
-3455 -3459 0
-3456 -3460 0
-3453 -3965 0
-3454 -3966 0
-3455 -3967 0
-3456 -3968 0
-3453 -4185 0
-3454 -4186 0
-3455 -4187 0
-3456 -4188 0
-3453 -4357 0
-3454 -4358 0
-3455 -4359 0
-3456 -4360 0
-3453 -4361 0
-3454 -4362 0
-3455 -4363 0
-3456 -4364 0
-3453 -4873 0
-3454 -4874 0
-3455 -4875 0
-3456 -4876 0
-3453 -5165 0
-3454 -5166 0
-3455 -5167 0
-3456 -5168 0
-3457 -5377 0
-3458 -5378 0
-3459 -5379 0
-3460 -5380 0
-3457 -5381 0
-3458 -5382 0
-3459 -5383 0
-3460 -5384 0
-3457 -5489 0
-3458 -5490 0
-3459 -5491 0
-3460 -5492 0
-3457 -5493 0
-3458 -5494 0
-3459 -5495 0
-3460 -5496 0
-3457 -5497 0
-3458 -5498 0
-3459 -5499 0
-3460 -5500 0
-3461 -3841 0
-3462 -3842 0
-3463 -3843 0
-3464 -3844 0
-3461 -3877 0
-3462 -3878 0
-3463 -3879 0
-3464 -3880 0
-3461 -4253 0
-3462 -4254 0
-3463 -4255 0
-3464 -4256 0
-3461 -4617 0
-3462 -4618 0
-3463 -4619 0
-3464 -4620 0
-3461 -4625 0
-3462 -4626 0
-3463 -4627 0
-3464 -4628 0
-3461 -4845 0
-3462 -4846 0
-3463 -4847 0
-3464 -4848 0
-3461 -4849 0
-3462 -4850 0
-3463 -4851 0
-3464 -4852 0
-3461 -5401 0
-3462 -5402 0
-3463 -5403 0
-3464 -5404 0
-3461 -5501 0
-3462 -5502 0
-3463 -5503 0
-3464 -5504 0
-3465 -3469 0
-3466 -3470 0
-3467 -3471 0
-3468 -3472 0
-3465 -4653 0
-3466 -4654 0
-3467 -4655 0
-3468 -4656 0
-3465 -4837 0
-3466 -4838 0
-3467 -4839 0
-3468 -4840 0
-3465 -4849 0
-3466 -4850 0
-3467 -4851 0
-3468 -4852 0
-3469 -3473 0
-3470 -3474 0
-3471 -3475 0
-3472 -3476 0
-3469 -3601 0
-3470 -3602 0
-3471 -3603 0
-3472 -3604 0
-3469 -4201 0
-3470 -4202 0
-3471 -4203 0
-3472 -4204 0
-3469 -4361 0
-3470 -4362 0
-3471 -4363 0
-3472 -4364 0
-3469 -4657 0
-3470 -4658 0
-3471 -4659 0
-3472 -4660 0
-3469 -4837 0
-3470 -4838 0
-3471 -4839 0
-3472 -4840 0
-3469 -4845 0
-3470 -4846 0
-3471 -4847 0
-3472 -4848 0
-3469 -5053 0
-3470 -5054 0
-3471 -5055 0
-3472 -5056 0
-3469 -5057 0
-3470 -5058 0
-3471 -5059 0
-3472 -5060 0
-3469 -5065 0
-3470 -5066 0
-3471 -5067 0
-3472 -5068 0
-3469 -5073 0
-3470 -5074 0
-3471 -5075 0
-3472 -5076 0
-3469 -5173 0
-3470 -5174 0
-3471 -5175 0
-3472 -5176 0
-3469 -5489 0
-3470 -5490 0
-3471 -5491 0
-3472 -5492 0
-3469 -5505 0
-3470 -5506 0
-3471 -5507 0
-3472 -5508 0
-3473 -3477 0
-3474 -3478 0
-3475 -3479 0
-3476 -3480 0
-3473 -3597 0
-3474 -3598 0
-3475 -3599 0
-3476 -3600 0
-3473 -3617 0
-3474 -3618 0
-3475 -3619 0
-3476 -3620 0
-3473 -3969 0
-3474 -3970 0
-3475 -3971 0
-3476 -3972 0
-3473 -4357 0
-3474 -4358 0
-3475 -4359 0
-3476 -4360 0
-3473 -4597 0
-3474 -4598 0
-3475 -4599 0
-3476 -4600 0
-3473 -4617 0
-3474 -4618 0
-3475 -4619 0
-3476 -4620 0
-3473 -4917 0
-3474 -4918 0
-3475 -4919 0
-3476 -4920 0
-3473 -5081 0
-3474 -5082 0
-3475 -5083 0
-3476 -5084 0
-3473 -5109 0
-3474 -5110 0
-3475 -5111 0
-3476 -5112 0
-3473 -5113 0
-3474 -5114 0
-3475 -5115 0
-3476 -5116 0
-3473 -5493 0
-3474 -5494 0
-3475 -5495 0
-3476 -5496 0
-3477 -3481 0
-3478 -3482 0
-3479 -3483 0
-3480 -3484 0
-3477 -3633 0
-3478 -3634 0
-3479 -3635 0
-3480 -3636 0
-3477 -4205 0
-3478 -4206 0
-3479 -4207 0
-3480 -4208 0
-3477 -4625 0
-3478 -4626 0
-3479 -4627 0
-3480 -4628 0
-3477 -5317 0
-3478 -5318 0
-3479 -5319 0
-3480 -5320 0
-3477 -5321 0
-3478 -5322 0
-3479 -5323 0
-3480 -5324 0
-3477 -5353 0
-3478 -5354 0
-3479 -5355 0
-3480 -5356 0
-3477 -5509 0
-3478 -5510 0
-3479 -5511 0
-3480 -5512 0
-3481 -4409 0
-3482 -4410 0
-3483 -4411 0
-3484 -4412 0
-3481 -4557 0
-3482 -4558 0
-3483 -4559 0
-3484 -4560 0
-3481 -4661 0
-3482 -4662 0
-3483 -4663 0
-3484 -4664 0
-3481 -4877 0
-3482 -4878 0
-3483 -4879 0
-3484 -4880 0
-3481 -5461 0
-3482 -5462 0
-3483 -5463 0
-3484 -5464 0
-3481 -5513 0
-3482 -5514 0
-3483 -5515 0
-3484 -5516 0
-3485 -3489 0
-3486 -3490 0
-3487 -3491 0
-3488 -3492 0
-3485 -3493 0
-3486 -3494 0
-3487 -3495 0
-3488 -3496 0
-3485 -3833 0
-3486 -3834 0
-3487 -3835 0
-3488 -3836 0
-3485 -4093 0
-3486 -4094 0
-3487 -4095 0
-3488 -4096 0
-3485 -5057 0
-3486 -5058 0
-3487 -5059 0
-3488 -5060 0
-3485 -5105 0
-3486 -5106 0
-3487 -5107 0
-3488 -5108 0
-3485 -5109 0
-3486 -5110 0
-3487 -5111 0
-3488 -5112 0
-3485 -5157 0
-3486 -5158 0
-3487 -5159 0
-3488 -5160 0
-3485 -5165 0
-3486 -5166 0
-3487 -5167 0
-3488 -5168 0
-3485 -5321 0
-3486 -5322 0
-3487 -5323 0
-3488 -5324 0
-3485 -5381 0
-3486 -5382 0
-3487 -5383 0
-3488 -5384 0
-3485 -5409 0
-3486 -5410 0
-3487 -5411 0
-3488 -5412 0
-3485 -5465 0
-3486 -5466 0
-3487 -5467 0
-3488 -5468 0
-3485 -5481 0
-3486 -5482 0
-3487 -5483 0
-3488 -5484 0
-3485 -5501 0
-3486 -5502 0
-3487 -5503 0
-3488 -5504 0
-3485 -5513 0
-3486 -5514 0
-3487 -5515 0
-3488 -5516 0
-3489 -3833 0
-3490 -3834 0
-3491 -3835 0
-3492 -3836 0
-3489 -4089 0
-3490 -4090 0
-3491 -4091 0
-3492 -4092 0
-3489 -4313 0
-3490 -4314 0
-3491 -4315 0
-3492 -4316 0
-3489 -4749 0
-3490 -4750 0
-3491 -4751 0
-3492 -4752 0
-3489 -4881 0
-3490 -4882 0
-3491 -4883 0
-3492 -4884 0
-3489 -5053 0
-3490 -5054 0
-3491 -5055 0
-3492 -5056 0
-3489 -5153 0
-3490 -5154 0
-3491 -5155 0
-3492 -5156 0
-3489 -5317 0
-3490 -5318 0
-3491 -5319 0
-3492 -5320 0
-3489 -5345 0
-3490 -5346 0
-3491 -5347 0
-3492 -5348 0
-3489 -5377 0
-3490 -5378 0
-3491 -5379 0
-3492 -5380 0
-3489 -5401 0
-3490 -5402 0
-3491 -5403 0
-3492 -5404 0
-3489 -5413 0
-3490 -5414 0
-3491 -5415 0
-3492 -5416 0
-3489 -5469 0
-3490 -5470 0
-3491 -5471 0
-3492 -5472 0
-3493 -5105 0
-3494 -5106 0
-3495 -5107 0
-3496 -5108 0
-3493 -5113 0
-3494 -5114 0
-3495 -5115 0
-3496 -5116 0
-3493 -5485 0
-3494 -5486 0
-3495 -5487 0
-3496 -5488 0
-3493 -5497 0
-3494 -5498 0
-3495 -5499 0
-3496 -5500 0
-3493 -5505 0
-3494 -5506 0
-3495 -5507 0
-3496 -5508 0
-3493 -5509 0
-3494 -5510 0
-3495 -5511 0
-3496 -5512 0
-3497 -3501 0
-3498 -3502 0
-3499 -3503 0
-3500 -3504 0
-3497 -3533 0
-3498 -3534 0
-3499 -3535 0
-3500 -3536 0
-3497 -3665 0
-3498 -3666 0
-3499 -3667 0
-3500 -3668 0
-3497 -3849 0
-3498 -3850 0
-3499 -3851 0
-3500 -3852 0
-3497 -4565 0
-3498 -4566 0
-3499 -4567 0
-3500 -4568 0
-3497 -5033 0
-3498 -5034 0
-3499 -5035 0
-3500 -5036 0
-3497 -5461 0
-3498 -5462 0
-3499 -5463 0
-3500 -5464 0
-3497 -5549 0
-3498 -5550 0
-3499 -5551 0
-3500 -5552 0
-3501 -3537 0
-3502 -3538 0
-3503 -3539 0
-3504 -3540 0
-3501 -3669 0
-3502 -3670 0
-3503 -3671 0
-3504 -3672 0
-3501 -3837 0
-3502 -3838 0
-3503 -3839 0
-3504 -3840 0
-3501 -4125 0
-3502 -4126 0
-3503 -4127 0
-3504 -4128 0
-3501 -5037 0
-3502 -5038 0
-3503 -5039 0
-3504 -5040 0
-3501 -5193 0
-3502 -5194 0
-3503 -5195 0
-3504 -5196 0
-3501 -5417 0
-3502 -5418 0
-3503 -5419 0
-3504 -5420 0
-3505 -3509 0
-3506 -3510 0
-3507 -3511 0
-3508 -3512 0
-3505 -3565 0
-3506 -3566 0
-3507 -3567 0
-3508 -3568 0
-3505 -3677 0
-3506 -3678 0
-3507 -3679 0
-3508 -3680 0
-3505 -3773 0
-3506 -3774 0
-3507 -3775 0
-3508 -3776 0
-3505 -4669 0
-3506 -4670 0
-3507 -4671 0
-3508 -4672 0
-3505 -4889 0
-3506 -4890 0
-3507 -4891 0
-3508 -4892 0
-3505 -5041 0
-3506 -5042 0
-3507 -5043 0
-3508 -5044 0
-3505 -5309 0
-3506 -5310 0
-3507 -5311 0
-3508 -5312 0
-3505 -5473 0
-3506 -5474 0
-3507 -5475 0
-3508 -5476 0
-3505 -5541 0
-3506 -5542 0
-3507 -5543 0
-3508 -5544 0
-3509 -3513 0
-3510 -3514 0
-3511 -3515 0
-3512 -3516 0
-3509 -3541 0
-3510 -3542 0
-3511 -3543 0
-3512 -3544 0
-3509 -3565 0
-3510 -3566 0
-3511 -3567 0
-3512 -3568 0
-3509 -3577 0
-3510 -3578 0
-3511 -3579 0
-3512 -3580 0
-3509 -3633 0
-3510 -3634 0
-3511 -3635 0
-3512 -3636 0
-3509 -3641 0
-3510 -3642 0
-3511 -3643 0
-3512 -3644 0
-3509 -3681 0
-3510 -3682 0
-3511 -3683 0
-3512 -3684 0
-3509 -3785 0
-3510 -3786 0
-3511 -3787 0
-3512 -3788 0
-3509 -4765 0
-3510 -4766 0
-3511 -4767 0
-3512 -4768 0
-3509 -4881 0
-3510 -4882 0
-3511 -4883 0
-3512 -4884 0
-3509 -4893 0
-3510 -4894 0
-3511 -4895 0
-3512 -4896 0
-3509 -4957 0
-3510 -4958 0
-3511 -4959 0
-3512 -4960 0
-3509 -5045 0
-3510 -5046 0
-3511 -5047 0
-3512 -5048 0
-3509 -5313 0
-3510 -5314 0
-3511 -5315 0
-3512 -5316 0
-3509 -5317 0
-3510 -5318 0
-3511 -5319 0
-3512 -5320 0
-3509 -5477 0
-3510 -5478 0
-3511 -5479 0
-3512 -5480 0
-3509 -5549 0
-3510 -5550 0
-3511 -5551 0
-3512 -5552 0
-3509 -5553 0
-3510 -5554 0
-3511 -5555 0
-3512 -5556 0
-3513 -3517 0
-3514 -3518 0
-3515 -3519 0
-3516 -3520 0
-3513 -3545 0
-3514 -3546 0
-3515 -3547 0
-3516 -3548 0
-3513 -3633 0
-3514 -3634 0
-3515 -3635 0
-3516 -3636 0
-3513 -3637 0
-3514 -3638 0
-3515 -3639 0
-3516 -3640 0
-3513 -4569 0
-3514 -4570 0
-3515 -4571 0
-3516 -4572 0
-3513 -5321 0
-3514 -5322 0
-3515 -5323 0
-3516 -5324 0
-3513 -5425 0
-3514 -5426 0
-3515 -5427 0
-3516 -5428 0
-3513 -5537 0
-3514 -5538 0
-3515 -5539 0
-3516 -5540 0
-3513 -5545 0
-3514 -5546 0
-3515 -5547 0
-3516 -5548 0
-3513 -5557 0
-3514 -5558 0
-3515 -5559 0
-3516 -5560 0
-3517 -3549 0
-3518 -3550 0
-3519 -3551 0
-3520 -3552 0
-3517 -4769 0
-3518 -4770 0
-3519 -4771 0
-3520 -4772 0
-3517 -5325 0
-3518 -5326 0
-3519 -5327 0
-3520 -5328 0
-3517 -5429 0
-3518 -5430 0
-3519 -5431 0
-3520 -5432 0
-3517 -5557 0
-3518 -5558 0
-3519 -5559 0
-3520 -5560 0
-3521 -3525 0
-3522 -3526 0
-3523 -3527 0
-3524 -3528 0
-3521 -3537 0
-3522 -3538 0
-3523 -3539 0
-3524 -3540 0
-3521 -4109 0
-3522 -4110 0
-3523 -4111 0
-3524 -4112 0
-3521 -4573 0
-3522 -4574 0
-3523 -4575 0
-3524 -4576 0
-3521 -5569 0
-3522 -5570 0
-3523 -5571 0
-3524 -5572 0
-3525 -3529 0
-3526 -3530 0
-3527 -3531 0
-3528 -3532 0
-3525 -3981 0
-3526 -3982 0
-3527 -3983 0
-3528 -3984 0
-3525 -4141 0
-3526 -4142 0
-3527 -4143 0
-3528 -4144 0
-3525 -4369 0
-3526 -4370 0
-3527 -4371 0
-3528 -4372 0
-3525 -4861 0
-3526 -4862 0
-3527 -4863 0
-3528 -4864 0
-3525 -4865 0
-3526 -4866 0
-3527 -4867 0
-3528 -4868 0
-3525 -4897 0
-3526 -4898 0
-3527 -4899 0
-3528 -4900 0
-3525 -5009 0
-3526 -5010 0
-3527 -5011 0
-3528 -5012 0
-3525 -5065 0
-3526 -5066 0
-3527 -5067 0
-3528 -5068 0
-3525 -5169 0
-3526 -5170 0
-3527 -5171 0
-3528 -5172 0
-3525 -5521 0
-3526 -5522 0
-3527 -5523 0
-3528 -5524 0
-3529 -3557 0
-3530 -3558 0
-3531 -3559 0
-3532 -3560 0
-3529 -3605 0
-3530 -3606 0
-3531 -3607 0
-3532 -3608 0
-3529 -3793 0
-3530 -3794 0
-3531 -3795 0
-3532 -3796 0
-3529 -3985 0
-3530 -3986 0
-3531 -3987 0
-3532 -3988 0
-3529 -4217 0
-3530 -4218 0
-3531 -4219 0
-3532 -4220 0
-3529 -4577 0
-3530 -4578 0
-3531 -4579 0
-3532 -4580 0
-3529 -4673 0
-3530 -4674 0
-3531 -4675 0
-3532 -4676 0
-3529 -4773 0
-3530 -4774 0
-3531 -4775 0
-3532 -4776 0
-3529 -5009 0
-3530 -5010 0
-3531 -5011 0
-3532 -5012 0
-3529 -5197 0
-3530 -5198 0
-3531 -5199 0
-3532 -5200 0
-3529 -5329 0
-3530 -5330 0
-3531 -5331 0
-3532 -5332 0
-3529 -5561 0
-3530 -5562 0
-3531 -5563 0
-3532 -5564 0
-3529 -5573 0
-3530 -5574 0
-3531 -5575 0
-3532 -5576 0
-3533 -3537 0
-3534 -3538 0
-3535 -3539 0
-3536 -3540 0
-3533 -3565 0
-3534 -3566 0
-3535 -3567 0
-3536 -3568 0
-3533 -3821 0
-3534 -3822 0
-3535 -3823 0
-3536 -3824 0
-3533 -3833 0
-3534 -3834 0
-3535 -3835 0
-3536 -3836 0
-3533 -3961 0
-3534 -3962 0
-3535 -3963 0
-3536 -3964 0
-3533 -4421 0
-3534 -4422 0
-3535 -4423 0
-3536 -4424 0
-3533 -4901 0
-3534 -4902 0
-3535 -4903 0
-3536 -4904 0
-3533 -5205 0
-3534 -5206 0
-3535 -5207 0
-3536 -5208 0
-3533 -5409 0
-3534 -5410 0
-3535 -5411 0
-3536 -5412 0
-3533 -5413 0
-3534 -5414 0
-3535 -5415 0
-3536 -5416 0
-3533 -5565 0
-3534 -5566 0
-3535 -5567 0
-3536 -5568 0
-3537 -3569 0
-3538 -3570 0
-3539 -3571 0
-3540 -3572 0
-3537 -3821 0
-3538 -3822 0
-3539 -3823 0
-3540 -3824 0
-3537 -3829 0
-3538 -3830 0
-3539 -3831 0
-3540 -3832 0
-3537 -3957 0
-3538 -3958 0
-3539 -3959 0
-3540 -3960 0
-3537 -4189 0
-3538 -4190 0
-3539 -4191 0
-3540 -4192 0
-3537 -5209 0
-3538 -5210 0
-3539 -5211 0
-3540 -5212 0
-3537 -5585 0
-3538 -5586 0
-3539 -5587 0
-3540 -5588 0
-3541 -3545 0
-3542 -3546 0
-3543 -3547 0
-3544 -3548 0
-3541 -3601 0
-3542 -3602 0
-3543 -3603 0
-3544 -3604 0
-3541 -4685 0
-3542 -4686 0
-3543 -4687 0
-3544 -4688 0
-3541 -4781 0
-3542 -4782 0
-3543 -4783 0
-3544 -4784 0
-3541 -4905 0
-3542 -4906 0
-3543 -4907 0
-3544 -4908 0
-3541 -5053 0
-3542 -5054 0
-3543 -5055 0
-3544 -5056 0
-3541 -5213 0
-3542 -5214 0
-3543 -5215 0
-3544 -5216 0
-3541 -5413 0
-3542 -5414 0
-3543 -5415 0
-3544 -5416 0
-3541 -5581 0
-3542 -5582 0
-3543 -5583 0
-3544 -5584 0
-3541 -5589 0
-3542 -5590 0
-3543 -5591 0
-3544 -5592 0
-3545 -3549 0
-3546 -3550 0
-3547 -3551 0
-3548 -3552 0
-3545 -3573 0
-3546 -3574 0
-3547 -3575 0
-3548 -3576 0
-3545 -3601 0
-3546 -3602 0
-3547 -3603 0
-3548 -3604 0
-3545 -3605 0
-3546 -3606 0
-3547 -3607 0
-3548 -3608 0
-3545 -3653 0
-3546 -3654 0
-3547 -3655 0
-3548 -3656 0
-3545 -3677 0
-3546 -3678 0
-3547 -3679 0
-3548 -3680 0
-3545 -3697 0
-3546 -3698 0
-3547 -3699 0
-3548 -3700 0
-3545 -4581 0
-3546 -4582 0
-3547 -4583 0
-3548 -4584 0
-3545 -4785 0
-3546 -4786 0
-3547 -4787 0
-3548 -4788 0
-3545 -4865 0
-3546 -4866 0
-3547 -4867 0
-3548 -4868 0
-3545 -4977 0
-3546 -4978 0
-3547 -4979 0
-3548 -4980 0
-3545 -5057 0
-3546 -5058 0
-3547 -5059 0
-3548 -5060 0
-3545 -5149 0
-3546 -5150 0
-3547 -5151 0
-3548 -5152 0
-3545 -5217 0
-3546 -5218 0
-3547 -5219 0
-3548 -5220 0
-3545 -5409 0
-3546 -5410 0
-3547 -5411 0
-3548 -5412 0
-3545 -5569 0
-3546 -5570 0
-3547 -5571 0
-3548 -5572 0
-3545 -5585 0
-3546 -5586 0
-3547 -5587 0
-3548 -5588 0
-3545 -5593 0
-3546 -5594 0
-3547 -5595 0
-3548 -5596 0
-3549 -3577 0
-3550 -3578 0
-3551 -3579 0
-3552 -3580 0
-3549 -3653 0
-3550 -3654 0
-3551 -3655 0
-3552 -3656 0
-3549 -4585 0
-3550 -4586 0
-3551 -4587 0
-3552 -4588 0
-3549 -4689 0
-3550 -4690 0
-3551 -4691 0
-3552 -4692 0
-3549 -4789 0
-3550 -4790 0
-3551 -4791 0
-3552 -4792 0
-3549 -4861 0
-3550 -4862 0
-3551 -4863 0
-3552 -4864 0
-3549 -4973 0
-3550 -4974 0
-3551 -4975 0
-3552 -4976 0
-3549 -5145 0
-3550 -5146 0
-3551 -5147 0
-3552 -5148 0
-3549 -5485 0
-3550 -5486 0
-3551 -5487 0
-3552 -5488 0
-3549 -5517 0
-3550 -5518 0
-3551 -5519 0
-3552 -5520 0
-3549 -5573 0
-3550 -5574 0
-3551 -5575 0
-3552 -5576 0
-3553 -3713 0
-3554 -3714 0
-3555 -3715 0
-3556 -3716 0
-3553 -3717 0
-3554 -3718 0
-3555 -3719 0
-3556 -3720 0
-3553 -4341 0
-3554 -4342 0
-3555 -4343 0
-3556 -4344 0
-3553 -4345 0
-3554 -4346 0
-3555 -4347 0
-3556 -4348 0
-3553 -5597 0
-3554 -5598 0
-3555 -5599 0
-3556 -5600 0
-3557 -3561 0
-3558 -3562 0
-3559 -3563 0
-3560 -3564 0
-3557 -3593 0
-3558 -3594 0
-3559 -3595 0
-3560 -3596 0
-3557 -3989 0
-3558 -3990 0
-3559 -3991 0
-3560 -3992 0
-3557 -4225 0
-3558 -4226 0
-3559 -4227 0
-3560 -4228 0
-3557 -4357 0
-3558 -4358 0
-3559 -4359 0
-3560 -4360 0
-3557 -5021 0
-3558 -5022 0
-3559 -5023 0
-3560 -5024 0
-3557 -5185 0
-3558 -5186 0
-3559 -5187 0
-3560 -5188 0
-3557 -5293 0
-3558 -5294 0
-3559 -5295 0
-3560 -5296 0
-3557 -5561 0
-3558 -5562 0
-3559 -5563 0
-3560 -5564 0
-3561 -3565 0
-3562 -3566 0
-3563 -3567 0
-3564 -3568 0
-3561 -3641 0
-3562 -3642 0
-3563 -3643 0
-3564 -3644 0
-3561 -3645 0
-3562 -3646 0
-3563 -3647 0
-3564 -3648 0
-3561 -4229 0
-3562 -4230 0
-3563 -4231 0
-3564 -4232 0
-3561 -4425 0
-3562 -4426 0
-3563 -4427 0
-3564 -4428 0
-3561 -5185 0
-3562 -5186 0
-3563 -5187 0
-3564 -5188 0
-3561 -5305 0
-3562 -5306 0
-3563 -5307 0
-3564 -5308 0
-3561 -5541 0
-3562 -5542 0
-3563 -5543 0
-3564 -5544 0
-3561 -5597 0
-3562 -5598 0
-3563 -5599 0
-3564 -5600 0
-3565 -3569 0
-3566 -3570 0
-3567 -3571 0
-3568 -3572 0
-3565 -3597 0
-3566 -3598 0
-3567 -3599 0
-3568 -3600 0
-3565 -4589 0
-3566 -4590 0
-3567 -4591 0
-3568 -4592 0
-3565 -4697 0
-3566 -4698 0
-3567 -4699 0
-3568 -4700 0
-3565 -4793 0
-3566 -4794 0
-3567 -4795 0
-3568 -4796 0
-3565 -5341 0
-3566 -5342 0
-3567 -5343 0
-3568 -5344 0
-3565 -5553 0
-3566 -5554 0
-3567 -5555 0
-3568 -5556 0
-3565 -5565 0
-3566 -5566 0
-3567 -5567 0
-3568 -5568 0
-3565 -5589 0
-3566 -5590 0
-3567 -5591 0
-3568 -5592 0
-3569 -3601 0
-3570 -3602 0
-3571 -3603 0
-3572 -3604 0
-3569 -4205 0
-3570 -4206 0
-3571 -4207 0
-3572 -4208 0
-3569 -4881 0
-3570 -4882 0
-3571 -4883 0
-3572 -4884 0
-3569 -4909 0
-3570 -4910 0
-3571 -4911 0
-3572 -4912 0
-3569 -5065 0
-3570 -5066 0
-3571 -5067 0
-3572 -5068 0
-3569 -5345 0
-3570 -5346 0
-3571 -5347 0
-3572 -5348 0
-3573 -3577 0
-3574 -3578 0
-3575 -3579 0
-3576 -3580 0
-3573 -3617 0
-3574 -3618 0
-3575 -3619 0
-3576 -3620 0
-3573 -3645 0
-3574 -3646 0
-3575 -3647 0
-3576 -3648 0
-3573 -3697 0
-3574 -3698 0
-3575 -3699 0
-3576 -3700 0
-3573 -3993 0
-3574 -3994 0
-3575 -3995 0
-3576 -3996 0
-3573 -5069 0
-3574 -5070 0
-3575 -5071 0
-3576 -5072 0
-3573 -5553 0
-3574 -5554 0
-3575 -5555 0
-3576 -5556 0
-3577 -3609 0
-3578 -3610 0
-3579 -3611 0
-3580 -3612 0
-3577 -3617 0
-3578 -3618 0
-3579 -3619 0
-3580 -3620 0
-3577 -3641 0
-3578 -3642 0
-3579 -3643 0
-3580 -3644 0
-3577 -3717 0
-3578 -3718 0
-3579 -3719 0
-3580 -3720 0
-3577 -3997 0
-3578 -3998 0
-3579 -3999 0
-3580 -4000 0
-3577 -4705 0
-3578 -4706 0
-3579 -4707 0
-3580 -4708 0
-3577 -4801 0
-3578 -4802 0
-3579 -4803 0
-3580 -4804 0
-3577 -4881 0
-3578 -4882 0
-3579 -4883 0
-3580 -4884 0
-3577 -4949 0
-3578 -4950 0
-3579 -4951 0
-3580 -4952 0
-3577 -5021 0
-3578 -5022 0
-3579 -5023 0
-3580 -5024 0
-3577 -5537 0
-3578 -5538 0
-3579 -5539 0
-3580 -5540 0
-3581 -3749 0
-3582 -3750 0
-3583 -3751 0
-3584 -3752 0
-3581 -3805 0
-3582 -3806 0
-3583 -3807 0
-3584 -3808 0
-3581 -4481 0
-3582 -4482 0
-3583 -4483 0
-3584 -4484 0
-3585 -3589 0
-3586 -3590 0
-3587 -3591 0
-3588 -3592 0
-3585 -3601 0
-3586 -3602 0
-3587 -3603 0
-3588 -3604 0
-3585 -3617 0
-3586 -3618 0
-3587 -3619 0
-3588 -3620 0
-3585 -4001 0
-3586 -4002 0
-3587 -4003 0
-3588 -4004 0
-3585 -4337 0
-3586 -4338 0
-3587 -4339 0
-3588 -4340 0
-3585 -4357 0
-3586 -4358 0
-3587 -4359 0
-3588 -4360 0
-3585 -4513 0
-3586 -4514 0
-3587 -4515 0
-3588 -4516 0
-3585 -4865 0
-3586 -4866 0
-3587 -4867 0
-3588 -4868 0
-3585 -4873 0
-3586 -4874 0
-3587 -4875 0
-3588 -4876 0
-3585 -4997 0
-3586 -4998 0
-3587 -4999 0
-3588 -5000 0
-3585 -5073 0
-3586 -5074 0
-3587 -5075 0
-3588 -5076 0
-3589 -3593 0
-3590 -3594 0
-3591 -3595 0
-3592 -3596 0
-3589 -3621 0
-3590 -3622 0
-3591 -3623 0
-3592 -3624 0
-3589 -4005 0
-3590 -4006 0
-3591 -4007 0
-3592 -4008 0
-3589 -4337 0
-3590 -4338 0
-3591 -4339 0
-3592 -4340 0
-3589 -4353 0
-3590 -4354 0
-3591 -4355 0
-3592 -4356 0
-3589 -4509 0
-3590 -4510 0
-3591 -4511 0
-3592 -4512 0
-3589 -5437 0
-3590 -5438 0
-3591 -5439 0
-3592 -5440 0
-3589 -5489 0
-3590 -5490 0
-3591 -5491 0
-3592 -5492 0
-3593 -3625 0
-3594 -3626 0
-3595 -3627 0
-3596 -3628 0
-3593 -4233 0
-3594 -4234 0
-3595 -4235 0
-3596 -4236 0
-3593 -4805 0
-3594 -4806 0
-3595 -4807 0
-3596 -4808 0
-3593 -5077 0
-3594 -5078 0
-3595 -5079 0
-3596 -5080 0
-3593 -5221 0
-3594 -5222 0
-3595 -5223 0
-3596 -5224 0
-3593 -5493 0
-3594 -5494 0
-3595 -5495 0
-3596 -5496 0
-3593 -5601 0
-3594 -5602 0
-3595 -5603 0
-3596 -5604 0
-3597 -3601 0
-3598 -3602 0
-3599 -3603 0
-3600 -3604 0
-3597 -3629 0
-3598 -3630 0
-3599 -3631 0
-3600 -3632 0
-3597 -3677 0
-3598 -3678 0
-3599 -3679 0
-3600 -3680 0
-3597 -3681 0
-3598 -3682 0
-3599 -3683 0
-3600 -3684 0
-3597 -4013 0
-3598 -4014 0
-3599 -4015 0
-3600 -4016 0
-3597 -4241 0
-3598 -4242 0
-3599 -4243 0
-3600 -4244 0
-3597 -4433 0
-3598 -4434 0
-3599 -4435 0
-3600 -4436 0
-3597 -4917 0
-3598 -4918 0
-3599 -4919 0
-3600 -4920 0
-3597 -5349 0
-3598 -5350 0
-3599 -5351 0
-3600 -5352 0
-3597 -5581 0
-3598 -5582 0
-3599 -5583 0
-3600 -5584 0
-3601 -3633 0
-3602 -3634 0
-3603 -3635 0
-3604 -3636 0
-3601 -3805 0
-3602 -3806 0
-3603 -3807 0
-3604 -3808 0
-3601 -4017 0
-3602 -4018 0
-3603 -4019 0
-3604 -4020 0
-3601 -4709 0
-3602 -4710 0
-3603 -4711 0
-3604 -4712 0
-3601 -4809 0
-3602 -4810 0
-3603 -4811 0
-3604 -4812 0
-3601 -4873 0
-3602 -4874 0
-3603 -4875 0
-3604 -4876 0
-3601 -5593 0
-3602 -5594 0
-3603 -5595 0
-3604 -5596 0
-3605 -3609 0
-3606 -3610 0
-3607 -3611 0
-3608 -3612 0
-3605 -3637 0
-3606 -3638 0
-3607 -3639 0
-3608 -3640 0
-3605 -3677 0
-3606 -3678 0
-3607 -3679 0
-3608 -3680 0
-3605 -3713 0
-3606 -3714 0
-3607 -3715 0
-3608 -3716 0
-3605 -4021 0
-3606 -4022 0
-3607 -4023 0
-3608 -4024 0
-3605 -4245 0
-3606 -4246 0
-3607 -4247 0
-3608 -4248 0
-3605 -4813 0
-3606 -4814 0
-3607 -4815 0
-3608 -4816 0
-3605 -4865 0
-3606 -4866 0
-3607 -4867 0
-3608 -4868 0
-3605 -4961 0
-3606 -4962 0
-3607 -4963 0
-3608 -4964 0
-3605 -5133 0
-3606 -5134 0
-3607 -5135 0
-3608 -5136 0
-3605 -5189 0
-3606 -5190 0
-3607 -5191 0
-3608 -5192 0
-3605 -5229 0
-3606 -5230 0
-3607 -5231 0
-3608 -5232 0
-3605 -5381 0
-3606 -5382 0
-3607 -5383 0
-3608 -5384 0
-3605 -5573 0
-3606 -5574 0
-3607 -5575 0
-3608 -5576 0
-3609 -3681 0
-3610 -3682 0
-3611 -3683 0
-3612 -3684 0
-3609 -3717 0
-3610 -3718 0
-3611 -3719 0
-3612 -3720 0
-3609 -4029 0
-3610 -4030 0
-3611 -4031 0
-3612 -4032 0
-3609 -4249 0
-3610 -4250 0
-3611 -4251 0
-3612 -4252 0
-3609 -4965 0
-3610 -4966 0
-3611 -4967 0
-3612 -4968 0
-3609 -5137 0
-3610 -5138 0
-3611 -5139 0
-3612 -5140 0
-3609 -5233 0
-3610 -5234 0
-3611 -5235 0
-3612 -5236 0
-3609 -5497 0
-3610 -5498 0
-3611 -5499 0
-3612 -5500 0
-3609 -5593 0
-3610 -5594 0
-3611 -5595 0
-3612 -5596 0
-3609 -5601 0
-3610 -5602 0
-3611 -5603 0
-3612 -5604 0
-3609 -5605 0
-3610 -5606 0
-3611 -5607 0
-3612 -5608 0
-3613 -3649 0
-3614 -3650 0
-3615 -3651 0
-3616 -3652 0
-3613 -3765 0
-3614 -3766 0
-3615 -3767 0
-3616 -3768 0
-3613 -4033 0
-3614 -4034 0
-3615 -4035 0
-3616 -4036 0
-3613 -4613 0
-3614 -4614 0
-3615 -4615 0
-3616 -4616 0
-3613 -5609 0
-3614 -5610 0
-3615 -5611 0
-3616 -5612 0
-3613 -5613 0
-3614 -5614 0
-3615 -5615 0
-3616 -5616 0
-3613 -5617 0
-3614 -5618 0
-3615 -5619 0
-3616 -5620 0
-3617 -3621 0
-3618 -3622 0
-3619 -3623 0
-3620 -3624 0
-3617 -3633 0
-3618 -3634 0
-3619 -3635 0
-3620 -3636 0
-3617 -3653 0
-3618 -3654 0
-3619 -3655 0
-3620 -3656 0
-3617 -4037 0
-3618 -4038 0
-3619 -4039 0
-3620 -4040 0
-3617 -4817 0
-3618 -4818 0
-3619 -4819 0
-3620 -4820 0
-3617 -4841 0
-3618 -4842 0
-3619 -4843 0
-3620 -4844 0
-3617 -4853 0
-3618 -4854 0
-3619 -4855 0
-3620 -4856 0
-3617 -4917 0
-3618 -4918 0
-3619 -4919 0
-3620 -4920 0
-3617 -5537 0
-3618 -5538 0
-3619 -5539 0
-3620 -5540 0
-3621 -3625 0
-3622 -3626 0
-3623 -3627 0
-3624 -3628 0
-3621 -4485 0
-3622 -4486 0
-3623 -4487 0
-3624 -4488 0
-3621 -4497 0
-3622 -4498 0
-3623 -4499 0
-3624 -4500 0
-3621 -4821 0
-3622 -4822 0
-3623 -4823 0
-3624 -4824 0
-3621 -4853 0
-3622 -4854 0
-3623 -4855 0
-3624 -4856 0
-3621 -5021 0
-3622 -5022 0
-3623 -5023 0
-3624 -5024 0
-3621 -5081 0
-3622 -5082 0
-3623 -5083 0
-3624 -5084 0
-3621 -5173 0
-3622 -5174 0
-3623 -5175 0
-3624 -5176 0
-3621 -5609 0
-3622 -5610 0
-3623 -5611 0
-3624 -5612 0
-3625 -3657 0
-3626 -3658 0
-3627 -3659 0
-3628 -3660 0
-3625 -4041 0
-3626 -4042 0
-3627 -4043 0
-3628 -4044 0
-3625 -4485 0
-3626 -4486 0
-3627 -4487 0
-3628 -4488 0
-3625 -4493 0
-3626 -4494 0
-3627 -4495 0
-3628 -4496 0
-3625 -4925 0
-3626 -4926 0
-3627 -4927 0
-3628 -4928 0
-3625 -5621 0
-3626 -5622 0
-3627 -5623 0
-3628 -5624 0
-3629 -3633 0
-3630 -3634 0
-3631 -3635 0
-3632 -3636 0
-3629 -3665 0
-3630 -3666 0
-3631 -3667 0
-3632 -3668 0
-3629 -4049 0
-3630 -4050 0
-3631 -4051 0
-3632 -4052 0
-3629 -4261 0
-3630 -4262 0
-3631 -4263 0
-3632 -4264 0
-3629 -4441 0
-3630 -4442 0
-3631 -4443 0
-3632 -4444 0
-3629 -4617 0
-3630 -4618 0
-3631 -4619 0
-3632 -4620 0
-3629 -4953 0
-3630 -4954 0
-3631 -4955 0
-3632 -4956 0
-3629 -5313 0
-3630 -5314 0
-3631 -5315 0
-3632 -5316 0
-3629 -5353 0
-3630 -5354 0
-3631 -5355 0
-3632 -5356 0
-3629 -5545 0
-3630 -5546 0
-3631 -5547 0
-3632 -5548 0
-3633 -3669 0
-3634 -3670 0
-3635 -3671 0
-3636 -3672 0
-3633 -3805 0
-3634 -3806 0
-3635 -3807 0
-3636 -3808 0
-3633 -4265 0
-3634 -4266 0
-3635 -4267 0
-3636 -4268 0
-3633 -4445 0
-3634 -4446 0
-3635 -4447 0
-3636 -4448 0
-3633 -4845 0
-3634 -4846 0
-3635 -4847 0
-3636 -4848 0
-3633 -4877 0
-3634 -4878 0
-3635 -4879 0
-3636 -4880 0
-3633 -5553 0
-3634 -5554 0
-3635 -5555 0
-3636 -5556 0
-3633 -5613 0
-3634 -5614 0
-3635 -5615 0
-3636 -5616 0
-3637 -3641 0
-3638 -3642 0
-3639 -3643 0
-3640 -3644 0
-3637 -3673 0
-3638 -3674 0
-3639 -3675 0
-3640 -3676 0
-3637 -4053 0
-3638 -4054 0
-3639 -4055 0
-3640 -4056 0
-3637 -4269 0
-3638 -4270 0
-3639 -4271 0
-3640 -4272 0
-3637 -4449 0
-3638 -4450 0
-3639 -4451 0
-3640 -4452 0
-3637 -5157 0
-3638 -5158 0
-3639 -5159 0
-3640 -5160 0
-3637 -5237 0
-3638 -5238 0
-3639 -5239 0
-3640 -5240 0
-3637 -5277 0
-3638 -5278 0
-3639 -5279 0
-3640 -5280 0
-3637 -5357 0
-3638 -5358 0
-3639 -5359 0
-3640 -5360 0
-3637 -5537 0
-3638 -5538 0
-3639 -5539 0
-3640 -5540 0
-3637 -5545 0
-3638 -5546 0
-3639 -5547 0
-3640 -5548 0
-3637 -5617 0
-3638 -5618 0
-3639 -5619 0
-3640 -5620 0
-3637 -5629 0
-3638 -5630 0
-3639 -5631 0
-3640 -5632 0
-3641 -3645 0
-3642 -3646 0
-3643 -3647 0
-3644 -3648 0
-3641 -3749 0
-3642 -3750 0
-3643 -3751 0
-3644 -3752 0
-3641 -3765 0
-3642 -3766 0
-3643 -3767 0
-3644 -3768 0
-3641 -4057 0
-3642 -4058 0
-3643 -4059 0
-3644 -4060 0
-3641 -4273 0
-3642 -4274 0
-3643 -4275 0
-3644 -4276 0
-3641 -4933 0
-3642 -4934 0
-3643 -4935 0
-3644 -4936 0
-3641 -5021 0
-3642 -5022 0
-3643 -5023 0
-3644 -5024 0
-3641 -5089 0
-3642 -5090 0
-3643 -5091 0
-3644 -5092 0
-3641 -5153 0
-3642 -5154 0
-3643 -5155 0
-3644 -5156 0
-3641 -5273 0
-3642 -5274 0
-3643 -5275 0
-3644 -5276 0
-3641 -5313 0
-3642 -5314 0
-3643 -5315 0
-3644 -5316 0
-3641 -5541 0
-3642 -5542 0
-3643 -5543 0
-3644 -5544 0
-3641 -5605 0
-3642 -5606 0
-3643 -5607 0
-3644 -5608 0
-3641 -5621 0
-3642 -5622 0
-3643 -5623 0
-3644 -5624 0
-3641 -5625 0
-3642 -5626 0
-3643 -5627 0
-3644 -5628 0
-3645 -3677 0
-3646 -3678 0
-3647 -3679 0
-3648 -3680 0
-3645 -4061 0
-3646 -4062 0
-3647 -4063 0
-3648 -4064 0
-3645 -5093 0
-3646 -5094 0
-3647 -5095 0
-3648 -5096 0
-3645 -5553 0
-3646 -5554 0
-3647 -5555 0
-3648 -5556 0
-3649 -3885 0
-3650 -3886 0
-3651 -3887 0
-3652 -3888 0
-3649 -5545 0
-3650 -5546 0
-3651 -5547 0
-3652 -5548 0
-3649 -5557 0
-3650 -5558 0
-3651 -5559 0
-3652 -5560 0
-3649 -5629 0
-3650 -5630 0
-3651 -5631 0
-3652 -5632 0
-3653 -3669 0
-3654 -3670 0
-3655 -3671 0
-3656 -3672 0
-3653 -4453 0
-3654 -4454 0
-3655 -4455 0
-3656 -4456 0
-3653 -4713 0
-3654 -4714 0
-3655 -4715 0
-3656 -4716 0
-3653 -4849 0
-3654 -4850 0
-3655 -4851 0
-3656 -4852 0
-3653 -4869 0
-3654 -4870 0
-3655 -4871 0
-3656 -4872 0
-3653 -5529 0
-3654 -5530 0
-3655 -5531 0
-3656 -5532 0
-3653 -5557 0
-3654 -5558 0
-3655 -5559 0
-3656 -5560 0
-3653 -5593 0
-3654 -5594 0
-3655 -5595 0
-3656 -5596 0
-3657 -3661 0
-3658 -3662 0
-3659 -3663 0
-3660 -3664 0
-3657 -4069 0
-3658 -4070 0
-3659 -4071 0
-3660 -4072 0
-3657 -4281 0
-3658 -4282 0
-3659 -4283 0
-3660 -4284 0
-3657 -4461 0
-3658 -4462 0
-3659 -4463 0
-3660 -4464 0
-3657 -4617 0
-3658 -4618 0
-3659 -4619 0
-3660 -4620 0
-3657 -4953 0
-3658 -4954 0
-3659 -4955 0
-3660 -4956 0
-3657 -5013 0
-3658 -5014 0
-3659 -5015 0
-3660 -5016 0
-3657 -5129 0
-3658 -5130 0
-3659 -5131 0
-3660 -5132 0
-3657 -5189 0
-3658 -5190 0
-3659 -5191 0
-3660 -5192 0
-3657 -5533 0
-3658 -5534 0
-3659 -5535 0
-3660 -5536 0
-3657 -5605 0
-3658 -5606 0
-3659 -5607 0
-3660 -5608 0
-3661 -3665 0
-3662 -3666 0
-3663 -3667 0
-3664 -3668 0
-3661 -4073 0
-3662 -4074 0
-3663 -4075 0
-3664 -4076 0
-3661 -4285 0
-3662 -4286 0
-3663 -4287 0
-3664 -4288 0
-3661 -4593 0
-3662 -4594 0
-3663 -4595 0
-3664 -4596 0
-3661 -4625 0
-3662 -4626 0
-3663 -4627 0
-3664 -4628 0
-3661 -4937 0
-3662 -4938 0
-3663 -4939 0
-3664 -4940 0
-3661 -5241 0
-3662 -5242 0
-3663 -5243 0
-3664 -5244 0
-3661 -5441 0
-3662 -5442 0
-3663 -5443 0
-3664 -5444 0
-3665 -3669 0
-3666 -3670 0
-3667 -3671 0
-3668 -3672 0
-3665 -3865 0
-3666 -3866 0
-3667 -3867 0
-3668 -3868 0
-3665 -3969 0
-3666 -3970 0
-3667 -3971 0
-3668 -3972 0
-3665 -4289 0
-3666 -4290 0
-3667 -4291 0
-3668 -4292 0
-3665 -4597 0
-3666 -4598 0
-3667 -4599 0
-3668 -4600 0
-3665 -5101 0
-3666 -5102 0
-3667 -5103 0
-3668 -5104 0
-3665 -5365 0
-3666 -5366 0
-3667 -5367 0
-3668 -5368 0
-3669 -3861 0
-3670 -3862 0
-3671 -3863 0
-3672 -3864 0
-3669 -4869 0
-3670 -4870 0
-3671 -4871 0
-3672 -4872 0
-3669 -5105 0
-3670 -5106 0
-3671 -5107 0
-3672 -5108 0
-3669 -5409 0
-3670 -5410 0
-3671 -5411 0
-3672 -5412 0
-3669 -5613 0
-3670 -5614 0
-3671 -5615 0
-3672 -5616 0
-3673 -4077 0
-3674 -4078 0
-3675 -4079 0
-3676 -4080 0
-3673 -4293 0
-3674 -4294 0
-3675 -4295 0
-3676 -4296 0
-3673 -4465 0
-3674 -4466 0
-3675 -4467 0
-3676 -4468 0
-3673 -4825 0
-3674 -4826 0
-3675 -4827 0
-3676 -4828 0
-3673 -5369 0
-3674 -5370 0
-3675 -5371 0
-3676 -5372 0
-3673 -5445 0
-3674 -5446 0
-3675 -5447 0
-3676 -5448 0
-3673 -5501 0
-3674 -5502 0
-3675 -5503 0
-3676 -5504 0
-3673 -5617 0
-3674 -5618 0
-3675 -5619 0
-3676 -5620 0
-3677 -3681 0
-3678 -3682 0
-3679 -3683 0
-3680 -3684 0
-3677 -3773 0
-3678 -3774 0
-3679 -3775 0
-3680 -3776 0
-3677 -4301 0
-3678 -4302 0
-3679 -4303 0
-3680 -4304 0
-3677 -4945 0
-3678 -4946 0
-3679 -4947 0
-3680 -4948 0
-3677 -5109 0
-3678 -5110 0
-3679 -5111 0
-3680 -5112 0
-3677 -5189 0
-3678 -5190 0
-3679 -5191 0
-3680 -5192 0
-3677 -5409 0
-3678 -5410 0
-3679 -5411 0
-3680 -5412 0
-3677 -5545 0
-3678 -5546 0
-3679 -5547 0
-3680 -5548 0
-3677 -5581 0
-3678 -5582 0
-3679 -5583 0
-3680 -5584 0
-3681 -3785 0
-3682 -3786 0
-3683 -3787 0
-3684 -3788 0
-3681 -4305 0
-3682 -4306 0
-3683 -4307 0
-3684 -4308 0
-3681 -4473 0
-3682 -4474 0
-3683 -4475 0
-3684 -4476 0
-3681 -5113 0
-3682 -5114 0
-3683 -5115 0
-3684 -5116 0
-3681 -5373 0
-3682 -5374 0
-3683 -5375 0
-3684 -5376 0
-3681 -5593 0
-3682 -5594 0
-3683 -5595 0
-3684 -5596 0
-3681 -5605 0
-3682 -5606 0
-3683 -5607 0
-3684 -5608 0
-3685 -3701 0
-3686 -3702 0
-3687 -3703 0
-3688 -3704 0
-3685 -4133 0
-3686 -4134 0
-3687 -4135 0
-3688 -4136 0
-3685 -4337 0
-3686 -4338 0
-3687 -4339 0
-3688 -4340 0
-3685 -4365 0
-3686 -4366 0
-3687 -4367 0
-3688 -4368 0
-3685 -4837 0
-3686 -4838 0
-3687 -4839 0
-3688 -4840 0
-3685 -4853 0
-3686 -4854 0
-3687 -4855 0
-3688 -4856 0
-3689 -3877 0
-3690 -3878 0
-3691 -3879 0
-3692 -3880 0
-3689 -4113 0
-3690 -4114 0
-3691 -4115 0
-3692 -4116 0
-3689 -4869 0
-3690 -4870 0
-3691 -4871 0
-3692 -4872 0
-3689 -4873 0
-3690 -4874 0
-3691 -4875 0
-3692 -4876 0
-3693 -4865 0
-3694 -4866 0
-3695 -4867 0
-3696 -4868 0
-3693 -4889 0
-3694 -4890 0
-3695 -4891 0
-3696 -4892 0
-3693 -5041 0
-3694 -5042 0
-3695 -5043 0
-3696 -5044 0
-3693 -5521 0
-3694 -5522 0
-3695 -5523 0
-3696 -5524 0
-3693 -5537 0
-3694 -5538 0
-3695 -5539 0
-3696 -5540 0
-3697 -3713 0
-3698 -3714 0
-3699 -3715 0
-3700 -3716 0
-3697 -5245 0
-3698 -5246 0
-3699 -5247 0
-3700 -5248 0
-3701 -3705 0
-3702 -3706 0
-3703 -3707 0
-3704 -3708 0
-3701 -4081 0
-3702 -4082 0
-3703 -4083 0
-3704 -4084 0
-3701 -4833 0
-3702 -4834 0
-3703 -4835 0
-3704 -4836 0
-3701 -5073 0
-3702 -5074 0
-3703 -5075 0
-3704 -5076 0
-3705 -3729 0
-3706 -3730 0
-3707 -3731 0
-3708 -3732 0
-3705 -4485 0
-3706 -4486 0
-3707 -4487 0
-3708 -4488 0
-3705 -4525 0
-3706 -4526 0
-3707 -4527 0
-3708 -4528 0
-3705 -5009 0
-3706 -5010 0
-3707 -5011 0
-3708 -5012 0
-3705 -5013 0
-3706 -5014 0
-3707 -5015 0
-3708 -5016 0
-3709 -3713 0
-3710 -3714 0
-3711 -3715 0
-3712 -3716 0
-3709 -3741 0
-3710 -3742 0
-3711 -3743 0
-3712 -3744 0
-3709 -5021 0
-3710 -5022 0
-3711 -5023 0
-3712 -5024 0
-3709 -5053 0
-3710 -5054 0
-3711 -5055 0
-3712 -5056 0
-3709 -5213 0
-3710 -5214 0
-3711 -5215 0
-3712 -5216 0
-3709 -5561 0
-3710 -5562 0
-3711 -5563 0
-3712 -5564 0
-3709 -5573 0
-3710 -5574 0
-3711 -5575 0
-3712 -5576 0
-3713 -3717 0
-3714 -3718 0
-3715 -3719 0
-3716 -3720 0
-3713 -3745 0
-3714 -3746 0
-3715 -3747 0
-3716 -3748 0
-3713 -4553 0
-3714 -4554 0
-3715 -4555 0
-3716 -4556 0
-3713 -5249 0
-3714 -5250 0
-3715 -5251 0
-3716 -5252 0
-3713 -5561 0
-3714 -5562 0
-3715 -5563 0
-3716 -5564 0
-3717 -3721 0
-3718 -3722 0
-3719 -3723 0
-3720 -3724 0
-3717 -3749 0
-3718 -3750 0
-3719 -3751 0
-3720 -3752 0
-3717 -5253 0
-3718 -5254 0
-3719 -5255 0
-3720 -5256 0
-3717 -5389 0
-3718 -5390 0
-3719 -5391 0
-3720 -5392 0
-3721 -3725 0
-3722 -3726 0
-3723 -3727 0
-3724 -3728 0
-3721 -4857 0
-3722 -4858 0
-3723 -4859 0
-3724 -4860 0
-3721 -4865 0
-3722 -4866 0
-3723 -4867 0
-3724 -4868 0
-3721 -5093 0
-3722 -5094 0
-3723 -5095 0
-3724 -5096 0
-3721 -5257 0
-3722 -5258 0
-3723 -5259 0
-3724 -5260 0
-3721 -5537 0
-3722 -5538 0
-3723 -5539 0
-3724 -5540 0
-3725 -3753 0
-3726 -3754 0
-3727 -3755 0
-3728 -3756 0
-3725 -4857 0
-3726 -4858 0
-3727 -4859 0
-3728 -4860 0
-3725 -4861 0
-3726 -4862 0
-3727 -4863 0
-3728 -4864 0
-3725 -4933 0
-3726 -4934 0
-3727 -4935 0
-3728 -4936 0
-3725 -5089 0
-3726 -5090 0
-3727 -5091 0
-3728 -5092 0
-3725 -5505 0
-3726 -5506 0
-3727 -5507 0
-3728 -5508 0
-3729 -3733 0
-3730 -3734 0
-3731 -3735 0
-3732 -3736 0
-3729 -4085 0
-3730 -4086 0
-3731 -4087 0
-3732 -4088 0
-3729 -5017 0
-3730 -5018 0
-3731 -5019 0
-3732 -5020 0
-3729 -5081 0
-3730 -5082 0
-3731 -5083 0
-3732 -5084 0
-3729 -5225 0
-3730 -5226 0
-3731 -5227 0
-3732 -5228 0
-3733 -3757 0
-3734 -3758 0
-3735 -3759 0
-3736 -3760 0
-3733 -4309 0
-3734 -4310 0
-3735 -4311 0
-3736 -4312 0
-3733 -4477 0
-3734 -4478 0
-3735 -4479 0
-3736 -4480 0
-3733 -5117 0
-3734 -5118 0
-3735 -5119 0
-3736 -5120 0
-3733 -5185 0
-3734 -5186 0
-3735 -5187 0
-3736 -5188 0
-3737 -3741 0
-3738 -3742 0
-3739 -3743 0
-3740 -3744 0
-3737 -3753 0
-3738 -3754 0
-3739 -3755 0
-3740 -3756 0
-3737 -3761 0
-3738 -3762 0
-3739 -3763 0
-3740 -3764 0
-3737 -5109 0
-3738 -5110 0
-3739 -5111 0
-3740 -5112 0
-3741 -3745 0
-3742 -3746 0
-3743 -3747 0
-3744 -3748 0
-3741 -4949 0
-3742 -4950 0
-3743 -4951 0
-3744 -4952 0
-3741 -5621 0
-3742 -5622 0
-3743 -5623 0
-3744 -5624 0
-3745 -3749 0
-3746 -3750 0
-3747 -3751 0
-3748 -3752 0
-3745 -5121 0
-3746 -5122 0
-3747 -5123 0
-3748 -5124 0
-3745 -5189 0
-3746 -5190 0
-3747 -5191 0
-3748 -5192 0
-3745 -5541 0
-3746 -5542 0
-3747 -5543 0
-3748 -5544 0
-3745 -5597 0
-3746 -5598 0
-3747 -5599 0
-3748 -5600 0
-3749 -4089 0
-3750 -4090 0
-3751 -4091 0
-3752 -4092 0
-3749 -4313 0
-3750 -4314 0
-3751 -4315 0
-3752 -4316 0
-3749 -4505 0
-3750 -4506 0
-3751 -4507 0
-3752 -4508 0
-3749 -5125 0
-3750 -5126 0
-3751 -5127 0
-3752 -5128 0
-3749 -5597 0
-3750 -5598 0
-3751 -5599 0
-3752 -5600 0
-3749 -5605 0
-3750 -5606 0
-3751 -5607 0
-3752 -5608 0
-3753 -3765 0
-3754 -3766 0
-3755 -3767 0
-3756 -3768 0
-3753 -5021 0
-3754 -5022 0
-3755 -5023 0
-3756 -5024 0
-3753 -5113 0
-3754 -5114 0
-3755 -5115 0
-3756 -5116 0
-3753 -5393 0
-3754 -5394 0
-3755 -5395 0
-3756 -5396 0
-3753 -5573 0
-3754 -5574 0
-3755 -5575 0
-3756 -5576 0
-3753 -5601 0
-3754 -5602 0
-3755 -5603 0
-3756 -5604 0
-3753 -5609 0
-3754 -5610 0
-3755 -5611 0
-3756 -5612 0
-3757 -4317 0
-3758 -4318 0
-3759 -4319 0
-3760 -4320 0
-3757 -4953 0
-3758 -4954 0
-3759 -4955 0
-3760 -4956 0
-3757 -5129 0
-3758 -5130 0
-3759 -5131 0
-3760 -5132 0
-3757 -5305 0
-3758 -5306 0
-3759 -5307 0
-3760 -5308 0
-3757 -5353 0
-3758 -5354 0
-3759 -5355 0
-3760 -5356 0
-3761 -3765 0
-3762 -3766 0
-3763 -3767 0
-3764 -3768 0
-3761 -3773 0
-3762 -3774 0
-3763 -3775 0
-3764 -3776 0
-3761 -5189 0
-3762 -5190 0
-3763 -5191 0
-3764 -5192 0
-3761 -5321 0
-3762 -5322 0
-3763 -5323 0
-3764 -5324 0
-3761 -5533 0
-3762 -5534 0
-3763 -5535 0
-3764 -5536 0
-3761 -5541 0
-3762 -5542 0
-3763 -5543 0
-3764 -5544 0
-3761 -5577 0
-3762 -5578 0
-3763 -5579 0
-3764 -5580 0
-3765 -3785 0
-3766 -3786 0
-3767 -3787 0
-3768 -3788 0
-3765 -4325 0
-3766 -4326 0
-3767 -4327 0
-3768 -4328 0
-3765 -4629 0
-3766 -4630 0
-3767 -4631 0
-3768 -4632 0
-3765 -5453 0
-3766 -5454 0
-3767 -5455 0
-3768 -5456 0
-3765 -5509 0
-3766 -5510 0
-3767 -5511 0
-3768 -5512 0
-3765 -5533 0
-3766 -5534 0
-3767 -5535 0
-3768 -5536 0
-3765 -5605 0
-3766 -5606 0
-3767 -5607 0
-3768 -5608 0
-3765 -5617 0
-3766 -5618 0
-3767 -5619 0
-3768 -5620 0
-3769 -3821 0
-3770 -3822 0
-3771 -3823 0
-3772 -3824 0
-3769 -3953 0
-3770 -3954 0
-3771 -3955 0
-3772 -3956 0
-3769 -3965 0
-3770 -3966 0
-3771 -3967 0
-3772 -3968 0
-3769 -4185 0
-3770 -4186 0
-3771 -4187 0
-3772 -4188 0
-3773 -3777 0
-3774 -3778 0
-3775 -3779 0
-3776 -3780 0
-3773 -3785 0
-3774 -3786 0
-3775 -3787 0
-3776 -3788 0
-3773 -4601 0
-3774 -4602 0
-3775 -4603 0
-3776 -4604 0
-3773 -4969 0
-3774 -4970 0
-3775 -4971 0
-3776 -4972 0
-3773 -5141 0
-3774 -5142 0
-3775 -5143 0
-3776 -5144 0
-3773 -5513 0
-3774 -5514 0
-3775 -5515 0
-3776 -5516 0
-3773 -5525 0
-3774 -5526 0
-3775 -5527 0
-3776 -5528 0
-3773 -5545 0
-3774 -5546 0
-3775 -5547 0
-3776 -5548 0
-3777 -4973 0
-3778 -4974 0
-3779 -4975 0
-3780 -4976 0
-3777 -5145 0
-3778 -5146 0
-3779 -5147 0
-3780 -5148 0
-3777 -5313 0
-3778 -5314 0
-3779 -5315 0
-3780 -5316 0
-3777 -5525 0
-3778 -5526 0
-3779 -5527 0
-3780 -5528 0
-3777 -5581 0
-3778 -5582 0
-3779 -5583 0
-3780 -5584 0
-3781 -3785 0
-3782 -3786 0
-3783 -3787 0
-3784 -3788 0
-3781 -5157 0
-3782 -5158 0
-3783 -5159 0
-3784 -5160 0
-3781 -5277 0
-3782 -5278 0
-3783 -5279 0
-3784 -5280 0
-3781 -5409 0
-3782 -5410 0
-3783 -5411 0
-3784 -5412 0
-3781 -5553 0
-3782 -5554 0
-3783 -5555 0
-3784 -5556 0
-3781 -5613 0
-3782 -5614 0
-3783 -5615 0
-3784 -5616 0
-3785 -3789 0
-3786 -3790 0
-3787 -3791 0
-3788 -3792 0
-3785 -3869 0
-3786 -3870 0
-3787 -3871 0
-3788 -3872 0
-3785 -3901 0
-3786 -3902 0
-3787 -3903 0
-3788 -3904 0
-3785 -4605 0
-3786 -4606 0
-3787 -4607 0
-3788 -4608 0
-3785 -5161 0
-3786 -5162 0
-3787 -5163 0
-3788 -5164 0
-3785 -5613 0
-3786 -5614 0
-3787 -5615 0
-3788 -5616 0
-3789 -4881 0
-3790 -4882 0
-3791 -4883 0
-3792 -4884 0
-3789 -4941 0
-3790 -4942 0
-3791 -4943 0
-3792 -4944 0
-3789 -5401 0
-3790 -5402 0
-3791 -5403 0
-3792 -5404 0
-3789 -5457 0
-3790 -5458 0
-3791 -5459 0
-3792 -5460 0
-3789 -5529 0
-3790 -5530 0
-3791 -5531 0
-3792 -5532 0
-3789 -5593 0
-3790 -5594 0
-3791 -5595 0
-3792 -5596 0
-3793 -3801 0
-3794 -3802 0
-3795 -3803 0
-3796 -3804 0
-3793 -3833 0
-3794 -3834 0
-3795 -3835 0
-3796 -3836 0
-3793 -4149 0
-3794 -4150 0
-3795 -4151 0
-3796 -4152 0
-3793 -5205 0
-3794 -5206 0
-3795 -5207 0
-3796 -5208 0
-3793 -5521 0
-3794 -5522 0
-3795 -5523 0
-3796 -5524 0
-3793 -5525 0
-3794 -5526 0
-3795 -5527 0
-3796 -5528 0
-3797 -3861 0
-3798 -3862 0
-3799 -3863 0
-3800 -3864 0
-3797 -3893 0
-3798 -3894 0
-3799 -3895 0
-3800 -3896 0
-3797 -4609 0
-3798 -4610 0
-3799 -4611 0
-3800 -4612 0
-3797 -5029 0
-3798 -5030 0
-3799 -5031 0
-3800 -5032 0
-3797 -5105 0
-3798 -5106 0
-3799 -5107 0
-3800 -5108 0
-3797 -5517 0
-3798 -5518 0
-3799 -5519 0
-3800 -5520 0
-3797 -5529 0
-3798 -5530 0
-3799 -5531 0
-3800 -5532 0
-3797 -5533 0
-3798 -5534 0
-3799 -5535 0
-3800 -5536 0
-3797 -5629 0
-3798 -5630 0
-3799 -5631 0
-3800 -5632 0
-3801 -4993 0
-3802 -4994 0
-3803 -4995 0
-3804 -4996 0
-3801 -5541 0
-3802 -5542 0
-3803 -5543 0
-3804 -5544 0
-3801 -5577 0
-3802 -5578 0
-3803 -5579 0
-3804 -5580 0
-3805 -4329 0
-3806 -4330 0
-3807 -4331 0
-3808 -4332 0
-3805 -4497 0
-3806 -4498 0
-3807 -4499 0
-3808 -4500 0
-3805 -5173 0
-3806 -5174 0
-3807 -5175 0
-3808 -5176 0
-3809 -3813 0
-3810 -3814 0
-3811 -3815 0
-3812 -3816 0
-3809 -3829 0
-3810 -3830 0
-3811 -3831 0
-3812 -3832 0
-3809 -3861 0
-3810 -3862 0
-3811 -3863 0
-3812 -3864 0
-3809 -4125 0
-3810 -4126 0
-3811 -4127 0
-3812 -4128 0
-3809 -4145 0
-3810 -4146 0
-3811 -4147 0
-3812 -4148 0
-3809 -4157 0
-3810 -4158 0
-3811 -4159 0
-3812 -4160 0
-3809 -4213 0
-3810 -4214 0
-3811 -4215 0
-3812 -4216 0
-3813 -3833 0
-3814 -3834 0
-3815 -3835 0
-3816 -3836 0
-3813 -3865 0
-3814 -3866 0
-3815 -3867 0
-3816 -3868 0
-3813 -4145 0
-3814 -4146 0
-3815 -4147 0
-3816 -4148 0
-3813 -4289 0
-3814 -4290 0
-3815 -4291 0
-3816 -4292 0
-3813 -4565 0
-3814 -4566 0
-3815 -4567 0
-3816 -4568 0
-3813 -4749 0
-3814 -4750 0
-3815 -4751 0
-3816 -4752 0
-3813 -4753 0
-3814 -4754 0
-3815 -4755 0
-3816 -4756 0
-3817 -3821 0
-3818 -3822 0
-3819 -3823 0
-3820 -3824 0
-3817 -3857 0
-3818 -3858 0
-3819 -3859 0
-3820 -3860 0
-3817 -5205 0
-3818 -5206 0
-3819 -5207 0
-3820 -5208 0
-3817 -5209 0
-3818 -5210 0
-3819 -5211 0
-3820 -5212 0
-3825 -3841 0
-3826 -3842 0
-3827 -3843 0
-3828 -3844 0
-3825 -3857 0
-3826 -3858 0
-3827 -3859 0
-3828 -3860 0
-3825 -5033 0
-3826 -5034 0
-3827 -5035 0
-3828 -5036 0
-3825 -5037 0
-3826 -5038 0
-3827 -5039 0
-3828 -5040 0
-3829 -3833 0
-3830 -3834 0
-3831 -3835 0
-3832 -3836 0
-3829 -5037 0
-3830 -5038 0
-3831 -5039 0
-3832 -5040 0
-3829 -5065 0
-3830 -5066 0
-3831 -5067 0
-3832 -5068 0
-3829 -5209 0
-3830 -5210 0
-3831 -5211 0
-3832 -5212 0
-3829 -5521 0
-3830 -5522 0
-3831 -5523 0
-3832 -5524 0
-3833 -3837 0
-3834 -3838 0
-3835 -3839 0
-3836 -3840 0
-3833 -4101 0
-3834 -4102 0
-3835 -4103 0
-3836 -4104 0
-3833 -4901 0
-3834 -4902 0
-3835 -4903 0
-3836 -4904 0
-3833 -5033 0
-3834 -5034 0
-3835 -5035 0
-3836 -5036 0
-3833 -5049 0
-3834 -5050 0
-3835 -5051 0
-3836 -5052 0
-3833 -5205 0
-3834 -5206 0
-3835 -5207 0
-3836 -5208 0
-3837 -5193 0
-3838 -5194 0
-3839 -5195 0
-3840 -5196 0
-3837 -5417 0
-3838 -5418 0
-3839 -5419 0
-3840 -5420 0
-3837 -5513 0
-3838 -5514 0
-3839 -5515 0
-3840 -5516 0
-3837 -5525 0
-3838 -5526 0
-3839 -5527 0
-3840 -5528 0
-3841 -4033 0
-3842 -4034 0
-3843 -4035 0
-3844 -4036 0
-3841 -5101 0
-3842 -5102 0
-3843 -5103 0
-3844 -5104 0
-3841 -5105 0
-3842 -5106 0
-3843 -5107 0
-3844 -5108 0
-3841 -5513 0
-3842 -5514 0
-3843 -5515 0
-3844 -5516 0
-3845 -3849 0
-3846 -3850 0
-3847 -3851 0
-3848 -3852 0
-3845 -5029 0
-3846 -5030 0
-3847 -5031 0
-3848 -5032 0
-3845 -5033 0
-3846 -5034 0
-3847 -5035 0
-3848 -5036 0
-3849 -3853 0
-3850 -3854 0
-3851 -3855 0
-3852 -3856 0
-3853 -5365 0
-3854 -5366 0
-3855 -5367 0
-3856 -5368 0
-3853 -5461 0
-3854 -5462 0
-3855 -5463 0
-3856 -5464 0
-3857 -5193 0
-3858 -5194 0
-3859 -5195 0
-3860 -5196 0
-3861 -3865 0
-3862 -3866 0
-3863 -3867 0
-3864 -3868 0
-3861 -4717 0
-3862 -4718 0
-3863 -4719 0
-3864 -4720 0
-3861 -4937 0
-3862 -4938 0
-3863 -4939 0
-3864 -4940 0
-3861 -5029 0
-3862 -5030 0
-3863 -5031 0
-3864 -5032 0
-3861 -5105 0
-3862 -5106 0
-3863 -5107 0
-3864 -5108 0
-3861 -5193 0
-3862 -5194 0
-3863 -5195 0
-3864 -5196 0
-3865 -4953 0
-3866 -4954 0
-3867 -4955 0
-3868 -4956 0
-3865 -5101 0
-3866 -5102 0
-3867 -5103 0
-3868 -5104 0
-3865 -5241 0
-3866 -5242 0
-3867 -5243 0
-3868 -5244 0
-3865 -5365 0
-3866 -5366 0
-3867 -5367 0
-3868 -5368 0
-3865 -5453 0
-3866 -5454 0
-3867 -5455 0
-3868 -5456 0
-3865 -5533 0
-3866 -5534 0
-3867 -5535 0
-3868 -5536 0
-3869 -5453 0
-3870 -5454 0
-3871 -5455 0
-3872 -5456 0
-3869 -5457 0
-3870 -5458 0
-3871 -5459 0
-3872 -5460 0
-3873 -3877 0
-3874 -3878 0
-3875 -3879 0
-3876 -3880 0
-3873 -3957 0
-3874 -3958 0
-3875 -3959 0
-3876 -3960 0
-3873 -3965 0
-3874 -3966 0
-3875 -3967 0
-3876 -3968 0
-3877 -4113 0
-3878 -4114 0
-3879 -4115 0
-3880 -4116 0
-3877 -4253 0
-3878 -4254 0
-3879 -4255 0
-3880 -4256 0
-3881 -3905 0
-3882 -3906 0
-3883 -3907 0
-3884 -3908 0
-3881 -3969 0
-3882 -3970 0
-3883 -3971 0
-3884 -3972 0
-3881 -4037 0
-3882 -4038 0
-3883 -4039 0
-3884 -4040 0
-3881 -4121 0
-3882 -4122 0
-3883 -4123 0
-3884 -4124 0
-3881 -4713 0
-3882 -4714 0
-3883 -4715 0
-3884 -4716 0
-3881 -4753 0
-3882 -4754 0
-3883 -4755 0
-3884 -4756 0
-3881 -5101 0
-3882 -5102 0
-3883 -5103 0
-3884 -5104 0
-3885 -4133 0
-3886 -4134 0
-3887 -4135 0
-3888 -4136 0
-3885 -4641 0
-3886 -4642 0
-3887 -4643 0
-3888 -4644 0
-3885 -4717 0
-3886 -4718 0
-3887 -4719 0
-3888 -4720 0
-3889 -3893 0
-3890 -3894 0
-3891 -3895 0
-3892 -3896 0
-3889 -3905 0
-3890 -3906 0
-3891 -3907 0
-3892 -3908 0
-3889 -4453 0
-3890 -4454 0
-3891 -4455 0
-3892 -4456 0
-3889 -4729 0
-3890 -4730 0
-3891 -4731 0
-3892 -4732 0
-3889 -5529 0
-3890 -5530 0
-3891 -5531 0
-3892 -5532 0
-3893 -3909 0
-3894 -3910 0
-3895 -3911 0
-3896 -3912 0
-3893 -4457 0
-3894 -4458 0
-3895 -4459 0
-3896 -4460 0
-3893 -4609 0
-3894 -4610 0
-3895 -4611 0
-3896 -4612 0
-3897 -3913 0
-3898 -3914 0
-3899 -3915 0
-3900 -3916 0
-3897 -4065 0
-3898 -4066 0
-3899 -4067 0
-3900 -4068 0
-3897 -4141 0
-3898 -4142 0
-3899 -4143 0
-3900 -4144 0
-3897 -4717 0
-3898 -4718 0
-3899 -4719 0
-3900 -4720 0
-3897 -5193 0
-3898 -5194 0
-3899 -5195 0
-3900 -5196 0
-3901 -3925 0
-3902 -3926 0
-3903 -3927 0
-3904 -3928 0
-3901 -4473 0
-3902 -4474 0
-3903 -4475 0
-3904 -4476 0
-3901 -4605 0
-3902 -4606 0
-3903 -4607 0
-3904 -4608 0
-3901 -4985 0
-3902 -4986 0
-3903 -4987 0
-3904 -4988 0
-3905 -3909 0
-3906 -3910 0
-3907 -3911 0
-3908 -3912 0
-3905 -3921 0
-3906 -3922 0
-3907 -3923 0
-3908 -3924 0
-3905 -3985 0
-3906 -3986 0
-3907 -3987 0
-3908 -3988 0
-3905 -4101 0
-3906 -4102 0
-3907 -4103 0
-3908 -4104 0
-3905 -4281 0
-3906 -4282 0
-3907 -4283 0
-3908 -4284 0
-3905 -5033 0
-3906 -5034 0
-3907 -5035 0
-3908 -5036 0
-3909 -4369 0
-3910 -4370 0
-3911 -4371 0
-3912 -4372 0
-3909 -4397 0
-3910 -4398 0
-3911 -4399 0
-3912 -4400 0
-3909 -4401 0
-3910 -4402 0
-3911 -4403 0
-3912 -4404 0
-3909 -5029 0
-3910 -5030 0
-3911 -5031 0
-3912 -5032 0
-3909 -5521 0
-3910 -5522 0
-3911 -5523 0
-3912 -5524 0
-3913 -3917 0
-3914 -3918 0
-3915 -3919 0
-3916 -3920 0
-3913 -4153 0
-3914 -4154 0
-3915 -4155 0
-3916 -4156 0
-3913 -4677 0
-3914 -4678 0
-3915 -4679 0
-3916 -4680 0
-3913 -5525 0
-3914 -5526 0
-3915 -5527 0
-3916 -5528 0
-3917 -3921 0
-3918 -3922 0
-3919 -3923 0
-3920 -3924 0
-3917 -3945 0
-3918 -3946 0
-3919 -3947 0
-3920 -3948 0
-3917 -3961 0
-3918 -3962 0
-3919 -3963 0
-3920 -3964 0
-3917 -4733 0
-3918 -4734 0
-3919 -4735 0
-3920 -4736 0
-3921 -3945 0
-3922 -3946 0
-3923 -3947 0
-3924 -3948 0
-3921 -3957 0
-3922 -3958 0
-3923 -3959 0
-3924 -3960 0
-3921 -3973 0
-3922 -3974 0
-3923 -3975 0
-3924 -3976 0
-3921 -4157 0
-3922 -4158 0
-3923 -4159 0
-3924 -4160 0
-3921 -4285 0
-3922 -4286 0
-3923 -4287 0
-3924 -4288 0
-3925 -4389 0
-3926 -4390 0
-3927 -4391 0
-3928 -4392 0
-3925 -4401 0
-3926 -4402 0
-3927 -4403 0
-3928 -4404 0
-3925 -4685 0
-3926 -4686 0
-3927 -4687 0
-3928 -4688 0
-3929 -3933 0
-3930 -3934 0
-3931 -3935 0
-3932 -3936 0
-3929 -4417 0
-3930 -4418 0
-3931 -4419 0
-3932 -4420 0
-3929 -4421 0
-3930 -4422 0
-3931 -4423 0
-3932 -4424 0
-3933 -3937 0
-3934 -3938 0
-3935 -3939 0
-3936 -3940 0
-3933 -3949 0
-3934 -3950 0
-3935 -3951 0
-3936 -3952 0
-3933 -4165 0
-3934 -4166 0
-3935 -4167 0
-3936 -4168 0
-3933 -4645 0
-3934 -4646 0
-3935 -4647 0
-3936 -4648 0
-3937 -3953 0
-3938 -3954 0
-3939 -3955 0
-3940 -3956 0
-3937 -3969 0
-3938 -3970 0
-3939 -3971 0
-3940 -3972 0
-3937 -4741 0
-3938 -4742 0
-3939 -4743 0
-3940 -4744 0
-3941 -3961 0
-3942 -3962 0
-3943 -3963 0
-3944 -3964 0
-3941 -4177 0
-3942 -4178 0
-3943 -4179 0
-3944 -4180 0
-3941 -4649 0
-3942 -4650 0
-3943 -4651 0
-3944 -4652 0
-3941 -5205 0
-3942 -5206 0
-3943 -5207 0
-3944 -5208 0
-3949 -3953 0
-3950 -3954 0
-3951 -3955 0
-3952 -3956 0
-3949 -4409 0
-3950 -4410 0
-3951 -4411 0
-3952 -4412 0
-3949 -4697 0
-3950 -4698 0
-3951 -4699 0
-3952 -4700 0
-3953 -4185 0
-3954 -4186 0
-3955 -4187 0
-3956 -4188 0
-3957 -3961 0
-3958 -3962 0
-3959 -3963 0
-3960 -3964 0
-3957 -4017 0
-3958 -4018 0
-3959 -4019 0
-3960 -4020 0
-3957 -4189 0
-3958 -4190 0
-3959 -4191 0
-3960 -4192 0
-3957 -4257 0
-3958 -4258 0
-3959 -4259 0
-3960 -4260 0
-3957 -4393 0
-3958 -4394 0
-3959 -4395 0
-3960 -4396 0
-3961 -3969 0
-3962 -3970 0
-3963 -3971 0
-3964 -3972 0
-3961 -4013 0
-3962 -4014 0
-3963 -4015 0
-3964 -4016 0
-3961 -4389 0
-3962 -4390 0
-3963 -4391 0
-3964 -4392 0
-3961 -4677 0
-3962 -4678 0
-3963 -4679 0
-3964 -4680 0
-3961 -4697 0
-3962 -4698 0
-3963 -4699 0
-3964 -4700 0
-3961 -4745 0
-3962 -4746 0
-3963 -4747 0
-3964 -4748 0
-3961 -5365 0
-3962 -5366 0
-3963 -5367 0
-3964 -5368 0
-3965 -4185 0
-3966 -4186 0
-3967 -4187 0
-3968 -4188 0
-3969 -4013 0
-3970 -4014 0
-3971 -4015 0
-3972 -4016 0
-3969 -4037 0
-3970 -4038 0
-3971 -4039 0
-3972 -4040 0
-3969 -4289 0
-3970 -4290 0
-3971 -4291 0
-3972 -4292 0
-3969 -4441 0
-3970 -4442 0
-3971 -4443 0
-3972 -4444 0
-3969 -4597 0
-3970 -4598 0
-3971 -4599 0
-3972 -4600 0
-3969 -4637 0
-3970 -4638 0
-3971 -4639 0
-3972 -4640 0
-3969 -4901 0
-3970 -4902 0
-3971 -4903 0
-3972 -4904 0
-3973 -3981 0
-3974 -3982 0
-3975 -3983 0
-3976 -3984 0
-3973 -3997 0
-3974 -3998 0
-3975 -3999 0
-3976 -4000 0
-3973 -4065 0
-3974 -4066 0
-3975 -4067 0
-3976 -4068 0
-3973 -4757 0
-3974 -4758 0
-3975 -4759 0
-3976 -4760 0
-3977 -4077 0
-3978 -4078 0
-3979 -4079 0
-3980 -4080 0
-3977 -4761 0
-3978 -4762 0
-3979 -4763 0
-3980 -4764 0
-3981 -3985 0
-3982 -3986 0
-3983 -3987 0
-3984 -3988 0
-3981 -4141 0
-3982 -4142 0
-3983 -4143 0
-3984 -4144 0
-3981 -4373 0
-3982 -4374 0
-3983 -4375 0
-3984 -4376 0
-3981 -5193 0
-3982 -5194 0
-3983 -5195 0
-3984 -5196 0
-3985 -3989 0
-3986 -3990 0
-3987 -3991 0
-3988 -3992 0
-3985 -4021 0
-3986 -4022 0
-3987 -4023 0
-3988 -4024 0
-3985 -4025 0
-3986 -4026 0
-3987 -4027 0
-3988 -4028 0
-3985 -4217 0
-3986 -4218 0
-3987 -4219 0
-3988 -4220 0
-3985 -4373 0
-3986 -4374 0
-3987 -4375 0
-3988 -4376 0
-3985 -4773 0
-3986 -4774 0
-3987 -4775 0
-3988 -4776 0
-3989 -4225 0
-3990 -4226 0
-3991 -4227 0
-3992 -4228 0
-3989 -4381 0
-3990 -4382 0
-3991 -4383 0
-3992 -4384 0
-3989 -4389 0
-3990 -4390 0
-3991 -4391 0
-3992 -4392 0
-3989 -4405 0
-3990 -4406 0
-3991 -4407 0
-3992 -4408 0
-3989 -4413 0
-3990 -4414 0
-3991 -4415 0
-3992 -4416 0
-3989 -4645 0
-3990 -4646 0
-3991 -4647 0
-3992 -4648 0
-3993 -3997 0
-3994 -3998 0
-3995 -3999 0
-3996 -4000 0
-3993 -4037 0
-3994 -4038 0
-3995 -4039 0
-3996 -4040 0
-3993 -4061 0
-3994 -4062 0
-3995 -4063 0
-3996 -4064 0
-3993 -5425 0
-3994 -5426 0
-3995 -5427 0
-3996 -5428 0
-3997 -4029 0
-3998 -4030 0
-3999 -4031 0
-4000 -4032 0
-3997 -4037 0
-3998 -4038 0
-3999 -4039 0
-4000 -4040 0
-3997 -4057 0
-3998 -4058 0
-3999 -4059 0
-4000 -4060 0
-3997 -4801 0
-3998 -4802 0
-3999 -4803 0
-4000 -4804 0
-3997 -5429 0
-3998 -5430 0
-3999 -5431 0
-4000 -5432 0
-4001 -4005 0
-4002 -4006 0
-4003 -4007 0
-4004 -4008 0
-4001 -4017 0
-4002 -4018 0
-4003 -4019 0
-4004 -4020 0
-4001 -4037 0
-4002 -4038 0
-4003 -4039 0
-4004 -4040 0
-4001 -4409 0
-4002 -4410 0
-4003 -4411 0
-4004 -4412 0
-4001 -4453 0
-4002 -4454 0
-4003 -4455 0
-4004 -4456 0
-4001 -4513 0
-4002 -4514 0
-4003 -4515 0
-4004 -4516 0
-4001 -4653 0
-4002 -4654 0
-4003 -4655 0
-4004 -4656 0
-4005 -4125 0
-4006 -4126 0
-4007 -4127 0
-4008 -4128 0
-4005 -4369 0
-4006 -4370 0
-4007 -4371 0
-4008 -4372 0
-4005 -4377 0
-4006 -4378 0
-4007 -4379 0
-4008 -4380 0
-4005 -4445 0
-4006 -4446 0
-4007 -4447 0
-4008 -4448 0
-4005 -4457 0
-4006 -4458 0
-4007 -4459 0
-4008 -4460 0
-4005 -4509 0
-4006 -4510 0
-4007 -4511 0
-4008 -4512 0
-4005 -4657 0
-4006 -4658 0
-4007 -4659 0
-4008 -4660 0
-4005 -5065 0
-4006 -5066 0
-4007 -5067 0
-4008 -5068 0
-4009 -4013 0
-4010 -4014 0
-4011 -4015 0
-4012 -4016 0
-4009 -4045 0
-4010 -4046 0
-4011 -4047 0
-4012 -4048 0
-4009 -4237 0
-4010 -4238 0
-4011 -4239 0
-4012 -4240 0
-4009 -4677 0
-4010 -4678 0
-4011 -4679 0
-4012 -4680 0
-4009 -5441 0
-4010 -5442 0
-4011 -5443 0
-4012 -5444 0
-4013 -4017 0
-4014 -4018 0
-4015 -4019 0
-4016 -4020 0
-4013 -4049 0
-4014 -4050 0
-4015 -4051 0
-4016 -4052 0
-4013 -4241 0
-4014 -4242 0
-4015 -4243 0
-4016 -4244 0
-4013 -4661 0
-4014 -4662 0
-4015 -4663 0
-4016 -4664 0
-4017 -4809 0
-4018 -4810 0
-4019 -4811 0
-4020 -4812 0
-4021 -4025 0
-4022 -4026 0
-4023 -4027 0
-4024 -4028 0
-4021 -4029 0
-4022 -4030 0
-4023 -4031 0
-4024 -4032 0
-4021 -4053 0
-4022 -4054 0
-4023 -4055 0
-4024 -4056 0
-4021 -4065 0
-4022 -4066 0
-4023 -4067 0
-4024 -4068 0
-4021 -4093 0
-4022 -4094 0
-4023 -4095 0
-4024 -4096 0
-4021 -4245 0
-4022 -4246 0
-4023 -4247 0
-4024 -4248 0
-4021 -4465 0
-4022 -4466 0
-4023 -4467 0
-4024 -4468 0
-4021 -4681 0
-4022 -4682 0
-4023 -4683 0
-4024 -4684 0
-4021 -4813 0
-4022 -4814 0
-4023 -4815 0
-4024 -4816 0
-4021 -5445 0
-4022 -5446 0
-4023 -5447 0
-4024 -5448 0
-4021 -5481 0
-4022 -5482 0
-4023 -5483 0
-4024 -5484 0
-4025 -4057 0
-4026 -4058 0
-4027 -4059 0
-4028 -4060 0
-4025 -4089 0
-4026 -4090 0
-4027 -4091 0
-4028 -4092 0
-4025 -4469 0
-4026 -4470 0
-4027 -4471 0
-4028 -4472 0
-4025 -5449 0
-4026 -5450 0
-4027 -5451 0
-4028 -5452 0
-4029 -4065 0
-4030 -4066 0
-4031 -4067 0
-4032 -4068 0
-4029 -4249 0
-4030 -4250 0
-4031 -4251 0
-4032 -4252 0
-4029 -4689 0
-4030 -4690 0
-4031 -4691 0
-4032 -4692 0
-4029 -5485 0
-4030 -5486 0
-4031 -5487 0
-4032 -5488 0
-4033 -4097 0
-4034 -4098 0
-4035 -4099 0
-4036 -4100 0
-4037 -4653 0
-4038 -4654 0
-4039 -4655 0
-4040 -4656 0
-4037 -4817 0
-4038 -4818 0
-4039 -4819 0
-4040 -4820 0
-4041 -4045 0
-4042 -4046 0
-4043 -4047 0
-4044 -4048 0
-4041 -4069 0
-4042 -4070 0
-4043 -4071 0
-4044 -4072 0
-4041 -4637 0
-4042 -4638 0
-4043 -4639 0
-4044 -4640 0
-4041 -4713 0
-4042 -4714 0
-4043 -4715 0
-4044 -4716 0
-4045 -4049 0
-4046 -4050 0
-4047 -4051 0
-4048 -4052 0
-4045 -4073 0
-4046 -4074 0
-4047 -4075 0
-4048 -4076 0
-4045 -4257 0
-4046 -4258 0
-4047 -4259 0
-4048 -4260 0
-4045 -4717 0
-4046 -4718 0
-4047 -4719 0
-4048 -4720 0
-4049 -4261 0
-4050 -4262 0
-4051 -4263 0
-4052 -4264 0
-4049 -4661 0
-4050 -4662 0
-4051 -4663 0
-4052 -4664 0
-4049 -5461 0
-4050 -5462 0
-4051 -5463 0
-4052 -5464 0
-4053 -4057 0
-4054 -4058 0
-4055 -4059 0
-4056 -4060 0
-4053 -4077 0
-4054 -4078 0
-4055 -4079 0
-4056 -4080 0
-4053 -4093 0
-4054 -4094 0
-4055 -4095 0
-4056 -4096 0
-4053 -4269 0
-4054 -4270 0
-4055 -4271 0
-4056 -4272 0
-4053 -4665 0
-4054 -4666 0
-4055 -4667 0
-4056 -4668 0
-4053 -5465 0
-4054 -5466 0
-4055 -5467 0
-4056 -5468 0
-4057 -4061 0
-4058 -4062 0
-4059 -4063 0
-4060 -4064 0
-4057 -4089 0
-4058 -4090 0
-4059 -4091 0
-4060 -4092 0
-4057 -4273 0
-4058 -4274 0
-4059 -4275 0
-4060 -4276 0
-4057 -5469 0
-4058 -5470 0
-4059 -5471 0
-4060 -5472 0
-4061 -4097 0
-4062 -4098 0
-4063 -4099 0
-4064 -4100 0
-4061 -4669 0
-4062 -4670 0
-4063 -4671 0
-4064 -4672 0
-4061 -5473 0
-4062 -5474 0
-4063 -5475 0
-4064 -5476 0
-4065 -4069 0
-4066 -4070 0
-4067 -4071 0
-4068 -4072 0
-4065 -4277 0
-4066 -4278 0
-4067 -4279 0
-4068 -4280 0
-4065 -4641 0
-4066 -4642 0
-4067 -4643 0
-4068 -4644 0
-4065 -5037 0
-4066 -5038 0
-4067 -5039 0
-4068 -5040 0
-4069 -4073 0
-4070 -4074 0
-4071 -4075 0
-4072 -4076 0
-4069 -4281 0
-4070 -4282 0
-4071 -4283 0
-4072 -4284 0
-4069 -4641 0
-4070 -4642 0
-4071 -4643 0
-4072 -4644 0
-4069 -5033 0
-4070 -5034 0
-4071 -5035 0
-4072 -5036 0
-4073 -4285 0
-4074 -4286 0
-4075 -4287 0
-4076 -4288 0
-4077 -4293 0
-4078 -4294 0
-4079 -4295 0
-4080 -4296 0
-4077 -4825 0
-4078 -4826 0
-4079 -4827 0
-4080 -4828 0
-4081 -4413 0
-4082 -4414 0
-4083 -4415 0
-4084 -4416 0
-4081 -4453 0
-4082 -4454 0
-4083 -4455 0
-4084 -4456 0
-4081 -4833 0
-4082 -4834 0
-4083 -4835 0
-4084 -4836 0
-4085 -4381 0
-4086 -4382 0
-4087 -4383 0
-4088 -4384 0
-4085 -4677 0
-4086 -4678 0
-4087 -4679 0
-4088 -4680 0
-4085 -5049 0
-4086 -5050 0
-4087 -5051 0
-4088 -5052 0
-4085 -5241 0
-4086 -5242 0
-4087 -5243 0
-4088 -5244 0
-4089 -4093 0
-4090 -4094 0
-4091 -4095 0
-4092 -4096 0
-4089 -4313 0
-4090 -4314 0
-4091 -4315 0
-4092 -4316 0
-4089 -4749 0
-4090 -4750 0
-4091 -4751 0
-4092 -4752 0
-4089 -5453 0
-4090 -5454 0
-4091 -5455 0
-4092 -5456 0
-4093 -4097 0
-4094 -4098 0
-4095 -4099 0
-4096 -4100 0
-4093 -4649 0
-4094 -4650 0
-4095 -4651 0
-4096 -4652 0
-4097 -4321 0
-4098 -4322 0
-4099 -4323 0
-4100 -4324 0
-4097 -4661 0
-4098 -4662 0
-4099 -4663 0
-4100 -4664 0
-4097 -5513 0
-4098 -5514 0
-4099 -5515 0
-4100 -5516 0
-4101 -4105 0
-4102 -4106 0
-4103 -4107 0
-4104 -4108 0
-4101 -4421 0
-4102 -4422 0
-4103 -4423 0
-4104 -4424 0
-4105 -5061 0
-4106 -5062 0
-4107 -5063 0
-4108 -5064 0
-4105 -5333 0
-4106 -5334 0
-4107 -5335 0
-4108 -5336 0
-4105 -5561 0
-4106 -5562 0
-4107 -5563 0
-4108 -5564 0
-4109 -4333 0
-4110 -4334 0
-4111 -4335 0
-4112 -4336 0
-4109 -4901 0
-4110 -4902 0
-4111 -4903 0
-4112 -4904 0
-4109 -4985 0
-4110 -4986 0
-4111 -4987 0
-4112 -4988 0
-4109 -4989 0
-4110 -4990 0
-4111 -4991 0
-4112 -4992 0
-4109 -5565 0
-4110 -5566 0
-4111 -5567 0
-4112 -5568 0
-4113 -4117 0
-4114 -4118 0
-4115 -4119 0
-4116 -4120 0
-4113 -4129 0
-4114 -4130 0
-4115 -4131 0
-4116 -4132 0
-4117 -4133 0
-4118 -4134 0
-4119 -4135 0
-4120 -4136 0
-4117 -4197 0
-4118 -4198 0
-4119 -4199 0
-4120 -4200 0
-4117 -4837 0
-4118 -4838 0
-4119 -4839 0
-4120 -4840 0
-4117 -4869 0
-4118 -4870 0
-4119 -4871 0
-4120 -4872 0
-4121 -4125 0
-4122 -4126 0
-4123 -4127 0
-4124 -4128 0
-4121 -4137 0
-4122 -4138 0
-4123 -4139 0
-4124 -4140 0
-4121 -4573 0
-4122 -4574 0
-4123 -4575 0
-4124 -4576 0
-4121 -4729 0
-4122 -4730 0
-4123 -4731 0
-4124 -4732 0
-4121 -5061 0
-4122 -5062 0
-4123 -5063 0
-4124 -5064 0
-4125 -4141 0
-4126 -4142 0
-4127 -4143 0
-4128 -4144 0
-4125 -4157 0
-4126 -4158 0
-4127 -4159 0
-4128 -4160 0
-4125 -4189 0
-4126 -4190 0
-4127 -4191 0
-4128 -4192 0
-4125 -4205 0
-4126 -4206 0
-4127 -4207 0
-4128 -4208 0
-4125 -4265 0
-4126 -4266 0
-4127 -4267 0
-4128 -4268 0
-4125 -4277 0
-4126 -4278 0
-4127 -4279 0
-4128 -4280 0
-4125 -4565 0
-4126 -4566 0
-4127 -4567 0
-4128 -4568 0
-4125 -5065 0
-4126 -5066 0
-4127 -5067 0
-4128 -5068 0
-4129 -4133 0
-4130 -4134 0
-4131 -4135 0
-4132 -4136 0
-4129 -4201 0
-4130 -4202 0
-4131 -4203 0
-4132 -4204 0
-4129 -4529 0
-4130 -4530 0
-4131 -4531 0
-4132 -4532 0
-4129 -4533 0
-4130 -4534 0
-4131 -4535 0
-4132 -4536 0
-4133 -4365 0
-4134 -4366 0
-4135 -4367 0
-4136 -4368 0
-4133 -4521 0
-4134 -4522 0
-4135 -4523 0
-4136 -4524 0
-4133 -4833 0
-4134 -4834 0
-4135 -4835 0
-4136 -4836 0
-4137 -4141 0
-4138 -4142 0
-4139 -4143 0
-4140 -4144 0
-4137 -4149 0
-4138 -4150 0
-4139 -4151 0
-4140 -4152 0
-4137 -4529 0
-4138 -4530 0
-4139 -4531 0
-4140 -4532 0
-4137 -4833 0
-4138 -4834 0
-4139 -4835 0
-4140 -4836 0
-4141 -4153 0
-4142 -4154 0
-4143 -4155 0
-4144 -4156 0
-4141 -4173 0
-4142 -4174 0
-4143 -4175 0
-4144 -4176 0
-4141 -4277 0
-4142 -4278 0
-4143 -4279 0
-4144 -4280 0
-4141 -4369 0
-4142 -4370 0
-4143 -4371 0
-4144 -4372 0
-4141 -4533 0
-4142 -4534 0
-4143 -4535 0
-4144 -4536 0
-4141 -4757 0
-4142 -4758 0
-4143 -4759 0
-4144 -4760 0
-4141 -4773 0
-4142 -4774 0
-4143 -4775 0
-4144 -4776 0
-4141 -5193 0
-4142 -5194 0
-4143 -5195 0
-4144 -5196 0
-4149 -4153 0
-4150 -4154 0
-4151 -4155 0
-4152 -4156 0
-4149 -4177 0
-4150 -4178 0
-4151 -4179 0
-4152 -4180 0
-4149 -4561 0
-4150 -4562 0
-4151 -4563 0
-4152 -4564 0
-4149 -4577 0
-4150 -4578 0
-4151 -4579 0
-4152 -4580 0
-4153 -4181 0
-4154 -4182 0
-4155 -4183 0
-4156 -4184 0
-4153 -4381 0
-4154 -4382 0
-4155 -4383 0
-4156 -4384 0
-4153 -4601 0
-4154 -4602 0
-4155 -4603 0
-4156 -4604 0
-4153 -4737 0
-4154 -4738 0
-4155 -4739 0
-4156 -4740 0
-4153 -5169 0
-4154 -5170 0
-4155 -5171 0
-4156 -5172 0
-4153 -5525 0
-4154 -5526 0
-4155 -5527 0
-4156 -5528 0
-4157 -4189 0
-4158 -4190 0
-4159 -4191 0
-4160 -4192 0
-4157 -4221 0
-4158 -4222 0
-4159 -4223 0
-4160 -4224 0
-4161 -4569 0
-4162 -4570 0
-4163 -4571 0
-4164 -4572 0
-4161 -4581 0
-4162 -4582 0
-4163 -4583 0
-4164 -4584 0
-4161 -4601 0
-4162 -4602 0
-4163 -4603 0
-4164 -4604 0
-4161 -4729 0
-4162 -4730 0
-4163 -4731 0
-4164 -4732 0
-4165 -4333 0
-4166 -4334 0
-4167 -4335 0
-4168 -4336 0
-4169 -4173 0
-4170 -4174 0
-4171 -4175 0
-4172 -4176 0
-4169 -4217 0
-4170 -4218 0
-4171 -4219 0
-4172 -4220 0
-4169 -4333 0
-4170 -4334 0
-4171 -4335 0
-4172 -4336 0
-4173 -4177 0
-4174 -4178 0
-4175 -4179 0
-4176 -4180 0
-4173 -4189 0
-4174 -4190 0
-4175 -4191 0
-4176 -4192 0
-4173 -4229 0
-4174 -4230 0
-4175 -4231 0
-4176 -4232 0
-4173 -4533 0
-4174 -4534 0
-4175 -4535 0
-4176 -4536 0
-4173 -5209 0
-4174 -5210 0
-4175 -5211 0
-4176 -5212 0
-4177 -4181 0
-4178 -4182 0
-4179 -4183 0
-4180 -4184 0
-4177 -4553 0
-4178 -4554 0
-4179 -4555 0
-4180 -4556 0
-4177 -4773 0
-4178 -4774 0
-4179 -4775 0
-4180 -4776 0
-4177 -5205 0
-4178 -5206 0
-4179 -5207 0
-4180 -5208 0
-4177 -5561 0
-4178 -5562 0
-4179 -5563 0
-4180 -5564 0
-4181 -4193 0
-4182 -4194 0
-4183 -4195 0
-4184 -4196 0
-4181 -4385 0
-4182 -4386 0
-4183 -4387 0
-4184 -4388 0
-4185 -4197 0
-4186 -4198 0
-4187 -4199 0
-4188 -4200 0
-4189 -4201 0
-4190 -4202 0
-4191 -4203 0
-4192 -4204 0
-4189 -4229 0
-4190 -4230 0
-4191 -4231 0
-4192 -4232 0
-4189 -4573 0
-4190 -4574 0
-4191 -4575 0
-4192 -4576 0
-4193 -4205 0
-4194 -4206 0
-4195 -4207 0
-4196 -4208 0
-4193 -4749 0
-4194 -4750 0
-4195 -4751 0
-4196 -4752 0
-4193 -5345 0
-4194 -5346 0
-4195 -5347 0
-4196 -5348 0
-4197 -4513 0
-4198 -4514 0
-4199 -4515 0
-4200 -4516 0
-4197 -4517 0
-4198 -4518 0
-4199 -4519 0
-4200 -4520 0
-4197 -4809 0
-4198 -4810 0
-4199 -4811 0
-4200 -4812 0
-4197 -4873 0
-4198 -4874 0
-4199 -4875 0
-4200 -4876 0
-4201 -4517 0
-4202 -4518 0
-4203 -4519 0
-4204 -4520 0
-4205 -4265 0
-4206 -4266 0
-4207 -4267 0
-4208 -4268 0
-4205 -4549 0
-4206 -4550 0
-4207 -4551 0
-4208 -4552 0
-4205 -4793 0
-4206 -4794 0
-4207 -4795 0
-4208 -4796 0
-4205 -4809 0
-4206 -4810 0
-4207 -4811 0
-4208 -4812 0
-4205 -5417 0
-4206 -5418 0
-4207 -5419 0
-4208 -5420 0
-4209 -4213 0
-4210 -4214 0
-4211 -4215 0
-4212 -4216 0
-4209 -4217 0
-4210 -4218 0
-4211 -4219 0
-4212 -4220 0
-4209 -4269 0
-4210 -4270 0
-4211 -4271 0
-4212 -4272 0
-4209 -4273 0
-4210 -4274 0
-4211 -4275 0
-4212 -4276 0
-4209 -4281 0
-4210 -4282 0
-4211 -4283 0
-4212 -4284 0
-4209 -4413 0
-4210 -4414 0
-4211 -4415 0
-4212 -4416 0
-4213 -4221 0
-4214 -4222 0
-4215 -4223 0
-4216 -4224 0
-4213 -4285 0
-4214 -4286 0
-4215 -4287 0
-4216 -4288 0
-4213 -5209 0
-4214 -5210 0
-4215 -5211 0
-4216 -5212 0
-4217 -4221 0
-4218 -4222 0
-4219 -4223 0
-4220 -4224 0
-4217 -4225 0
-4218 -4226 0
-4219 -4227 0
-4220 -4228 0
-4217 -4245 0
-4218 -4246 0
-4219 -4247 0
-4220 -4248 0
-4221 -4229 0
-4222 -4230 0
-4223 -4231 0
-4224 -4232 0
-4221 -4297 0
-4222 -4298 0
-4223 -4299 0
-4224 -4300 0
-4221 -4301 0
-4222 -4302 0
-4223 -4303 0
-4224 -4304 0
-4221 -4417 0
-4222 -4418 0
-4223 -4419 0
-4224 -4420 0
-4225 -4229 0
-4226 -4230 0
-4227 -4231 0
-4228 -4232 0
-4225 -4233 0
-4226 -4234 0
-4227 -4235 0
-4228 -4236 0
-4225 -4333 0
-4226 -4334 0
-4227 -4335 0
-4228 -4336 0
-4225 -4573 0
-4226 -4574 0
-4227 -4575 0
-4228 -4576 0
-4229 -4237 0
-4230 -4238 0
-4231 -4239 0
-4232 -4240 0
-4229 -4273 0
-4230 -4274 0
-4231 -4275 0
-4232 -4276 0
-4229 -4425 0
-4230 -4426 0
-4231 -4427 0
-4232 -4428 0
-4233 -4237 0
-4234 -4238 0
-4235 -4239 0
-4236 -4240 0
-4233 -4529 0
-4234 -4530 0
-4235 -4531 0
-4236 -4532 0
-4233 -4577 0
-4234 -4578 0
-4235 -4579 0
-4236 -4580 0
-4233 -4589 0
-4234 -4590 0
-4235 -4591 0
-4236 -4592 0
-4237 -4241 0
-4238 -4242 0
-4239 -4243 0
-4240 -4244 0
-4237 -4257 0
-4238 -4258 0
-4239 -4259 0
-4240 -4260 0
-4237 -4393 0
-4238 -4394 0
-4239 -4395 0
-4240 -4396 0
-4237 -4429 0
-4238 -4430 0
-4239 -4431 0
-4240 -4432 0
-4237 -4533 0
-4238 -4534 0
-4239 -4535 0
-4240 -4536 0
-4237 -4541 0
-4238 -4542 0
-4239 -4543 0
-4240 -4544 0
-4237 -4549 0
-4238 -4550 0
-4239 -4551 0
-4240 -4552 0
-4237 -5433 0
-4238 -5434 0
-4239 -5435 0
-4240 -5436 0
-4241 -4261 0
-4242 -4262 0
-4243 -4263 0
-4244 -4264 0
-4241 -4301 0
-4242 -4302 0
-4243 -4303 0
-4244 -4304 0
-4241 -4305 0
-4242 -4306 0
-4243 -4307 0
-4244 -4308 0
-4241 -4433 0
-4242 -4434 0
-4243 -4435 0
-4244 -4436 0
-4241 -4557 0
-4242 -4558 0
-4243 -4559 0
-4244 -4560 0
-4245 -4249 0
-4246 -4250 0
-4247 -4251 0
-4248 -4252 0
-4245 -4269 0
-4246 -4270 0
-4247 -4271 0
-4248 -4272 0
-4245 -4277 0
-4246 -4278 0
-4247 -4279 0
-4248 -4280 0
-4245 -4301 0
-4246 -4302 0
-4247 -4303 0
-4248 -4304 0
-4245 -5481 0
-4246 -5482 0
-4247 -5483 0
-4248 -5484 0
-4249 -4277 0
-4250 -4278 0
-4251 -4279 0
-4252 -4280 0
-4249 -4305 0
-4250 -4306 0
-4251 -4307 0
-4252 -4308 0
-4249 -4585 0
-4250 -4586 0
-4251 -4587 0
-4252 -4588 0
-4249 -5485 0
-4250 -5486 0
-4251 -5487 0
-4252 -5488 0
-4257 -4261 0
-4258 -4262 0
-4259 -4263 0
-4260 -4264 0
-4257 -4285 0
-4258 -4286 0
-4259 -4287 0
-4260 -4288 0
-4257 -4437 0
-4258 -4438 0
-4259 -4439 0
-4260 -4440 0
-4257 -4537 0
-4258 -4538 0
-4259 -4539 0
-4260 -4540 0
-4257 -4745 0
-4258 -4746 0
-4259 -4747 0
-4260 -4748 0
-4257 -4809 0
-4258 -4810 0
-4259 -4811 0
-4260 -4812 0
-4261 -4265 0
-4262 -4266 0
-4263 -4267 0
-4264 -4268 0
-4261 -4289 0
-4262 -4290 0
-4263 -4291 0
-4264 -4292 0
-4261 -4441 0
-4262 -4442 0
-4263 -4443 0
-4264 -4444 0
-4261 -4557 0
-4262 -4558 0
-4263 -4559 0
-4264 -4560 0
-4261 -4565 0
-4262 -4566 0
-4263 -4567 0
-4264 -4568 0
-4261 -4793 0
-4262 -4794 0
-4263 -4795 0
-4264 -4796 0
-4261 -5461 0
-4262 -5462 0
-4263 -5463 0
-4264 -5464 0
-4265 -4329 0
-4266 -4330 0
-4267 -4331 0
-4268 -4332 0
-4265 -4445 0
-4266 -4446 0
-4267 -4447 0
-4268 -4448 0
-4265 -4909 0
-4266 -4910 0
-4267 -4911 0
-4268 -4912 0
-4269 -4273 0
-4270 -4274 0
-4271 -4275 0
-4272 -4276 0
-4269 -4293 0
-4270 -4294 0
-4271 -4295 0
-4272 -4296 0
-4269 -4449 0
-4270 -4450 0
-4271 -4451 0
-4272 -4452 0
-4269 -4797 0
-4270 -4798 0
-4271 -4799 0
-4272 -4800 0
-4269 -4913 0
-4270 -4914 0
-4271 -4915 0
-4272 -4916 0
-4269 -5465 0
-4270 -5466 0
-4271 -5467 0
-4272 -5468 0
-4273 -4297 0
-4274 -4298 0
-4275 -4299 0
-4276 -4300 0
-4273 -4313 0
-4274 -4314 0
-4275 -4315 0
-4276 -4316 0
-4273 -4325 0
-4274 -4326 0
-4275 -4327 0
-4276 -4328 0
-4273 -5469 0
-4274 -5470 0
-4275 -5471 0
-4276 -5472 0
-4277 -4281 0
-4278 -4282 0
-4279 -4283 0
-4280 -4284 0
-4277 -4457 0
-4278 -4458 0
-4279 -4459 0
-4280 -4460 0
-4277 -4521 0
-4278 -4522 0
-4279 -4523 0
-4280 -4524 0
-4277 -4721 0
-4278 -4722 0
-4279 -4723 0
-4280 -4724 0
-4277 -4897 0
-4278 -4898 0
-4279 -4899 0
-4280 -4900 0
-4277 -5037 0
-4278 -5038 0
-4279 -5039 0
-4280 -5040 0
-4281 -4285 0
-4282 -4286 0
-4283 -4287 0
-4284 -4288 0
-4281 -4461 0
-4282 -4462 0
-4283 -4463 0
-4284 -4464 0
-4281 -4521 0
-4282 -4522 0
-4283 -4523 0
-4284 -4524 0
-4281 -4565 0
-4282 -4566 0
-4283 -4567 0
-4284 -4568 0
-4281 -4729 0
-4282 -4730 0
-4283 -4731 0
-4284 -4732 0
-4281 -4773 0
-4282 -4774 0
-4283 -4775 0
-4284 -4776 0
-4281 -5033 0
-4282 -5034 0
-4283 -5035 0
-4284 -5036 0
-4285 -4289 0
-4286 -4290 0
-4287 -4291 0
-4288 -4292 0
-4285 -4733 0
-4286 -4734 0
-4287 -4735 0
-4288 -4736 0
-4285 -4757 0
-4286 -4758 0
-4287 -4759 0
-4288 -4760 0
-4289 -4753 0
-4290 -4754 0
-4291 -4755 0
-4292 -4756 0
-4289 -4901 0
-4290 -4902 0
-4291 -4903 0
-4292 -4904 0
-4293 -4297 0
-4294 -4298 0
-4295 -4299 0
-4296 -4300 0
-4293 -4465 0
-4294 -4466 0
-4295 -4467 0
-4296 -4468 0
-4293 -4777 0
-4294 -4778 0
-4295 -4779 0
-4296 -4780 0
-4297 -4301 0
-4298 -4302 0
-4299 -4303 0
-4300 -4304 0
-4297 -4325 0
-4298 -4326 0
-4299 -4327 0
-4300 -4328 0
-4297 -4469 0
-4298 -4470 0
-4299 -4471 0
-4300 -4472 0
-4301 -4305 0
-4302 -4306 0
-4303 -4307 0
-4304 -4308 0
-4301 -4321 0
-4302 -4322 0
-4303 -4323 0
-4304 -4324 0
-4305 -4473 0
-4306 -4474 0
-4307 -4475 0
-4308 -4476 0
-4305 -4781 0
-4306 -4782 0
-4307 -4783 0
-4308 -4784 0
-4305 -4905 0
-4306 -4906 0
-4307 -4907 0
-4308 -4908 0
-4309 -4317 0
-4310 -4318 0
-4311 -4319 0
-4312 -4320 0
-4309 -4477 0
-4310 -4478 0
-4311 -4479 0
-4312 -4480 0
-4309 -4537 0
-4310 -4538 0
-4311 -4539 0
-4312 -4540 0
-4317 -4541 0
-4318 -4542 0
-4319 -4543 0
-4320 -4544 0
-4317 -4565 0
-4318 -4566 0
-4319 -4567 0
-4320 -4568 0
-4317 -4733 0
-4318 -4734 0
-4319 -4735 0
-4320 -4736 0
-4317 -4745 0
-4318 -4746 0
-4319 -4747 0
-4320 -4748 0
-4317 -4773 0
-4318 -4774 0
-4319 -4775 0
-4320 -4776 0
-4317 -4793 0
-4318 -4794 0
-4319 -4795 0
-4320 -4796 0
-4321 -4325 0
-4322 -4326 0
-4323 -4327 0
-4324 -4328 0
-4321 -4557 0
-4322 -4558 0
-4323 -4559 0
-4324 -4560 0
-4321 -4601 0
-4322 -4602 0
-4323 -4603 0
-4324 -4604 0
-4321 -5513 0
-4322 -5514 0
-4323 -5515 0
-4324 -5516 0
-4325 -4749 0
-4326 -4750 0
-4327 -4751 0
-4328 -4752 0
-4329 -4517 0
-4330 -4518 0
-4331 -4519 0
-4332 -4520 0
-4329 -4549 0
-4330 -4550 0
-4331 -4551 0
-4332 -4552 0
-4329 -4557 0
-4330 -4558 0
-4331 -4559 0
-4332 -4560 0
-4333 -4357 0
-4334 -4358 0
-4335 -4359 0
-4336 -4360 0
-4333 -4573 0
-4334 -4574 0
-4335 -4575 0
-4336 -4576 0
-4337 -4345 0
-4338 -4346 0
-4339 -4347 0
-4340 -4348 0
-4337 -4853 0
-4338 -4854 0
-4339 -4855 0
-4340 -4856 0
-4341 -5249 0
-4342 -5250 0
-4343 -5251 0
-4344 -5252 0
-4341 -5253 0
-4342 -5254 0
-4343 -5255 0
-4344 -5256 0
-4341 -5293 0
-4342 -5294 0
-4343 -5295 0
-4344 -5296 0
-4341 -5433 0
-4342 -5434 0
-4343 -5435 0
-4344 -5436 0
-4345 -4997 0
-4346 -4998 0
-4347 -4999 0
-4348 -5000 0
-4345 -5437 0
-4346 -5438 0
-4347 -5439 0
-4348 -5440 0
-4349 -4481 0
-4350 -4482 0
-4351 -4483 0
-4352 -4484 0
-4349 -5489 0
-4350 -5490 0
-4351 -5491 0
-4352 -5492 0
-4349 -5493 0
-4350 -5494 0
-4351 -5495 0
-4352 -5496 0
-4353 -4357 0
-4354 -4358 0
-4355 -4359 0
-4356 -4360 0
-4353 -5081 0
-4354 -5082 0
-4355 -5083 0
-4356 -5084 0
-4353 -5121 0
-4354 -5122 0
-4355 -5123 0
-4356 -5124 0
-4353 -5125 0
-4354 -5126 0
-4355 -5127 0
-4356 -5128 0
-4353 -5337 0
-4354 -5338 0
-4355 -5339 0
-4356 -5340 0
-4353 -5437 0
-4354 -5438 0
-4355 -5439 0
-4356 -5440 0
-4353 -5597 0
-4354 -5598 0
-4355 -5599 0
-4356 -5600 0
-4357 -4361 0
-4358 -4362 0
-4359 -4363 0
-4360 -4364 0
-4357 -4997 0
-4358 -4998 0
-4359 -4999 0
-4360 -5000 0
-4357 -5293 0
-4358 -5294 0
-4359 -5295 0
-4360 -5296 0
-4357 -5333 0
-4358 -5334 0
-4359 -5335 0
-4360 -5336 0
-4357 -5493 0
-4358 -5494 0
-4359 -5495 0
-4360 -5496 0
-4361 -5065 0
-4362 -5066 0
-4363 -5067 0
-4364 -5068 0
-4361 -5433 0
-4362 -5434 0
-4363 -5435 0
-4364 -5436 0
-4361 -5489 0
-4362 -5490 0
-4363 -5491 0
-4364 -5492 0
-4365 -4377 0
-4366 -4378 0
-4367 -4379 0
-4368 -4380 0
-4369 -4381 0
-4370 -4382 0
-4371 -4383 0
-4372 -4384 0
-4369 -4457 0
-4370 -4458 0
-4371 -4459 0
-4372 -4460 0
-4369 -4673 0
-4370 -4674 0
-4371 -4675 0
-4372 -4676 0
-4369 -4693 0
-4370 -4694 0
-4371 -4695 0
-4372 -4696 0
-4373 -5009 0
-4374 -5010 0
-4375 -5011 0
-4376 -5012 0
-4377 -4477 0
-4378 -4478 0
-4379 -4479 0
-4380 -4480 0
-4381 -4385 0
-4382 -4386 0
-4383 -4387 0
-4384 -4388 0
-4381 -4645 0
-4382 -4646 0
-4383 -4647 0
-4384 -4648 0
-4381 -5169 0
-4382 -5170 0
-4383 -5171 0
-4384 -5172 0
-4385 -4389 0
-4386 -4390 0
-4387 -4391 0
-4388 -4392 0
-4385 -4677 0
-4386 -4678 0
-4387 -4679 0
-4388 -4680 0
-4389 -4393 0
-4390 -4394 0
-4391 -4395 0
-4392 -4396 0
-4389 -4541 0
-4390 -4542 0
-4391 -4543 0
-4392 -4544 0
-4389 -4697 0
-4390 -4698 0
-4391 -4699 0
-4392 -4700 0
-4389 -5293 0
-4390 -5294 0
-4391 -5295 0
-4392 -5296 0
-4389 -5565 0
-4390 -5566 0
-4391 -5567 0
-4392 -5568 0
-4393 -4417 0
-4394 -4418 0
-4395 -4419 0
-4396 -4420 0
-4393 -5433 0
-4394 -5434 0
-4395 -5435 0
-4396 -5436 0
-4397 -4401 0
-4398 -4402 0
-4399 -4403 0
-4400 -4404 0
-4397 -4681 0
-4398 -4682 0
-4399 -4683 0
-4400 -4684 0
-4397 -4701 0
-4398 -4702 0
-4399 -4703 0
-4400 -4704 0
-4397 -5249 0
-4398 -5250 0
-4399 -5251 0
-4400 -5252 0
-4401 -4689 0
-4402 -4690 0
-4403 -4691 0
-4404 -4692 0
-4401 -4705 0
-4402 -4706 0
-4403 -4707 0
-4404 -4708 0
-4401 -5253 0
-4402 -5254 0
-4403 -5255 0
-4404 -5256 0
-4405 -4433 0
-4406 -4434 0
-4407 -4435 0
-4408 -4436 0
-4405 -5333 0
-4406 -5334 0
-4407 -5335 0
-4408 -5336 0
-4409 -4557 0
-4410 -4558 0
-4411 -4559 0
-4412 -4560 0
-4409 -4997 0
-4410 -4998 0
-4411 -4999 0
-4412 -5000 0
-4413 -4449 0
-4414 -4450 0
-4415 -4451 0
-4416 -4452 0
-4413 -4461 0
-4414 -4462 0
-4415 -4463 0
-4416 -4464 0
-4413 -4561 0
-4414 -4562 0
-4415 -4563 0
-4416 -4564 0
-4417 -4421 0
-4418 -4422 0
-4419 -4423 0
-4420 -4424 0
-4417 -4425 0
-4418 -4426 0
-4419 -4427 0
-4420 -4428 0
-4417 -4469 0
-4418 -4470 0
-4419 -4471 0
-4420 -4472 0
-4417 -5337 0
-4418 -5338 0
-4419 -5339 0
-4420 -5340 0
-4421 -5333 0
-4422 -5334 0
-4423 -5335 0
-4424 -5336 0
-4425 -4429 0
-4426 -4430 0
-4427 -4431 0
-4428 -4432 0
-4429 -4433 0
-4430 -4434 0
-4431 -4435 0
-4432 -4436 0
-4429 -4437 0
-4430 -4438 0
-4431 -4439 0
-4432 -4440 0
-4429 -4693 0
-4430 -4694 0
-4431 -4695 0
-4432 -4696 0
-4429 -5433 0
-4430 -5434 0
-4431 -5435 0
-4432 -5436 0
-4433 -4441 0
-4434 -4442 0
-4435 -4443 0
-4436 -4444 0
-4433 -4473 0
-4434 -4474 0
-4435 -4475 0
-4436 -4476 0
-4437 -4441 0
-4438 -4442 0
-4439 -4443 0
-4440 -4444 0
-4437 -4545 0
-4438 -4546 0
-4439 -4547 0
-4440 -4548 0
-4437 -4657 0
-4438 -4658 0
-4439 -4659 0
-4440 -4660 0
-4437 -4709 0
-4438 -4710 0
-4439 -4711 0
-4440 -4712 0
-4441 -4445 0
-4442 -4446 0
-4443 -4447 0
-4444 -4448 0
-4441 -4637 0
-4442 -4638 0
-4443 -4639 0
-4444 -4640 0
-4441 -4653 0
-4442 -4654 0
-4443 -4655 0
-4444 -4656 0
-4441 -4697 0
-4442 -4698 0
-4443 -4699 0
-4444 -4700 0
-4441 -5493 0
-4442 -5494 0
-4443 -5495 0
-4444 -5496 0
-4445 -4909 0
-4446 -4910 0
-4447 -4911 0
-4448 -4912 0
-4445 -5489 0
-4446 -5490 0
-4447 -5491 0
-4448 -5492 0
-4449 -4465 0
-4450 -4466 0
-4451 -4467 0
-4452 -4468 0
-4449 -4701 0
-4450 -4702 0
-4451 -4703 0
-4452 -4704 0
-4449 -4913 0
-4450 -4914 0
-4451 -4915 0
-4452 -4916 0
-4453 -4457 0
-4454 -4458 0
-4455 -4459 0
-4456 -4460 0
-4453 -5073 0
-4454 -5074 0
-4455 -5075 0
-4456 -5076 0
-4457 -4461 0
-4458 -4462 0
-4459 -4463 0
-4460 -4464 0
-4457 -4897 0
-4458 -4898 0
-4459 -4899 0
-4460 -4900 0
-4461 -4529 0
-4462 -4530 0
-4463 -4531 0
-4464 -4532 0
-4461 -4673 0
-4462 -4674 0
-4463 -4675 0
-4464 -4676 0
-4461 -5077 0
-4462 -5078 0
-4463 -5079 0
-4464 -5080 0
-4465 -4469 0
-4466 -4470 0
-4467 -4471 0
-4468 -4472 0
-4465 -4681 0
-4466 -4682 0
-4467 -4683 0
-4468 -4684 0
-4469 -5085 0
-4470 -5086 0
-4471 -5087 0
-4472 -5088 0
-4473 -4685 0
-4474 -4686 0
-4475 -4687 0
-4476 -4688 0
-4473 -4905 0
-4474 -4906 0
-4475 -4907 0
-4476 -4908 0
-4481 -4485 0
-4482 -4486 0
-4483 -4487 0
-4484 -4488 0
-4481 -5125 0
-4482 -5126 0
-4483 -5127 0
-4484 -5128 0
-4481 -5173 0
-4482 -5174 0
-4483 -5175 0
-4484 -5176 0
-4485 -5013 0
-4486 -5014 0
-4487 -5015 0
-4488 -5016 0
-4489 -4613 0
-4490 -4614 0
-4491 -4615 0
-4492 -4616 0
-4489 -4925 0
-4490 -4926 0
-4491 -4927 0
-4492 -4928 0
-4489 -4929 0
-4490 -4930 0
-4491 -4931 0
-4492 -4932 0
-4493 -4497 0
-4494 -4498 0
-4495 -4499 0
-4496 -4500 0
-4493 -4953 0
-4494 -4954 0
-4495 -4955 0
-4496 -4956 0
-4493 -5265 0
-4494 -5266 0
-4495 -5267 0
-4496 -5268 0
-4497 -4917 0
-4498 -4918 0
-4499 -4919 0
-4500 -4920 0
-4497 -4929 0
-4498 -4930 0
-4499 -4931 0
-4500 -4932 0
-4497 -5081 0
-4498 -5082 0
-4499 -5083 0
-4500 -5084 0
-4497 -5173 0
-4498 -5174 0
-4499 -5175 0
-4500 -5176 0
-4497 -5437 0
-4498 -5438 0
-4499 -5439 0
-4500 -5440 0
-4501 -4505 0
-4502 -4506 0
-4503 -4507 0
-4504 -4508 0
-4501 -5229 0
-4502 -5230 0
-4503 -5231 0
-4504 -5232 0
-4501 -5237 0
-4502 -5238 0
-4503 -5239 0
-4504 -5240 0
-4501 -5257 0
-4502 -5258 0
-4503 -5259 0
-4504 -5260 0
-4501 -5265 0
-4502 -5266 0
-4503 -5267 0
-4504 -5268 0
-4505 -5125 0
-4506 -5126 0
-4507 -5127 0
-4508 -5128 0
-4505 -5253 0
-4506 -5254 0
-4507 -5255 0
-4508 -5256 0
-4509 -4513 0
-4510 -4514 0
-4511 -4515 0
-4512 -4516 0
-4509 -4533 0
-4510 -4534 0
-4511 -4535 0
-4512 -4536 0
-4509 -4545 0
-4510 -4546 0
-4511 -4547 0
-4512 -4548 0
-4509 -4805 0
-4510 -4806 0
-4511 -4807 0
-4512 -4808 0
-4509 -4821 0
-4510 -4822 0
-4511 -4823 0
-4512 -4824 0
-4513 -4517 0
-4514 -4518 0
-4515 -4519 0
-4516 -4520 0
-4513 -4557 0
-4514 -4558 0
-4515 -4559 0
-4516 -4560 0
-4513 -4637 0
-4514 -4638 0
-4515 -4639 0
-4516 -4640 0
-4513 -4809 0
-4514 -4810 0
-4515 -4811 0
-4516 -4812 0
-4513 -4817 0
-4514 -4818 0
-4515 -4819 0
-4516 -4820 0
-4517 -5173 0
-4518 -5174 0
-4519 -5175 0
-4520 -5176 0
-4521 -4641 0
-4522 -4642 0
-4523 -4643 0
-4524 -4644 0
-4521 -5013 0
-4522 -5014 0
-4523 -5015 0
-4524 -5016 0
-4525 -4537 0
-4526 -4538 0
-4527 -4539 0
-4528 -4540 0
-4525 -4725 0
-4526 -4726 0
-4527 -4727 0
-4528 -4728 0
-4525 -4833 0
-4526 -4834 0
-4527 -4835 0
-4528 -4836 0
-4529 -4533 0
-4530 -4534 0
-4531 -4535 0
-4532 -4536 0
-4529 -4577 0
-4530 -4578 0
-4531 -4579 0
-4532 -4580 0
-4529 -4833 0
-4530 -4834 0
-4531 -4835 0
-4532 -4836 0
-4529 -5077 0
-4530 -5078 0
-4531 -5079 0
-4532 -5080 0
-4533 -4545 0
-4534 -4546 0
-4535 -4547 0
-4536 -4548 0
-4533 -4693 0
-4534 -4694 0
-4535 -4695 0
-4536 -4696 0
-4533 -5081 0
-4534 -5082 0
-4535 -5083 0
-4536 -5084 0
-4537 -4745 0
-4538 -4746 0
-4539 -4747 0
-4540 -4748 0
-4541 -4745 0
-4542 -4746 0
-4543 -4747 0
-4544 -4748 0
-4541 -5293 0
-4542 -5294 0
-4543 -5295 0
-4544 -5296 0
-4549 -4809 0
-4550 -4810 0
-4551 -4811 0
-4552 -4812 0
-4553 -4649 0
-4554 -4650 0
-4555 -4651 0
-4556 -4652 0
-4553 -4797 0
-4554 -4798 0
-4555 -4799 0
-4556 -4800 0
-4553 -4813 0
-4554 -4814 0
-4555 -4815 0
-4556 -4816 0
-4557 -4661 0
-4558 -4662 0
-4559 -4663 0
-4560 -4664 0
-4557 -4997 0
-4558 -4998 0
-4559 -4999 0
-4560 -5000 0
-4561 -4577 0
-4562 -4578 0
-4563 -4579 0
-4564 -4580 0
-4561 -4833 0
-4562 -4834 0
-4563 -4835 0
-4564 -4836 0
-4565 -4597 0
-4566 -4598 0
-4567 -4599 0
-4568 -4600 0
-4565 -4773 0
-4566 -4774 0
-4567 -4775 0
-4568 -4776 0
-4565 -4793 0
-4566 -4794 0
-4567 -4795 0
-4568 -4796 0
-4565 -4953 0
-4566 -4954 0
-4567 -4955 0
-4568 -4956 0
-4569 -4581 0
-4570 -4582 0
-4571 -4583 0
-4572 -4584 0
-4569 -5069 0
-4570 -5070 0
-4571 -5071 0
-4572 -5072 0
-4577 -4673 0
-4578 -4674 0
-4579 -4675 0
-4580 -4676 0
-4577 -5221 0
-4578 -5222 0
-4579 -5223 0
-4580 -5224 0
-4581 -4585 0
-4582 -4586 0
-4583 -4587 0
-4584 -4588 0
-4585 -4689 0
-4586 -4690 0
-4587 -4691 0
-4588 -4692 0
-4585 -5233 0
-4586 -5234 0
-4587 -5235 0
-4588 -5236 0
-4589 -4697 0
-4590 -4698 0
-4591 -4699 0
-4592 -4700 0
-4593 -4597 0
-4594 -4598 0
-4595 -4599 0
-4596 -4600 0
-4593 -4741 0
-4594 -4742 0
-4595 -4743 0
-4596 -4744 0
-4593 -4821 0
-4594 -4822 0
-4595 -4823 0
-4596 -4824 0
-4593 -5081 0
-4594 -5082 0
-4595 -5083 0
-4596 -5084 0
-4597 -4741 0
-4598 -4742 0
-4599 -4743 0
-4600 -4744 0
-4597 -4745 0
-4598 -4746 0
-4599 -4747 0
-4600 -4748 0
-4597 -4817 0
-4598 -4818 0
-4599 -4819 0
-4600 -4820 0
-4601 -4605 0
-4602 -4606 0
-4603 -4607 0
-4604 -4608 0
-4601 -5265 0
-4602 -5266 0
-4603 -5267 0
-4604 -5268 0
-4609 -4721 0
-4610 -4722 0
-4611 -4723 0
-4612 -4724 0
-4609 -4729 0
-4610 -4730 0
-4611 -4731 0
-4612 -4732 0
-4613 -4937 0
-4614 -4938 0
-4615 -4939 0
-4616 -4940 0
-4613 -5265 0
-4614 -5266 0
-4615 -5267 0
-4616 -5268 0
-4617 -4621 0
-4618 -4622 0
-4619 -4623 0
-4620 -4624 0
-4617 -4625 0
-4618 -4626 0
-4619 -4627 0
-4620 -4628 0
-4617 -4845 0
-4618 -4846 0
-4619 -4847 0
-4620 -4848 0
-4617 -4953 0
-4618 -4954 0
-4619 -4955 0
-4620 -4956 0
-4617 -5101 0
-4618 -5102 0
-4619 -5103 0
-4620 -5104 0
-4617 -5405 0
-4618 -5406 0
-4619 -5407 0
-4620 -5408 0
-4621 -4717 0
-4622 -4718 0
-4623 -4719 0
-4624 -4720 0
-4621 -4929 0
-4622 -4930 0
-4623 -4931 0
-4624 -4932 0
-4621 -5081 0
-4622 -5082 0
-4623 -5083 0
-4624 -5084 0
-4621 -5393 0
-4622 -5394 0
-4623 -5395 0
-4624 -5396 0
-4621 -5609 0
-4622 -5610 0
-4623 -5611 0
-4624 -5612 0
-4625 -4937 0
-4626 -4938 0
-4627 -4939 0
-4628 -4940 0
-4625 -5441 0
-4626 -5442 0
-4627 -5443 0
-4628 -5444 0
-4625 -5613 0
-4626 -5614 0
-4627 -5615 0
-4628 -5616 0
-4629 -4633 0
-4630 -4634 0
-4631 -4635 0
-4632 -4636 0
-4629 -5393 0
-4630 -5394 0
-4631 -5395 0
-4632 -5396 0
-4629 -5453 0
-4630 -5454 0
-4631 -5455 0
-4632 -5456 0
-4633 -5265 0
-4634 -5266 0
-4635 -5267 0
-4636 -5268 0
-4637 -4661 0
-4638 -4662 0
-4639 -4663 0
-4640 -4664 0
-4637 -4713 0
-4638 -4714 0
-4639 -4715 0
-4640 -4716 0
-4641 -5013 0
-4642 -5014 0
-4643 -5015 0
-4644 -5016 0
-4645 -4737 0
-4646 -4738 0
-4647 -4739 0
-4648 -4740 0
-4645 -5185 0
-4646 -5186 0
-4647 -5187 0
-4648 -5188 0
-4645 -5261 0
-4646 -5262 0
-4647 -5263 0
-4648 -5264 0
-4649 -4717 0
-4650 -4718 0
-4651 -4719 0
-4652 -4720 0
-4653 -4657 0
-4654 -4658 0
-4655 -4659 0
-4656 -4660 0
-4657 -4709 0
-4658 -4710 0
-4659 -4711 0
-4660 -4712 0
-4657 -4929 0
-4658 -4930 0
-4659 -4931 0
-4660 -4932 0
-4665 -4681 0
-4666 -4682 0
-4667 -4683 0
-4668 -4684 0
-4665 -4761 0
-4666 -4762 0
-4667 -4763 0
-4668 -4764 0
-4665 -5237 0
-4666 -5238 0
-4667 -5239 0
-4668 -5240 0
-4669 -4697 0
-4670 -4698 0
-4671 -4699 0
-4672 -4700 0
-4669 -4701 0
-4670 -4702 0
-4671 -4703 0
-4672 -4704 0
-4673 -4677 0
-4674 -4678 0
-4675 -4679 0
-4676 -4680 0
-4673 -4773 0
-4674 -4774 0
-4675 -4775 0
-4676 -4776 0
-4673 -5129 0
-4674 -5130 0
-4675 -5131 0
-4676 -5132 0
-4673 -5221 0
-4674 -5222 0
-4675 -5223 0
-4676 -5224 0
-4677 -5225 0
-4678 -5226 0
-4679 -5227 0
-4680 -5228 0
-4681 -4689 0
-4682 -4690 0
-4683 -4691 0
-4684 -4692 0
-4681 -4701 0
-4682 -4702 0
-4683 -4703 0
-4684 -4704 0
-4681 -4777 0
-4682 -4778 0
-4683 -4779 0
-4684 -4780 0
-4681 -5229 0
-4682 -5230 0
-4683 -5231 0
-4684 -5232 0
-4681 -5369 0
-4682 -5370 0
-4683 -5371 0
-4684 -5372 0
-4685 -4709 0
-4686 -4710 0
-4687 -4711 0
-4688 -4712 0
-4685 -4781 0
-4686 -4782 0
-4687 -4783 0
-4688 -4784 0
-4685 -5373 0
-4686 -5374 0
-4687 -5375 0
-4688 -5376 0
-4689 -4705 0
-4690 -4706 0
-4691 -4707 0
-4692 -4708 0
-4689 -4713 0
-4690 -4714 0
-4691 -4715 0
-4692 -4716 0
-4689 -4789 0
-4690 -4790 0
-4691 -4791 0
-4692 -4792 0
-4689 -5233 0
-4690 -5234 0
-4691 -5235 0
-4692 -5236 0
-4693 -5081 0
-4694 -5082 0
-4695 -5083 0
-4696 -5084 0
-4697 -4793 0
-4698 -4794 0
-4699 -4795 0
-4700 -4796 0
-4697 -5353 0
-4698 -5354 0
-4699 -5355 0
-4700 -5356 0
-4701 -4705 0
-4702 -4706 0
-4703 -4707 0
-4704 -4708 0
-4701 -4797 0
-4702 -4798 0
-4703 -4799 0
-4704 -4800 0
-4701 -5357 0
-4702 -5358 0
-4703 -5359 0
-4704 -5360 0
-4705 -4801 0
-4706 -4802 0
-4707 -4803 0
-4708 -4804 0
-4705 -5361 0
-4706 -5362 0
-4707 -5363 0
-4708 -5364 0
-4709 -4809 0
-4710 -4810 0
-4711 -4811 0
-4712 -4812 0
-4713 -4925 0
-4714 -4926 0
-4715 -4927 0
-4716 -4928 0
-4721 -5105 0
-4722 -5106 0
-4723 -5107 0
-4724 -5108 0
-4721 -5609 0
-4722 -5610 0
-4723 -5611 0
-4724 -5612 0
-4725 -4757 0
-4726 -4758 0
-4727 -4759 0
-4728 -4760 0
-4729 -5529 0
-4730 -5530 0
-4731 -5531 0
-4732 -5532 0
-4733 -4745 0
-4734 -4746 0
-4735 -4747 0
-4736 -4748 0
-4737 -5261 0
-4738 -5262 0
-4739 -5263 0
-4740 -5264 0
-4745 -5365 0
-4746 -5366 0
-4747 -5367 0
-4748 -5368 0
-4749 -5453 0
-4750 -5454 0
-4751 -5455 0
-4752 -5456 0
-4753 -4757 0
-4754 -4758 0
-4755 -4759 0
-4756 -4760 0
-4753 -5101 0
-4754 -5102 0
-4755 -5103 0
-4756 -5104 0
-4757 -4797 0
-4758 -4798 0
-4759 -4799 0
-4760 -4800 0
-4757 -4801 0
-4758 -4802 0
-4759 -4803 0
-4760 -4804 0
-4761 -4769 0
-4762 -4770 0
-4763 -4771 0
-4764 -4772 0
-4761 -4777 0
-4762 -4778 0
-4763 -4779 0
-4764 -4780 0
-4761 -4825 0
-4762 -4826 0
-4763 -4827 0
-4764 -4828 0
-4765 -4781 0
-4766 -4782 0
-4767 -4783 0
-4768 -4784 0
-4765 -4793 0
-4766 -4794 0
-4767 -4795 0
-4768 -4796 0
-4765 -4801 0
-4766 -4802 0
-4767 -4803 0
-4768 -4804 0
-4769 -4789 0
-4770 -4790 0
-4771 -4791 0
-4772 -4792 0
-4769 -4829 0
-4770 -4830 0
-4771 -4831 0
-4772 -4832 0
-4773 -4813 0
-4774 -4814 0
-4775 -4815 0
-4776 -4816 0
-4773 -5129 0
-4774 -5130 0
-4775 -5131 0
-4776 -5132 0
-4777 -4789 0
-4778 -4790 0
-4779 -4791 0
-4780 -4792 0
-4777 -4797 0
-4778 -4798 0
-4779 -4799 0
-4780 -4800 0
-4777 -5369 0
-4778 -5370 0
-4779 -5371 0
-4780 -5372 0
-4781 -4785 0
-4782 -4786 0
-4783 -4787 0
-4784 -4788 0
-4781 -4809 0
-4782 -4810 0
-4783 -4811 0
-4784 -4812 0
-4781 -5373 0
-4782 -5374 0
-4783 -5375 0
-4784 -5376 0
-4785 -4789 0
-4786 -4790 0
-4787 -4791 0
-4788 -4792 0
-4785 -4809 0
-4786 -4810 0
-4787 -4811 0
-4788 -4812 0
-4785 -4813 0
-4786 -4814 0
-4787 -4815 0
-4788 -4816 0
-4789 -4801 0
-4790 -4802 0
-4791 -4803 0
-4792 -4804 0
-4793 -5353 0
-4794 -5354 0
-4795 -5355 0
-4796 -5356 0
-4797 -4801 0
-4798 -4802 0
-4799 -4803 0
-4800 -4804 0
-4797 -4813 0
-4798 -4814 0
-4799 -4815 0
-4800 -4816 0
-4797 -5357 0
-4798 -5358 0
-4799 -5359 0
-4800 -5360 0
-4797 -5421 0
-4798 -5422 0
-4799 -5423 0
-4800 -5424 0
-4801 -4817 0
-4802 -4818 0
-4803 -4819 0
-4804 -4820 0
-4801 -5361 0
-4802 -5362 0
-4803 -5363 0
-4804 -5364 0
-4801 -5429 0
-4802 -5430 0
-4803 -5431 0
-4804 -5432 0
-4805 -4953 0
-4806 -4954 0
-4807 -4955 0
-4808 -4956 0
-4813 -5445 0
-4814 -5446 0
-4815 -5447 0
-4816 -5448 0
-4817 -4821 0
-4818 -4822 0
-4819 -4823 0
-4820 -4824 0
-4821 -4937 0
-4822 -4938 0
-4823 -4939 0
-4824 -4940 0
-4825 -4829 0
-4826 -4830 0
-4827 -4831 0
-4828 -4832 0
-4837 -4873 0
-4838 -4874 0
-4839 -4875 0
-4840 -4876 0
-4837 -5073 0
-4838 -5074 0
-4839 -5075 0
-4840 -5076 0
-4841 -4845 0
-4842 -4846 0
-4843 -4847 0
-4844 -4848 0
-4841 -5069 0
-4842 -5070 0
-4843 -5071 0
-4844 -5072 0
-4841 -5073 0
-4842 -5074 0
-4843 -5075 0
-4844 -5076 0
-4845 -4849 0
-4846 -4850 0
-4847 -4851 0
-4848 -4852 0
-4845 -5045 0
-4846 -5046 0
-4847 -5047 0
-4848 -5048 0
-4845 -5105 0
-4846 -5106 0
-4847 -5107 0
-4848 -5108 0
-4845 -5173 0
-4846 -5174 0
-4847 -5175 0
-4848 -5176 0
-4845 -5381 0
-4846 -5382 0
-4847 -5383 0
-4848 -5384 0
-4845 -5497 0
-4846 -5498 0
-4847 -5499 0
-4848 -5500 0
-4849 -4877 0
-4850 -4878 0
-4851 -4879 0
-4852 -4880 0
-4849 -5485 0
-4850 -5486 0
-4851 -5487 0
-4852 -5488 0
-4853 -4857 0
-4854 -4858 0
-4855 -4859 0
-4856 -4860 0
-4857 -5001 0
-4858 -5002 0
-4859 -5003 0
-4860 -5004 0
-4857 -5609 0
-4858 -5610 0
-4859 -5611 0
-4860 -5612 0
-4861 -4865 0
-4862 -4866 0
-4863 -4867 0
-4864 -4868 0
-4861 -5573 0
-4862 -5574 0
-4863 -5575 0
-4864 -5576 0
-4865 -5537 0
-4866 -5538 0
-4867 -5539 0
-4868 -5540 0
-4865 -5569 0
-4866 -5570 0
-4867 -5571 0
-4868 -5572 0
-4869 -5585 0
-4870 -5586 0
-4871 -5587 0
-4872 -5588 0
-4873 -5569 0
-4874 -5570 0
-4875 -5571 0
-4876 -5572 0
-4881 -5593 0
-4882 -5594 0
-4883 -5595 0
-4884 -5596 0
-4885 -4889 0
-4886 -4890 0
-4887 -4891 0
-4888 -4892 0
-4885 -4941 0
-4886 -4942 0
-4887 -4943 0
-4888 -4944 0
-4885 -5209 0
-4886 -5210 0
-4887 -5211 0
-4888 -5212 0
-4885 -5469 0
-4886 -5470 0
-4887 -5471 0
-4888 -5472 0
-4889 -4893 0
-4890 -4894 0
-4891 -4895 0
-4892 -4896 0
-4889 -4913 0
-4890 -4914 0
-4891 -4915 0
-4892 -4916 0
-4889 -4945 0
-4890 -4946 0
-4891 -4947 0
-4892 -4948 0
-4889 -4969 0
-4890 -4970 0
-4891 -4971 0
-4892 -4972 0
-4889 -5041 0
-4890 -5042 0
-4891 -5043 0
-4892 -5044 0
-4889 -5209 0
-4890 -5210 0
-4891 -5211 0
-4892 -5212 0
-4889 -5217 0
-4890 -5218 0
-4891 -5219 0
-4892 -5220 0
-4889 -5473 0
-4890 -5474 0
-4891 -5475 0
-4892 -5476 0
-4889 -5585 0
-4890 -5586 0
-4891 -5587 0
-4892 -5588 0
-4893 -4905 0
-4894 -4906 0
-4895 -4907 0
-4896 -4908 0
-4893 -4933 0
-4894 -4934 0
-4895 -4935 0
-4896 -4936 0
-4893 -4985 0
-4894 -4986 0
-4895 -4987 0
-4896 -4988 0
-4893 -5045 0
-4894 -5046 0
-4895 -5047 0
-4896 -5048 0
-4893 -5457 0
-4894 -5458 0
-4895 -5459 0
-4896 -5460 0
-4893 -5477 0
-4894 -5478 0
-4895 -5479 0
-4896 -5480 0
-4897 -5065 0
-4898 -5066 0
-4899 -5067 0
-4900 -5068 0
-4901 -5417 0
-4902 -5418 0
-4903 -5419 0
-4904 -5420 0
-4905 -4921 0
-4906 -4922 0
-4907 -4923 0
-4908 -4924 0
-4905 -4985 0
-4906 -4986 0
-4907 -4987 0
-4908 -4988 0
-4905 -5053 0
-4906 -5054 0
-4907 -5055 0
-4908 -5056 0
-4909 -5065 0
-4910 -5066 0
-4911 -5067 0
-4912 -5068 0
-4913 -5165 0
-4914 -5166 0
-4915 -5167 0
-4916 -5168 0
-4913 -5217 0
-4914 -5218 0
-4915 -5219 0
-4916 -5220 0
-4913 -5569 0
-4914 -5570 0
-4915 -5571 0
-4916 -5572 0
-4917 -4945 0
-4918 -4946 0
-4919 -4947 0
-4920 -4948 0
-4917 -4997 0
-4918 -4998 0
-4919 -4999 0
-4920 -5000 0
-4921 -4933 0
-4922 -4934 0
-4923 -4935 0
-4924 -4936 0
-4921 -5085 0
-4922 -5086 0
-4923 -5087 0
-4924 -5088 0
-4921 -5245 0
-4922 -5246 0
-4923 -5247 0
-4924 -5248 0
-4921 -5253 0
-4922 -5254 0
-4923 -5255 0
-4924 -5256 0
-4921 -5377 0
-4922 -5378 0
-4923 -5379 0
-4924 -5380 0
-4921 -5433 0
-4922 -5434 0
-4923 -5435 0
-4924 -5436 0
-4925 -4929 0
-4926 -4930 0
-4927 -4931 0
-4928 -4932 0
-4925 -5233 0
-4926 -5234 0
-4927 -5235 0
-4928 -5236 0
-4929 -4937 0
-4930 -4938 0
-4931 -4939 0
-4932 -4940 0
-4929 -5609 0
-4930 -5610 0
-4931 -5611 0
-4932 -5612 0
-4933 -4941 0
-4934 -4942 0
-4935 -4943 0
-4936 -4944 0
-4933 -5089 0
-4934 -5090 0
-4935 -5091 0
-4936 -5092 0
-4933 -5153 0
-4934 -5154 0
-4935 -5155 0
-4936 -5156 0
-4933 -5217 0
-4934 -5218 0
-4935 -5219 0
-4936 -5220 0
-4933 -5233 0
-4934 -5234 0
-4935 -5235 0
-4936 -5236 0
-4933 -5505 0
-4934 -5506 0
-4935 -5507 0
-4936 -5508 0
-4933 -5593 0
-4934 -5594 0
-4935 -5595 0
-4936 -5596 0
-4937 -5277 0
-4938 -5278 0
-4939 -5279 0
-4940 -5280 0
-4937 -5613 0
-4938 -5614 0
-4939 -5615 0
-4940 -5616 0
-4937 -5629 0
-4938 -5630 0
-4939 -5631 0
-4940 -5632 0
-4941 -4945 0
-4942 -4946 0
-4943 -4947 0
-4944 -4948 0
-4941 -5281 0
-4942 -5282 0
-4943 -5283 0
-4944 -5284 0
-4941 -5401 0
-4942 -5402 0
-4943 -5403 0
-4944 -5404 0
-4941 -5429 0
-4942 -5430 0
-4943 -5431 0
-4944 -5432 0
-4945 -4969 0
-4946 -4970 0
-4947 -4971 0
-4948 -4972 0
-4945 -5109 0
-4946 -5110 0
-4947 -5111 0
-4948 -5112 0
-4945 -5277 0
-4946 -5278 0
-4947 -5279 0
-4948 -5280 0
-4945 -5425 0
-4946 -5426 0
-4947 -5427 0
-4948 -5428 0
-4945 -5537 0
-4946 -5538 0
-4947 -5539 0
-4948 -5540 0
-4949 -4957 0
-4950 -4958 0
-4951 -4959 0
-4952 -4960 0
-4949 -5233 0
-4950 -5234 0
-4951 -5235 0
-4952 -5236 0
-4949 -5253 0
-4950 -5254 0
-4951 -5255 0
-4952 -5256 0
-4953 -5129 0
-4954 -5130 0
-4955 -5131 0
-4956 -5132 0
-4953 -5297 0
-4954 -5298 0
-4955 -5299 0
-4956 -5300 0
-4953 -5301 0
-4954 -5302 0
-4955 -5303 0
-4956 -5304 0
-4953 -5353 0
-4954 -5354 0
-4955 -5355 0
-4956 -5356 0
-4953 -5441 0
-4954 -5442 0
-4955 -5443 0
-4956 -5444 0
-4957 -4961 0
-4958 -4962 0
-4959 -4963 0
-4960 -4964 0
-4957 -4973 0
-4958 -4974 0
-4959 -4975 0
-4960 -4976 0
-4957 -5045 0
-4958 -5046 0
-4959 -5047 0
-4960 -5048 0
-4957 -5213 0
-4958 -5214 0
-4959 -5215 0
-4960 -5216 0
-4957 -5285 0
-4958 -5286 0
-4959 -5287 0
-4960 -5288 0
-4957 -5301 0
-4958 -5302 0
-4959 -5303 0
-4960 -5304 0
-4957 -5317 0
-4958 -5318 0
-4959 -5319 0
-4960 -5320 0
-4957 -5449 0
-4958 -5450 0
-4959 -5451 0
-4960 -5452 0
-4957 -5573 0
-4958 -5574 0
-4959 -5575 0
-4960 -5576 0
-4961 -4965 0
-4962 -4966 0
-4963 -4967 0
-4964 -4968 0
-4961 -4977 0
-4962 -4978 0
-4963 -4979 0
-4964 -4980 0
-4961 -5133 0
-4962 -5134 0
-4963 -5135 0
-4964 -5136 0
-4961 -5277 0
-4962 -5278 0
-4963 -5279 0
-4964 -5280 0
-4961 -5289 0
-4962 -5290 0
-4963 -5291 0
-4964 -5292 0
-4961 -5297 0
-4962 -5298 0
-4963 -5299 0
-4964 -5300 0
-4961 -5381 0
-4962 -5382 0
-4963 -5383 0
-4964 -5384 0
-4961 -5553 0
-4962 -5554 0
-4963 -5555 0
-4964 -5556 0
-4965 -4981 0
-4966 -4982 0
-4967 -4983 0
-4968 -4984 0
-4965 -5137 0
-4966 -5138 0
-4967 -5139 0
-4968 -5140 0
-4965 -5497 0
-4966 -5498 0
-4967 -5499 0
-4968 -5500 0
-4969 -4973 0
-4970 -4974 0
-4971 -4975 0
-4972 -4976 0
-4969 -5141 0
-4970 -5142 0
-4971 -5143 0
-4972 -5144 0
-4969 -5193 0
-4970 -5194 0
-4971 -5195 0
-4972 -5196 0
-4969 -5445 0
-4970 -5446 0
-4971 -5447 0
-4972 -5448 0
-4969 -5513 0
-4970 -5514 0
-4971 -5515 0
-4972 -5516 0
-4973 -4977 0
-4974 -4978 0
-4975 -4979 0
-4976 -4980 0
-4973 -4985 0
-4974 -4986 0
-4975 -4987 0
-4976 -4988 0
-4973 -5145 0
-4974 -5146 0
-4975 -5147 0
-4976 -5148 0
-4973 -5193 0
-4974 -5194 0
-4975 -5195 0
-4976 -5196 0
-4973 -5429 0
-4974 -5430 0
-4975 -5431 0
-4976 -5432 0
-4973 -5449 0
-4974 -5450 0
-4975 -5451 0
-4976 -5452 0
-4973 -5485 0
-4974 -5486 0
-4975 -5487 0
-4976 -5488 0
-4977 -4981 0
-4978 -4982 0
-4979 -4983 0
-4980 -4984 0
-4977 -4989 0
-4978 -4990 0
-4979 -4991 0
-4980 -4992 0
-4977 -5149 0
-4978 -5150 0
-4979 -5151 0
-4980 -5152 0
-4977 -5425 0
-4978 -5426 0
-4979 -5427 0
-4980 -5428 0
-4981 -5153 0
-4982 -5154 0
-4983 -5155 0
-4984 -5156 0
-4981 -5457 0
-4982 -5458 0
-4983 -5459 0
-4984 -5460 0
-4981 -5593 0
-4982 -5594 0
-4983 -5595 0
-4984 -5596 0
-4985 -4989 0
-4986 -4990 0
-4987 -4991 0
-4988 -4992 0
-4989 -5165 0
-4990 -5166 0
-4991 -5167 0
-4992 -5168 0
-4989 -5569 0
-4990 -5570 0
-4991 -5571 0
-4992 -5572 0
-4993 -5217 0
-4994 -5218 0
-4995 -5219 0
-4996 -5220 0
-4993 -5245 0
-4994 -5246 0
-4995 -5247 0
-4996 -5248 0
-4993 -5281 0
-4994 -5282 0
-4995 -5283 0
-4996 -5284 0
-4997 -5437 0
-4998 -5438 0
-4999 -5439 0
-5000 -5440 0
-5001 -5013 0
-5002 -5014 0
-5003 -5015 0
-5004 -5016 0
-5001 -5257 0
-5002 -5258 0
-5003 -5259 0
-5004 -5260 0
-5005 -5017 0
-5006 -5018 0
-5007 -5019 0
-5008 -5020 0
-5005 -5229 0
-5006 -5230 0
-5007 -5231 0
-5008 -5232 0
-5005 -5233 0
-5006 -5234 0
-5007 -5235 0
-5008 -5236 0
-5013 -5117 0
-5014 -5118 0
-5015 -5119 0
-5016 -5120 0
-5013 -5601 0
-5014 -5602 0
-5015 -5603 0
-5016 -5604 0
-5017 -5621 0
-5018 -5622 0
-5019 -5623 0
-5020 -5624 0
-5021 -5573 0
-5022 -5574 0
-5023 -5575 0
-5024 -5576 0
-5021 -5601 0
-5022 -5602 0
-5023 -5603 0
-5024 -5604 0
-5021 -5621 0
-5022 -5622 0
-5023 -5623 0
-5024 -5624 0
-5025 -5029 0
-5026 -5030 0
-5027 -5031 0
-5028 -5032 0
-5025 -5089 0
-5026 -5090 0
-5027 -5091 0
-5028 -5092 0
-5025 -5385 0
-5026 -5386 0
-5027 -5387 0
-5028 -5388 0
-5029 -5033 0
-5030 -5034 0
-5031 -5035 0
-5032 -5036 0
-5029 -5049 0
-5030 -5050 0
-5031 -5051 0
-5032 -5052 0
-5033 -5037 0
-5034 -5038 0
-5035 -5039 0
-5036 -5040 0
-5033 -5101 0
-5034 -5102 0
-5035 -5103 0
-5036 -5104 0
-5033 -5397 0
-5034 -5398 0
-5035 -5399 0
-5036 -5400 0
-5033 -5401 0
-5034 -5402 0
-5035 -5403 0
-5036 -5404 0
-5033 -5501 0
-5034 -5502 0
-5035 -5503 0
-5036 -5504 0
-5033 -5529 0
-5034 -5530 0
-5035 -5531 0
-5036 -5532 0
-5037 -5105 0
-5038 -5106 0
-5039 -5107 0
-5040 -5108 0
-5037 -5193 0
-5038 -5194 0
-5039 -5195 0
-5040 -5196 0
-5037 -5481 0
-5038 -5482 0
-5039 -5483 0
-5040 -5484 0
-5037 -5485 0
-5038 -5486 0
-5039 -5487 0
-5040 -5488 0
-5037 -5517 0
-5038 -5518 0
-5039 -5519 0
-5040 -5520 0
-5041 -5045 0
-5042 -5046 0
-5043 -5047 0
-5044 -5048 0
-5041 -5109 0
-5042 -5110 0
-5043 -5111 0
-5044 -5112 0
-5041 -5141 0
-5042 -5142 0
-5043 -5143 0
-5044 -5144 0
-5041 -5385 0
-5042 -5386 0
-5043 -5387 0
-5044 -5388 0
-5041 -5397 0
-5042 -5398 0
-5043 -5399 0
-5044 -5400 0
-5041 -5481 0
-5042 -5482 0
-5043 -5483 0
-5044 -5484 0
-5045 -5053 0
-5046 -5054 0
-5047 -5055 0
-5048 -5056 0
-5045 -5089 0
-5046 -5090 0
-5047 -5091 0
-5048 -5092 0
-5045 -5113 0
-5046 -5114 0
-5047 -5115 0
-5048 -5116 0
-5045 -5161 0
-5046 -5162 0
-5047 -5163 0
-5048 -5164 0
-5045 -5381 0
-5046 -5382 0
-5047 -5383 0
-5048 -5384 0
-5045 -5401 0
-5046 -5402 0
-5047 -5403 0
-5048 -5404 0
-5045 -5485 0
-5046 -5486 0
-5047 -5487 0
-5048 -5488 0
-5045 -5573 0
-5046 -5574 0
-5047 -5575 0
-5048 -5576 0
-5049 -5109 0
-5050 -5110 0
-5051 -5111 0
-5052 -5112 0
-5049 -5169 0
-5050 -5170 0
-5051 -5171 0
-5052 -5172 0
-5049 -5177 0
-5050 -5178 0
-5051 -5179 0
-5052 -5180 0
-5049 -5201 0
-5050 -5202 0
-5051 -5203 0
-5052 -5204 0
-5053 -5057 0
-5054 -5058 0
-5055 -5059 0
-5056 -5060 0
-5053 -5085 0
-5054 -5086 0
-5055 -5087 0
-5056 -5088 0
-5053 -5213 0
-5054 -5214 0
-5055 -5215 0
-5056 -5216 0
-5053 -5333 0
-5054 -5334 0
-5055 -5335 0
-5056 -5336 0
-5057 -5069 0
-5058 -5070 0
-5059 -5071 0
-5060 -5072 0
-5057 -5109 0
-5058 -5110 0
-5059 -5111 0
-5060 -5112 0
-5057 -5217 0
-5058 -5218 0
-5059 -5219 0
-5060 -5220 0
-5057 -5505 0
-5058 -5506 0
-5059 -5507 0
-5060 -5508 0
-5061 -5065 0
-5062 -5066 0
-5063 -5067 0
-5064 -5068 0
-5061 -5073 0
-5062 -5074 0
-5063 -5075 0
-5064 -5076 0
-5069 -5093 0
-5070 -5094 0
-5071 -5095 0
-5072 -5096 0
-5069 -5381 0
-5070 -5382 0
-5071 -5383 0
-5072 -5384 0
-5069 -5489 0
-5070 -5490 0
-5071 -5491 0
-5072 -5492 0
-5077 -5081 0
-5078 -5082 0
-5079 -5083 0
-5080 -5084 0
-5077 -5221 0
-5078 -5222 0
-5079 -5223 0
-5080 -5224 0
-5081 -5181 0
-5082 -5182 0
-5083 -5183 0
-5084 -5184 0
-5081 -5225 0
-5082 -5226 0
-5083 -5227 0
-5084 -5228 0
-5085 -5089 0
-5086 -5090 0
-5087 -5091 0
-5088 -5092 0
-5085 -5125 0
-5086 -5126 0
-5087 -5127 0
-5088 -5128 0
-5085 -5337 0
-5086 -5338 0
-5087 -5339 0
-5088 -5340 0
-5089 -5093 0
-5090 -5094 0
-5091 -5095 0
-5092 -5096 0
-5089 -5125 0
-5090 -5126 0
-5091 -5127 0
-5092 -5128 0
-5089 -5385 0
-5090 -5386 0
-5091 -5387 0
-5092 -5388 0
-5089 -5393 0
-5090 -5394 0
-5091 -5395 0
-5092 -5396 0
-5093 -5097 0
-5094 -5098 0
-5095 -5099 0
-5096 -5100 0
-5093 -5109 0
-5094 -5110 0
-5095 -5111 0
-5096 -5112 0
-5093 -5257 0
-5094 -5258 0
-5095 -5259 0
-5096 -5260 0
-5093 -5381 0
-5094 -5382 0
-5095 -5383 0
-5096 -5384 0
-5093 -5389 0
-5094 -5390 0
-5095 -5391 0
-5096 -5392 0
-5093 -5493 0
-5094 -5494 0
-5095 -5495 0
-5096 -5496 0
-5097 -5113 0
-5098 -5114 0
-5099 -5115 0
-5100 -5116 0
-5097 -5405 0
-5098 -5406 0
-5099 -5407 0
-5100 -5408 0
-5097 -5493 0
-5098 -5494 0
-5099 -5495 0
-5100 -5496 0
-5097 -5497 0
-5098 -5498 0
-5099 -5499 0
-5100 -5500 0
-5097 -5601 0
-5098 -5602 0
-5099 -5603 0
-5100 -5604 0
-5101 -5105 0
-5102 -5106 0
-5103 -5107 0
-5104 -5108 0
-5101 -5321 0
-5102 -5322 0
-5103 -5323 0
-5104 -5324 0
-5101 -5325 0
-5102 -5326 0
-5103 -5327 0
-5104 -5328 0
-5101 -5509 0
-5102 -5510 0
-5103 -5511 0
-5104 -5512 0
-5101 -5533 0
-5102 -5534 0
-5103 -5535 0
-5104 -5536 0
-5101 -5557 0
-5102 -5558 0
-5103 -5559 0
-5104 -5560 0
-5109 -5113 0
-5110 -5114 0
-5111 -5115 0
-5112 -5116 0
-5109 -5141 0
-5110 -5142 0
-5111 -5143 0
-5112 -5144 0
-5109 -5181 0
-5110 -5182 0
-5111 -5183 0
-5112 -5184 0
-5109 -5321 0
-5110 -5322 0
-5111 -5323 0
-5112 -5324 0
-5109 -5357 0
-5110 -5358 0
-5111 -5359 0
-5112 -5360 0
-5109 -5537 0
-5110 -5538 0
-5111 -5539 0
-5112 -5540 0
-5113 -5161 0
-5114 -5162 0
-5115 -5163 0
-5116 -5164 0
-5113 -5361 0
-5114 -5362 0
-5115 -5363 0
-5116 -5364 0
-5113 -5505 0
-5114 -5506 0
-5115 -5507 0
-5116 -5508 0
-5113 -5509 0
-5114 -5510 0
-5115 -5511 0
-5116 -5512 0
-5117 -5129 0
-5118 -5130 0
-5119 -5131 0
-5120 -5132 0
-5121 -5125 0
-5122 -5126 0
-5123 -5127 0
-5124 -5128 0
-5121 -5133 0
-5122 -5134 0
-5123 -5135 0
-5124 -5136 0
-5121 -5181 0
-5122 -5182 0
-5123 -5183 0
-5124 -5184 0
-5121 -5385 0
-5122 -5386 0
-5123 -5387 0
-5124 -5388 0
-5125 -5137 0
-5126 -5138 0
-5127 -5139 0
-5128 -5140 0
-5129 -5177 0
-5130 -5178 0
-5131 -5179 0
-5132 -5180 0
-5133 -5137 0
-5134 -5138 0
-5135 -5139 0
-5136 -5140 0
-5133 -5149 0
-5134 -5150 0
-5135 -5151 0
-5136 -5152 0
-5133 -5229 0
-5134 -5230 0
-5135 -5231 0
-5136 -5232 0
-5133 -5329 0
-5134 -5330 0
-5135 -5331 0
-5136 -5332 0
-5133 -5357 0
-5134 -5358 0
-5135 -5359 0
-5136 -5360 0
-5137 -5153 0
-5138 -5154 0
-5139 -5155 0
-5140 -5156 0
-5137 -5233 0
-5138 -5234 0
-5139 -5235 0
-5140 -5236 0
-5137 -5361 0
-5138 -5362 0
-5139 -5363 0
-5140 -5364 0
-5137 -5373 0
-5138 -5374 0
-5139 -5375 0
-5140 -5376 0
-5137 -5389 0
-5138 -5390 0
-5139 -5391 0
-5140 -5392 0
-5137 -5621 0
-5138 -5622 0
-5139 -5623 0
-5140 -5624 0
-5141 -5145 0
-5142 -5146 0
-5143 -5147 0
-5144 -5148 0
-5141 -5161 0
-5142 -5162 0
-5143 -5163 0
-5144 -5164 0
-5141 -5369 0
-5142 -5370 0
-5143 -5371 0
-5144 -5372 0
-5141 -5465 0
-5142 -5466 0
-5143 -5467 0
-5144 -5468 0
-5145 -5149 0
-5146 -5150 0
-5147 -5151 0
-5148 -5152 0
-5145 -5325 0
-5146 -5326 0
-5147 -5327 0
-5148 -5328 0
-5145 -5469 0
-5146 -5470 0
-5147 -5471 0
-5148 -5472 0
-5149 -5153 0
-5150 -5154 0
-5151 -5155 0
-5152 -5156 0
-5149 -5165 0
-5150 -5166 0
-5151 -5167 0
-5152 -5168 0
-5149 -5217 0
-5150 -5218 0
-5151 -5219 0
-5152 -5220 0
-5149 -5321 0
-5150 -5322 0
-5151 -5323 0
-5152 -5324 0
-5149 -5397 0
-5150 -5398 0
-5151 -5399 0
-5152 -5400 0
-5149 -5473 0
-5150 -5474 0
-5151 -5475 0
-5152 -5476 0
-5149 -5541 0
-5150 -5542 0
-5151 -5543 0
-5152 -5544 0
-5153 -5157 0
-5154 -5158 0
-5155 -5159 0
-5156 -5160 0
-5153 -5273 0
-5154 -5274 0
-5155 -5275 0
-5156 -5276 0
-5153 -5373 0
-5154 -5374 0
-5155 -5375 0
-5156 -5376 0
-5153 -5377 0
-5154 -5378 0
-5155 -5379 0
-5156 -5380 0
-5153 -5401 0
-5154 -5402 0
-5155 -5403 0
-5156 -5404 0
-5153 -5405 0
-5154 -5406 0
-5155 -5407 0
-5156 -5408 0
-5153 -5477 0
-5154 -5478 0
-5155 -5479 0
-5156 -5480 0
-5153 -5509 0
-5154 -5510 0
-5155 -5511 0
-5156 -5512 0
-5153 -5593 0
-5154 -5594 0
-5155 -5595 0
-5156 -5596 0
-5157 -5161 0
-5158 -5162 0
-5159 -5163 0
-5160 -5164 0
-5157 -5277 0
-5158 -5278 0
-5159 -5279 0
-5160 -5280 0
-5157 -5381 0
-5158 -5382 0
-5159 -5383 0
-5160 -5384 0
-5157 -5501 0
-5158 -5502 0
-5159 -5503 0
-5160 -5504 0
-5165 -5289 0
-5166 -5290 0
-5167 -5291 0
-5168 -5292 0
-5165 -5381 0
-5166 -5382 0
-5167 -5383 0
-5168 -5384 0
-5165 -5473 0
-5166 -5474 0
-5167 -5475 0
-5168 -5476 0
-5165 -5481 0
-5166 -5482 0
-5167 -5483 0
-5168 -5484 0
-5165 -5569 0
-5166 -5570 0
-5167 -5571 0
-5168 -5572 0
-5169 -5329 0
-5170 -5330 0
-5171 -5331 0
-5172 -5332 0
-5169 -5337 0
-5170 -5338 0
-5171 -5339 0
-5172 -5340 0
-5173 -5489 0
-5174 -5490 0
-5175 -5491 0
-5176 -5492 0
-5177 -5329 0
-5178 -5330 0
-5179 -5331 0
-5180 -5332 0
-5177 -5357 0
-5178 -5358 0
-5179 -5359 0
-5180 -5360 0
-5181 -5189 0
-5182 -5190 0
-5183 -5191 0
-5184 -5192 0
-5181 -5357 0
-5182 -5358 0
-5183 -5359 0
-5184 -5360 0
-5181 -5385 0
-5182 -5386 0
-5183 -5387 0
-5184 -5388 0
-5185 -5305 0
-5186 -5306 0
-5187 -5307 0
-5188 -5308 0
-5185 -5621 0
-5186 -5622 0
-5187 -5623 0
-5188 -5624 0
-5189 -5297 0
-5190 -5298 0
-5191 -5299 0
-5192 -5300 0
-5189 -5541 0
-5190 -5542 0
-5191 -5543 0
-5192 -5544 0
-5189 -5605 0
-5190 -5606 0
-5191 -5607 0
-5192 -5608 0
-5193 -5209 0
-5194 -5210 0
-5195 -5211 0
-5196 -5212 0
-5193 -5517 0
-5194 -5518 0
-5195 -5519 0
-5196 -5520 0
-5193 -5525 0
-5194 -5526 0
-5195 -5527 0
-5196 -5528 0
-5197 -5201 0
-5198 -5202 0
-5199 -5203 0
-5200 -5204 0
-5197 -5229 0
-5198 -5230 0
-5199 -5231 0
-5200 -5232 0
-5197 -5329 0
-5198 -5330 0
-5199 -5331 0
-5200 -5332 0
-5201 -5205 0
-5202 -5206 0
-5203 -5207 0
-5204 -5208 0
-5205 -5209 0
-5206 -5210 0
-5207 -5211 0
-5208 -5212 0
-5209 -5521 0
-5210 -5522 0
-5211 -5523 0
-5212 -5524 0
-5213 -5217 0
-5214 -5218 0
-5215 -5219 0
-5216 -5220 0
-5213 -5285 0
-5214 -5286 0
-5215 -5287 0
-5216 -5288 0
-5217 -5229 0
-5218 -5230 0
-5219 -5231 0
-5220 -5232 0
-5217 -5245 0
-5218 -5246 0
-5219 -5247 0
-5220 -5248 0
-5217 -5281 0
-5218 -5282 0
-5219 -5283 0
-5220 -5284 0
-5217 -5385 0
-5218 -5386 0
-5219 -5387 0
-5220 -5388 0
-5217 -5541 0
-5218 -5542 0
-5219 -5543 0
-5220 -5544 0
-5221 -5225 0
-5222 -5226 0
-5223 -5227 0
-5224 -5228 0
-5229 -5233 0
-5230 -5234 0
-5231 -5235 0
-5232 -5236 0
-5229 -5237 0
-5230 -5238 0
-5231 -5239 0
-5232 -5240 0
-5229 -5249 0
-5230 -5250 0
-5231 -5251 0
-5232 -5252 0
-5233 -5253 0
-5234 -5254 0
-5235 -5255 0
-5236 -5256 0
-5233 -5621 0
-5234 -5622 0
-5235 -5623 0
-5236 -5624 0
-5237 -5357 0
-5238 -5358 0
-5239 -5359 0
-5240 -5360 0
-5245 -5249 0
-5246 -5250 0
-5247 -5251 0
-5248 -5252 0
-5245 -5289 0
-5246 -5290 0
-5247 -5291 0
-5248 -5292 0
-5245 -5433 0
-5246 -5434 0
-5247 -5435 0
-5248 -5436 0
-5249 -5253 0
-5250 -5254 0
-5251 -5255 0
-5252 -5256 0
-5253 -5257 0
-5254 -5258 0
-5255 -5259 0
-5256 -5260 0
-5253 -5389 0
-5254 -5390 0
-5255 -5391 0
-5256 -5392 0
-5261 -5269 0
-5262 -5270 0
-5263 -5271 0
-5264 -5272 0
-5265 -5277 0
-5266 -5278 0
-5267 -5279 0
-5268 -5280 0
-5269 -5441 0
-5270 -5442 0
-5271 -5443 0
-5272 -5444 0
-5273 -5277 0
-5274 -5278 0
-5275 -5279 0
-5276 -5280 0
-5273 -5449 0
-5274 -5450 0
-5275 -5451 0
-5276 -5452 0
-5273 -5453 0
-5274 -5454 0
-5275 -5455 0
-5276 -5456 0
-5277 -5357 0
-5278 -5358 0
-5279 -5359 0
-5280 -5360 0
-5277 -5425 0
-5278 -5426 0
-5279 -5427 0
-5280 -5428 0
-5277 -5445 0
-5278 -5446 0
-5279 -5447 0
-5280 -5448 0
-5281 -5285 0
-5282 -5286 0
-5283 -5287 0
-5284 -5288 0
-5281 -5397 0
-5282 -5398 0
-5283 -5399 0
-5284 -5400 0
-5281 -5421 0
-5282 -5422 0
-5283 -5423 0
-5284 -5424 0
-5281 -5577 0
-5282 -5578 0
-5283 -5579 0
-5284 -5580 0
-5285 -5289 0
-5286 -5290 0
-5287 -5291 0
-5288 -5292 0
-5293 -5433 0
-5294 -5434 0
-5295 -5435 0
-5296 -5436 0
-5297 -5301 0
-5298 -5302 0
-5299 -5303 0
-5300 -5304 0
-5301 -5313 0
-5302 -5314 0
-5303 -5315 0
-5304 -5316 0
-5301 -5449 0
-5302 -5450 0
-5303 -5451 0
-5304 -5452 0
-5305 -5349 0
-5306 -5350 0
-5307 -5351 0
-5308 -5352 0
-5305 -5625 0
-5306 -5626 0
-5307 -5627 0
-5308 -5628 0
-5309 -5313 0
-5310 -5314 0
-5311 -5315 0
-5312 -5316 0
-5309 -5541 0
-5310 -5542 0
-5311 -5543 0
-5312 -5544 0
-5313 -5545 0
-5314 -5546 0
-5315 -5547 0
-5316 -5548 0
-5313 -5549 0
-5314 -5550 0
-5315 -5551 0
-5316 -5552 0
-5313 -5581 0
-5314 -5582 0
-5315 -5583 0
-5316 -5584 0
-5313 -5625 0
-5314 -5626 0
-5315 -5627 0
-5316 -5628 0
-5317 -5321 0
-5318 -5322 0
-5319 -5323 0
-5320 -5324 0
-5317 -5341 0
-5318 -5342 0
-5319 -5343 0
-5320 -5344 0
-5317 -5373 0
-5318 -5374 0
-5319 -5375 0
-5320 -5376 0
-5321 -5325 0
-5322 -5326 0
-5323 -5327 0
-5324 -5328 0
-5321 -5357 0
-5322 -5358 0
-5323 -5359 0
-5324 -5360 0
-5321 -5397 0
-5322 -5398 0
-5323 -5399 0
-5324 -5400 0
-5321 -5425 0
-5322 -5426 0
-5323 -5427 0
-5324 -5428 0
-5321 -5509 0
-5322 -5510 0
-5323 -5511 0
-5324 -5512 0
-5321 -5513 0
-5322 -5514 0
-5323 -5515 0
-5324 -5516 0
-5325 -5429 0
-5326 -5430 0
-5327 -5431 0
-5328 -5432 0
-5333 -5337 0
-5334 -5338 0
-5335 -5339 0
-5336 -5340 0
-5333 -5345 0
-5334 -5346 0
-5335 -5347 0
-5336 -5348 0
-5333 -5561 0
-5334 -5562 0
-5335 -5563 0
-5336 -5564 0
-5333 -5589 0
-5334 -5590 0
-5335 -5591 0
-5336 -5592 0
-5337 -5433 0
-5338 -5434 0
-5339 -5435 0
-5340 -5436 0
-5341 -5345 0
-5342 -5346 0
-5343 -5347 0
-5344 -5348 0
-5341 -5349 0
-5342 -5350 0
-5343 -5351 0
-5344 -5352 0
-5349 -5353 0
-5350 -5354 0
-5351 -5355 0
-5352 -5356 0
-5349 -5373 0
-5350 -5374 0
-5351 -5375 0
-5352 -5376 0
-5353 -5365 0
-5354 -5366 0
-5355 -5367 0
-5356 -5368 0
-5357 -5361 0
-5358 -5362 0
-5359 -5363 0
-5360 -5364 0
-5357 -5369 0
-5358 -5370 0
-5359 -5371 0
-5360 -5372 0
-5361 -5509 0
-5362 -5510 0
-5363 -5511 0
-5364 -5512 0
-5369 -5445 0
-5370 -5446 0
-5371 -5447 0
-5372 -5448 0
-5373 -5625 0
-5374 -5626 0
-5375 -5627 0
-5376 -5628 0
-5377 -5381 0
-5378 -5382 0
-5379 -5383 0
-5380 -5384 0
-5377 -5389 0
-5378 -5390 0
-5379 -5391 0
-5380 -5392 0
-5381 -5497 0
-5382 -5498 0
-5383 -5499 0
-5384 -5500 0
-5381 -5553 0
-5382 -5554 0
-5383 -5555 0
-5384 -5556 0
-5385 -5541 0
-5386 -5542 0
-5387 -5543 0
-5388 -5544 0
-5389 -5493 0
-5390 -5494 0
-5391 -5495 0
-5392 -5496 0
-5393 -5625 0
-5394 -5626 0
-5395 -5627 0
-5396 -5628 0
-5397 -5401 0
-5398 -5402 0
-5399 -5403 0
-5400 -5404 0
-5397 -5481 0
-5398 -5482 0
-5399 -5483 0
-5400 -5484 0
-5397 -5577 0
-5398 -5578 0
-5399 -5579 0
-5400 -5580 0
-5401 -5449 0
-5402 -5450 0
-5403 -5451 0
-5404 -5452 0
-5401 -5457 0
-5402 -5458 0
-5403 -5459 0
-5404 -5460 0
-5401 -5469 0
-5402 -5470 0
-5403 -5471 0
-5404 -5472 0
-5401 -5485 0
-5402 -5486 0
-5403 -5487 0
-5404 -5488 0
-5401 -5501 0
-5402 -5502 0
-5403 -5503 0
-5404 -5504 0
-5401 -5509 0
-5402 -5510 0
-5403 -5511 0
-5404 -5512 0
-5401 -5549 0
-5402 -5550 0
-5403 -5551 0
-5404 -5552 0
-5405 -5497 0
-5406 -5498 0
-5407 -5499 0
-5408 -5500 0
-5405 -5509 0
-5406 -5510 0
-5407 -5511 0
-5408 -5512 0
-5405 -5605 0
-5406 -5606 0
-5407 -5607 0
-5408 -5608 0
-5409 -5413 0
-5410 -5414 0
-5411 -5415 0
-5412 -5416 0
-5409 -5553 0
-5410 -5554 0
-5411 -5555 0
-5412 -5556 0
-5409 -5585 0
-5410 -5586 0
-5411 -5587 0
-5412 -5588 0
-5413 -5549 0
-5414 -5550 0
-5415 -5551 0
-5416 -5552 0
-5413 -5581 0
-5414 -5582 0
-5415 -5583 0
-5416 -5584 0
-5421 -5429 0
-5422 -5430 0
-5423 -5431 0
-5424 -5432 0
-5421 -5445 0
-5422 -5446 0
-5423 -5447 0
-5424 -5448 0
-5421 -5465 0
-5422 -5466 0
-5423 -5467 0
-5424 -5468 0
-5425 -5429 0
-5426 -5430 0
-5427 -5431 0
-5428 -5432 0
-5433 -5437 0
-5434 -5438 0
-5435 -5439 0
-5436 -5440 0
-5437 -5489 0
-5438 -5490 0
-5439 -5491 0
-5440 -5492 0
-5437 -5597 0
-5438 -5598 0
-5439 -5599 0
-5440 -5600 0
-5445 -5449 0
-5446 -5450 0
-5447 -5451 0
-5448 -5452 0
-5445 -5501 0
-5446 -5502 0
-5447 -5503 0
-5448 -5504 0
-5449 -5453 0
-5450 -5454 0
-5451 -5455 0
-5452 -5456 0
-5449 -5549 0
-5450 -5550 0
-5451 -5551 0
-5452 -5552 0
-5453 -5509 0
-5454 -5510 0
-5455 -5511 0
-5456 -5512 0
-5457 -5549 0
-5458 -5550 0
-5459 -5551 0
-5460 -5552 0
-5465 -5469 0
-5466 -5470 0
-5467 -5471 0
-5468 -5472 0
-5465 -5481 0
-5466 -5482 0
-5467 -5483 0
-5468 -5484 0
-5465 -5501 0
-5466 -5502 0
-5467 -5503 0
-5468 -5504 0
-5469 -5473 0
-5470 -5474 0
-5471 -5475 0
-5472 -5476 0
-5473 -5477 0
-5474 -5478 0
-5475 -5479 0
-5476 -5480 0
-5473 -5513 0
-5474 -5514 0
-5475 -5515 0
-5476 -5516 0
-5473 -5585 0
-5474 -5586 0
-5475 -5587 0
-5476 -5588 0
-5481 -5485 0
-5482 -5486 0
-5483 -5487 0
-5484 -5488 0
-5489 -5493 0
-5490 -5494 0
-5491 -5495 0
-5492 -5496 0
-5505 -5593 0
-5506 -5594 0
-5507 -5595 0
-5508 -5596 0
-5517 -5521 0
-5518 -5522 0
-5519 -5523 0
-5520 -5524 0
-5529 -5557 0
-5530 -5558 0
-5531 -5559 0
-5532 -5560 0
-5533 -5617 0
-5534 -5618 0
-5535 -5619 0
-5536 -5620 0
-5541 -5577 0
-5542 -5578 0
-5543 -5579 0
-5544 -5580 0
-5557 -5629 0
-5558 -5630 0
-5559 -5631 0
-5560 -5632 0
-5565 -5589 0
-5566 -5590 0
-5567 -5591 0
-5568 -5592 0
-5569 -5585 0
-5570 -5586 0
-5571 -5587 0
-5572 -5588 0
-5601 -5605 0
-5602 -5606 0
-5603 -5607 0
-5604 -5608 0
-5609 -5629 0
-5610 -5630 0
-5611 -5631 0
-5612 -5632 0
-5621 -5625 0
-5622 -5626 0
-5623 -5627 0
-5624 -5628 0
1 0
6 0
11 0
