p cnf 1468 9864
1 2 3 4 0
-1 -2 0
-1 -3 0
-1 -4 0
-2 -3 0
-2 -4 0
-3 -4 0
5 6 7 8 0
-5 -6 0
-5 -7 0
-5 -8 0
-6 -7 0
-6 -8 0
-7 -8 0
9 10 11 12 0
-9 -10 0
-9 -11 0
-9 -12 0
-10 -11 0
-10 -12 0
-11 -12 0
13 14 15 16 0
-13 -14 0
-13 -15 0
-13 -16 0
-14 -15 0
-14 -16 0
-15 -16 0
17 18 19 20 0
-17 -18 0
-17 -19 0
-17 -20 0
-18 -19 0
-18 -20 0
-19 -20 0
21 22 23 24 0
-21 -22 0
-21 -23 0
-21 -24 0
-22 -23 0
-22 -24 0
-23 -24 0
25 26 27 28 0
-25 -26 0
-25 -27 0
-25 -28 0
-26 -27 0
-26 -28 0
-27 -28 0
29 30 31 32 0
-29 -30 0
-29 -31 0
-29 -32 0
-30 -31 0
-30 -32 0
-31 -32 0
33 34 35 36 0
-33 -34 0
-33 -35 0
-33 -36 0
-34 -35 0
-34 -36 0
-35 -36 0
37 38 39 40 0
-37 -38 0
-37 -39 0
-37 -40 0
-38 -39 0
-38 -40 0
-39 -40 0
41 42 43 44 0
-41 -42 0
-41 -43 0
-41 -44 0
-42 -43 0
-42 -44 0
-43 -44 0
45 46 47 48 0
-45 -46 0
-45 -47 0
-45 -48 0
-46 -47 0
-46 -48 0
-47 -48 0
49 50 51 52 0
-49 -50 0
-49 -51 0
-49 -52 0
-50 -51 0
-50 -52 0
-51 -52 0
53 54 55 56 0
-53 -54 0
-53 -55 0
-53 -56 0
-54 -55 0
-54 -56 0
-55 -56 0
57 58 59 60 0
-57 -58 0
-57 -59 0
-57 -60 0
-58 -59 0
-58 -60 0
-59 -60 0
61 62 63 64 0
-61 -62 0
-61 -63 0
-61 -64 0
-62 -63 0
-62 -64 0
-63 -64 0
65 66 67 68 0
-65 -66 0
-65 -67 0
-65 -68 0
-66 -67 0
-66 -68 0
-67 -68 0
69 70 71 72 0
-69 -70 0
-69 -71 0
-69 -72 0
-70 -71 0
-70 -72 0
-71 -72 0
73 74 75 76 0
-73 -74 0
-73 -75 0
-73 -76 0
-74 -75 0
-74 -76 0
-75 -76 0
77 78 79 80 0
-77 -78 0
-77 -79 0
-77 -80 0
-78 -79 0
-78 -80 0
-79 -80 0
81 82 83 84 0
-81 -82 0
-81 -83 0
-81 -84 0
-82 -83 0
-82 -84 0
-83 -84 0
85 86 87 88 0
-85 -86 0
-85 -87 0
-85 -88 0
-86 -87 0
-86 -88 0
-87 -88 0
89 90 91 92 0
-89 -90 0
-89 -91 0
-89 -92 0
-90 -91 0
-90 -92 0
-91 -92 0
93 94 95 96 0
-93 -94 0
-93 -95 0
-93 -96 0
-94 -95 0
-94 -96 0
-95 -96 0
97 98 99 100 0
-97 -98 0
-97 -99 0
-97 -100 0
-98 -99 0
-98 -100 0
-99 -100 0
101 102 103 104 0
-101 -102 0
-101 -103 0
-101 -104 0
-102 -103 0
-102 -104 0
-103 -104 0
105 106 107 108 0
-105 -106 0
-105 -107 0
-105 -108 0
-106 -107 0
-106 -108 0
-107 -108 0
109 110 111 112 0
-109 -110 0
-109 -111 0
-109 -112 0
-110 -111 0
-110 -112 0
-111 -112 0
113 114 115 116 0
-113 -114 0
-113 -115 0
-113 -116 0
-114 -115 0
-114 -116 0
-115 -116 0
117 118 119 120 0
-117 -118 0
-117 -119 0
-117 -120 0
-118 -119 0
-118 -120 0
-119 -120 0
121 122 123 124 0
-121 -122 0
-121 -123 0
-121 -124 0
-122 -123 0
-122 -124 0
-123 -124 0
125 126 127 128 0
-125 -126 0
-125 -127 0
-125 -128 0
-126 -127 0
-126 -128 0
-127 -128 0
129 130 131 132 0
-129 -130 0
-129 -131 0
-129 -132 0
-130 -131 0
-130 -132 0
-131 -132 0
133 134 135 136 0
-133 -134 0
-133 -135 0
-133 -136 0
-134 -135 0
-134 -136 0
-135 -136 0
137 138 139 140 0
-137 -138 0
-137 -139 0
-137 -140 0
-138 -139 0
-138 -140 0
-139 -140 0
141 142 143 144 0
-141 -142 0
-141 -143 0
-141 -144 0
-142 -143 0
-142 -144 0
-143 -144 0
145 146 147 148 0
-145 -146 0
-145 -147 0
-145 -148 0
-146 -147 0
-146 -148 0
-147 -148 0
149 150 151 152 0
-149 -150 0
-149 -151 0
-149 -152 0
-150 -151 0
-150 -152 0
-151 -152 0
153 154 155 156 0
-153 -154 0
-153 -155 0
-153 -156 0
-154 -155 0
-154 -156 0
-155 -156 0
157 158 159 160 0
-157 -158 0
-157 -159 0
-157 -160 0
-158 -159 0
-158 -160 0
-159 -160 0
161 162 163 164 0
-161 -162 0
-161 -163 0
-161 -164 0
-162 -163 0
-162 -164 0
-163 -164 0
165 166 167 168 0
-165 -166 0
-165 -167 0
-165 -168 0
-166 -167 0
-166 -168 0
-167 -168 0
169 170 171 172 0
-169 -170 0
-169 -171 0
-169 -172 0
-170 -171 0
-170 -172 0
-171 -172 0
173 174 175 176 0
-173 -174 0
-173 -175 0
-173 -176 0
-174 -175 0
-174 -176 0
-175 -176 0
177 178 179 180 0
-177 -178 0
-177 -179 0
-177 -180 0
-178 -179 0
-178 -180 0
-179 -180 0
181 182 183 184 0
-181 -182 0
-181 -183 0
-181 -184 0
-182 -183 0
-182 -184 0
-183 -184 0
185 186 187 188 0
-185 -186 0
-185 -187 0
-185 -188 0
-186 -187 0
-186 -188 0
-187 -188 0
189 190 191 192 0
-189 -190 0
-189 -191 0
-189 -192 0
-190 -191 0
-190 -192 0
-191 -192 0
193 194 195 196 0
-193 -194 0
-193 -195 0
-193 -196 0
-194 -195 0
-194 -196 0
-195 -196 0
197 198 199 200 0
-197 -198 0
-197 -199 0
-197 -200 0
-198 -199 0
-198 -200 0
-199 -200 0
201 202 203 204 0
-201 -202 0
-201 -203 0
-201 -204 0
-202 -203 0
-202 -204 0
-203 -204 0
205 206 207 208 0
-205 -206 0
-205 -207 0
-205 -208 0
-206 -207 0
-206 -208 0
-207 -208 0
209 210 211 212 0
-209 -210 0
-209 -211 0
-209 -212 0
-210 -211 0
-210 -212 0
-211 -212 0
213 214 215 216 0
-213 -214 0
-213 -215 0
-213 -216 0
-214 -215 0
-214 -216 0
-215 -216 0
217 218 219 220 0
-217 -218 0
-217 -219 0
-217 -220 0
-218 -219 0
-218 -220 0
-219 -220 0
221 222 223 224 0
-221 -222 0
-221 -223 0
-221 -224 0
-222 -223 0
-222 -224 0
-223 -224 0
225 226 227 228 0
-225 -226 0
-225 -227 0
-225 -228 0
-226 -227 0
-226 -228 0
-227 -228 0
229 230 231 232 0
-229 -230 0
-229 -231 0
-229 -232 0
-230 -231 0
-230 -232 0
-231 -232 0
233 234 235 236 0
-233 -234 0
-233 -235 0
-233 -236 0
-234 -235 0
-234 -236 0
-235 -236 0
237 238 239 240 0
-237 -238 0
-237 -239 0
-237 -240 0
-238 -239 0
-238 -240 0
-239 -240 0
241 242 243 244 0
-241 -242 0
-241 -243 0
-241 -244 0
-242 -243 0
-242 -244 0
-243 -244 0
245 246 247 248 0
-245 -246 0
-245 -247 0
-245 -248 0
-246 -247 0
-246 -248 0
-247 -248 0
249 250 251 252 0
-249 -250 0
-249 -251 0
-249 -252 0
-250 -251 0
-250 -252 0
-251 -252 0
253 254 255 256 0
-253 -254 0
-253 -255 0
-253 -256 0
-254 -255 0
-254 -256 0
-255 -256 0
257 258 259 260 0
-257 -258 0
-257 -259 0
-257 -260 0
-258 -259 0
-258 -260 0
-259 -260 0
261 262 263 264 0
-261 -262 0
-261 -263 0
-261 -264 0
-262 -263 0
-262 -264 0
-263 -264 0
265 266 267 268 0
-265 -266 0
-265 -267 0
-265 -268 0
-266 -267 0
-266 -268 0
-267 -268 0
269 270 271 272 0
-269 -270 0
-269 -271 0
-269 -272 0
-270 -271 0
-270 -272 0
-271 -272 0
273 274 275 276 0
-273 -274 0
-273 -275 0
-273 -276 0
-274 -275 0
-274 -276 0
-275 -276 0
277 278 279 280 0
-277 -278 0
-277 -279 0
-277 -280 0
-278 -279 0
-278 -280 0
-279 -280 0
281 282 283 284 0
-281 -282 0
-281 -283 0
-281 -284 0
-282 -283 0
-282 -284 0
-283 -284 0
285 286 287 288 0
-285 -286 0
-285 -287 0
-285 -288 0
-286 -287 0
-286 -288 0
-287 -288 0
289 290 291 292 0
-289 -290 0
-289 -291 0
-289 -292 0
-290 -291 0
-290 -292 0
-291 -292 0
293 294 295 296 0
-293 -294 0
-293 -295 0
-293 -296 0
-294 -295 0
-294 -296 0
-295 -296 0
297 298 299 300 0
-297 -298 0
-297 -299 0
-297 -300 0
-298 -299 0
-298 -300 0
-299 -300 0
301 302 303 304 0
-301 -302 0
-301 -303 0
-301 -304 0
-302 -303 0
-302 -304 0
-303 -304 0
305 306 307 308 0
-305 -306 0
-305 -307 0
-305 -308 0
-306 -307 0
-306 -308 0
-307 -308 0
309 310 311 312 0
-309 -310 0
-309 -311 0
-309 -312 0
-310 -311 0
-310 -312 0
-311 -312 0
313 314 315 316 0
-313 -314 0
-313 -315 0
-313 -316 0
-314 -315 0
-314 -316 0
-315 -316 0
317 318 319 320 0
-317 -318 0
-317 -319 0
-317 -320 0
-318 -319 0
-318 -320 0
-319 -320 0
321 322 323 324 0
-321 -322 0
-321 -323 0
-321 -324 0
-322 -323 0
-322 -324 0
-323 -324 0
325 326 327 328 0
-325 -326 0
-325 -327 0
-325 -328 0
-326 -327 0
-326 -328 0
-327 -328 0
329 330 331 332 0
-329 -330 0
-329 -331 0
-329 -332 0
-330 -331 0
-330 -332 0
-331 -332 0
333 334 335 336 0
-333 -334 0
-333 -335 0
-333 -336 0
-334 -335 0
-334 -336 0
-335 -336 0
337 338 339 340 0
-337 -338 0
-337 -339 0
-337 -340 0
-338 -339 0
-338 -340 0
-339 -340 0
341 342 343 344 0
-341 -342 0
-341 -343 0
-341 -344 0
-342 -343 0
-342 -344 0
-343 -344 0
345 346 347 348 0
-345 -346 0
-345 -347 0
-345 -348 0
-346 -347 0
-346 -348 0
-347 -348 0
349 350 351 352 0
-349 -350 0
-349 -351 0
-349 -352 0
-350 -351 0
-350 -352 0
-351 -352 0
353 354 355 356 0
-353 -354 0
-353 -355 0
-353 -356 0
-354 -355 0
-354 -356 0
-355 -356 0
357 358 359 360 0
-357 -358 0
-357 -359 0
-357 -360 0
-358 -359 0
-358 -360 0
-359 -360 0
361 362 363 364 0
-361 -362 0
-361 -363 0
-361 -364 0
-362 -363 0
-362 -364 0
-363 -364 0
365 366 367 368 0
-365 -366 0
-365 -367 0
-365 -368 0
-366 -367 0
-366 -368 0
-367 -368 0
369 370 371 372 0
-369 -370 0
-369 -371 0
-369 -372 0
-370 -371 0
-370 -372 0
-371 -372 0
373 374 375 376 0
-373 -374 0
-373 -375 0
-373 -376 0
-374 -375 0
-374 -376 0
-375 -376 0
377 378 379 380 0
-377 -378 0
-377 -379 0
-377 -380 0
-378 -379 0
-378 -380 0
-379 -380 0
381 382 383 384 0
-381 -382 0
-381 -383 0
-381 -384 0
-382 -383 0
-382 -384 0
-383 -384 0
385 386 387 388 0
-385 -386 0
-385 -387 0
-385 -388 0
-386 -387 0
-386 -388 0
-387 -388 0
389 390 391 392 0
-389 -390 0
-389 -391 0
-389 -392 0
-390 -391 0
-390 -392 0
-391 -392 0
393 394 395 396 0
-393 -394 0
-393 -395 0
-393 -396 0
-394 -395 0
-394 -396 0
-395 -396 0
397 398 399 400 0
-397 -398 0
-397 -399 0
-397 -400 0
-398 -399 0
-398 -400 0
-399 -400 0
401 402 403 404 0
-401 -402 0
-401 -403 0
-401 -404 0
-402 -403 0
-402 -404 0
-403 -404 0
405 406 407 408 0
-405 -406 0
-405 -407 0
-405 -408 0
-406 -407 0
-406 -408 0
-407 -408 0
409 410 411 412 0
-409 -410 0
-409 -411 0
-409 -412 0
-410 -411 0
-410 -412 0
-411 -412 0
413 414 415 416 0
-413 -414 0
-413 -415 0
-413 -416 0
-414 -415 0
-414 -416 0
-415 -416 0
417 418 419 420 0
-417 -418 0
-417 -419 0
-417 -420 0
-418 -419 0
-418 -420 0
-419 -420 0
421 422 423 424 0
-421 -422 0
-421 -423 0
-421 -424 0
-422 -423 0
-422 -424 0
-423 -424 0
425 426 427 428 0
-425 -426 0
-425 -427 0
-425 -428 0
-426 -427 0
-426 -428 0
-427 -428 0
429 430 431 432 0
-429 -430 0
-429 -431 0
-429 -432 0
-430 -431 0
-430 -432 0
-431 -432 0
433 434 435 436 0
-433 -434 0
-433 -435 0
-433 -436 0
-434 -435 0
-434 -436 0
-435 -436 0
437 438 439 440 0
-437 -438 0
-437 -439 0
-437 -440 0
-438 -439 0
-438 -440 0
-439 -440 0
441 442 443 444 0
-441 -442 0
-441 -443 0
-441 -444 0
-442 -443 0
-442 -444 0
-443 -444 0
445 446 447 448 0
-445 -446 0
-445 -447 0
-445 -448 0
-446 -447 0
-446 -448 0
-447 -448 0
449 450 451 452 0
-449 -450 0
-449 -451 0
-449 -452 0
-450 -451 0
-450 -452 0
-451 -452 0
453 454 455 456 0
-453 -454 0
-453 -455 0
-453 -456 0
-454 -455 0
-454 -456 0
-455 -456 0
457 458 459 460 0
-457 -458 0
-457 -459 0
-457 -460 0
-458 -459 0
-458 -460 0
-459 -460 0
461 462 463 464 0
-461 -462 0
-461 -463 0
-461 -464 0
-462 -463 0
-462 -464 0
-463 -464 0
465 466 467 468 0
-465 -466 0
-465 -467 0
-465 -468 0
-466 -467 0
-466 -468 0
-467 -468 0
469 470 471 472 0
-469 -470 0
-469 -471 0
-469 -472 0
-470 -471 0
-470 -472 0
-471 -472 0
473 474 475 476 0
-473 -474 0
-473 -475 0
-473 -476 0
-474 -475 0
-474 -476 0
-475 -476 0
477 478 479 480 0
-477 -478 0
-477 -479 0
-477 -480 0
-478 -479 0
-478 -480 0
-479 -480 0
481 482 483 484 0
-481 -482 0
-481 -483 0
-481 -484 0
-482 -483 0
-482 -484 0
-483 -484 0
485 486 487 488 0
-485 -486 0
-485 -487 0
-485 -488 0
-486 -487 0
-486 -488 0
-487 -488 0
489 490 491 492 0
-489 -490 0
-489 -491 0
-489 -492 0
-490 -491 0
-490 -492 0
-491 -492 0
493 494 495 496 0
-493 -494 0
-493 -495 0
-493 -496 0
-494 -495 0
-494 -496 0
-495 -496 0
497 498 499 500 0
-497 -498 0
-497 -499 0
-497 -500 0
-498 -499 0
-498 -500 0
-499 -500 0
501 502 503 504 0
-501 -502 0
-501 -503 0
-501 -504 0
-502 -503 0
-502 -504 0
-503 -504 0
505 506 507 508 0
-505 -506 0
-505 -507 0
-505 -508 0
-506 -507 0
-506 -508 0
-507 -508 0
509 510 511 512 0
-509 -510 0
-509 -511 0
-509 -512 0
-510 -511 0
-510 -512 0
-511 -512 0
513 514 515 516 0
-513 -514 0
-513 -515 0
-513 -516 0
-514 -515 0
-514 -516 0
-515 -516 0
517 518 519 520 0
-517 -518 0
-517 -519 0
-517 -520 0
-518 -519 0
-518 -520 0
-519 -520 0
521 522 523 524 0
-521 -522 0
-521 -523 0
-521 -524 0
-522 -523 0
-522 -524 0
-523 -524 0
525 526 527 528 0
-525 -526 0
-525 -527 0
-525 -528 0
-526 -527 0
-526 -528 0
-527 -528 0
529 530 531 532 0
-529 -530 0
-529 -531 0
-529 -532 0
-530 -531 0
-530 -532 0
-531 -532 0
533 534 535 536 0
-533 -534 0
-533 -535 0
-533 -536 0
-534 -535 0
-534 -536 0
-535 -536 0
537 538 539 540 0
-537 -538 0
-537 -539 0
-537 -540 0
-538 -539 0
-538 -540 0
-539 -540 0
541 542 543 544 0
-541 -542 0
-541 -543 0
-541 -544 0
-542 -543 0
-542 -544 0
-543 -544 0
545 546 547 548 0
-545 -546 0
-545 -547 0
-545 -548 0
-546 -547 0
-546 -548 0
-547 -548 0
549 550 551 552 0
-549 -550 0
-549 -551 0
-549 -552 0
-550 -551 0
-550 -552 0
-551 -552 0
553 554 555 556 0
-553 -554 0
-553 -555 0
-553 -556 0
-554 -555 0
-554 -556 0
-555 -556 0
557 558 559 560 0
-557 -558 0
-557 -559 0
-557 -560 0
-558 -559 0
-558 -560 0
-559 -560 0
561 562 563 564 0
-561 -562 0
-561 -563 0
-561 -564 0
-562 -563 0
-562 -564 0
-563 -564 0
565 566 567 568 0
-565 -566 0
-565 -567 0
-565 -568 0
-566 -567 0
-566 -568 0
-567 -568 0
569 570 571 572 0
-569 -570 0
-569 -571 0
-569 -572 0
-570 -571 0
-570 -572 0
-571 -572 0
573 574 575 576 0
-573 -574 0
-573 -575 0
-573 -576 0
-574 -575 0
-574 -576 0
-575 -576 0
577 578 579 580 0
-577 -578 0
-577 -579 0
-577 -580 0
-578 -579 0
-578 -580 0
-579 -580 0
581 582 583 584 0
-581 -582 0
-581 -583 0
-581 -584 0
-582 -583 0
-582 -584 0
-583 -584 0
585 586 587 588 0
-585 -586 0
-585 -587 0
-585 -588 0
-586 -587 0
-586 -588 0
-587 -588 0
589 590 591 592 0
-589 -590 0
-589 -591 0
-589 -592 0
-590 -591 0
-590 -592 0
-591 -592 0
593 594 595 596 0
-593 -594 0
-593 -595 0
-593 -596 0
-594 -595 0
-594 -596 0
-595 -596 0
597 598 599 600 0
-597 -598 0
-597 -599 0
-597 -600 0
-598 -599 0
-598 -600 0
-599 -600 0
601 602 603 604 0
-601 -602 0
-601 -603 0
-601 -604 0
-602 -603 0
-602 -604 0
-603 -604 0
605 606 607 608 0
-605 -606 0
-605 -607 0
-605 -608 0
-606 -607 0
-606 -608 0
-607 -608 0
609 610 611 612 0
-609 -610 0
-609 -611 0
-609 -612 0
-610 -611 0
-610 -612 0
-611 -612 0
613 614 615 616 0
-613 -614 0
-613 -615 0
-613 -616 0
-614 -615 0
-614 -616 0
-615 -616 0
617 618 619 620 0
-617 -618 0
-617 -619 0
-617 -620 0
-618 -619 0
-618 -620 0
-619 -620 0
621 622 623 624 0
-621 -622 0
-621 -623 0
-621 -624 0
-622 -623 0
-622 -624 0
-623 -624 0
625 626 627 628 0
-625 -626 0
-625 -627 0
-625 -628 0
-626 -627 0
-626 -628 0
-627 -628 0
629 630 631 632 0
-629 -630 0
-629 -631 0
-629 -632 0
-630 -631 0
-630 -632 0
-631 -632 0
633 634 635 636 0
-633 -634 0
-633 -635 0
-633 -636 0
-634 -635 0
-634 -636 0
-635 -636 0
637 638 639 640 0
-637 -638 0
-637 -639 0
-637 -640 0
-638 -639 0
-638 -640 0
-639 -640 0
641 642 643 644 0
-641 -642 0
-641 -643 0
-641 -644 0
-642 -643 0
-642 -644 0
-643 -644 0
645 646 647 648 0
-645 -646 0
-645 -647 0
-645 -648 0
-646 -647 0
-646 -648 0
-647 -648 0
649 650 651 652 0
-649 -650 0
-649 -651 0
-649 -652 0
-650 -651 0
-650 -652 0
-651 -652 0
653 654 655 656 0
-653 -654 0
-653 -655 0
-653 -656 0
-654 -655 0
-654 -656 0
-655 -656 0
657 658 659 660 0
-657 -658 0
-657 -659 0
-657 -660 0
-658 -659 0
-658 -660 0
-659 -660 0
661 662 663 664 0
-661 -662 0
-661 -663 0
-661 -664 0
-662 -663 0
-662 -664 0
-663 -664 0
665 666 667 668 0
-665 -666 0
-665 -667 0
-665 -668 0
-666 -667 0
-666 -668 0
-667 -668 0
669 670 671 672 0
-669 -670 0
-669 -671 0
-669 -672 0
-670 -671 0
-670 -672 0
-671 -672 0
673 674 675 676 0
-673 -674 0
-673 -675 0
-673 -676 0
-674 -675 0
-674 -676 0
-675 -676 0
677 678 679 680 0
-677 -678 0
-677 -679 0
-677 -680 0
-678 -679 0
-678 -680 0
-679 -680 0
681 682 683 684 0
-681 -682 0
-681 -683 0
-681 -684 0
-682 -683 0
-682 -684 0
-683 -684 0
685 686 687 688 0
-685 -686 0
-685 -687 0
-685 -688 0
-686 -687 0
-686 -688 0
-687 -688 0
689 690 691 692 0
-689 -690 0
-689 -691 0
-689 -692 0
-690 -691 0
-690 -692 0
-691 -692 0
693 694 695 696 0
-693 -694 0
-693 -695 0
-693 -696 0
-694 -695 0
-694 -696 0
-695 -696 0
697 698 699 700 0
-697 -698 0
-697 -699 0
-697 -700 0
-698 -699 0
-698 -700 0
-699 -700 0
701 702 703 704 0
-701 -702 0
-701 -703 0
-701 -704 0
-702 -703 0
-702 -704 0
-703 -704 0
705 706 707 708 0
-705 -706 0
-705 -707 0
-705 -708 0
-706 -707 0
-706 -708 0
-707 -708 0
709 710 711 712 0
-709 -710 0
-709 -711 0
-709 -712 0
-710 -711 0
-710 -712 0
-711 -712 0
713 714 715 716 0
-713 -714 0
-713 -715 0
-713 -716 0
-714 -715 0
-714 -716 0
-715 -716 0
717 718 719 720 0
-717 -718 0
-717 -719 0
-717 -720 0
-718 -719 0
-718 -720 0
-719 -720 0
721 722 723 724 0
-721 -722 0
-721 -723 0
-721 -724 0
-722 -723 0
-722 -724 0
-723 -724 0
725 726 727 728 0
-725 -726 0
-725 -727 0
-725 -728 0
-726 -727 0
-726 -728 0
-727 -728 0
729 730 731 732 0
-729 -730 0
-729 -731 0
-729 -732 0
-730 -731 0
-730 -732 0
-731 -732 0
733 734 735 736 0
-733 -734 0
-733 -735 0
-733 -736 0
-734 -735 0
-734 -736 0
-735 -736 0
737 738 739 740 0
-737 -738 0
-737 -739 0
-737 -740 0
-738 -739 0
-738 -740 0
-739 -740 0
741 742 743 744 0
-741 -742 0
-741 -743 0
-741 -744 0
-742 -743 0
-742 -744 0
-743 -744 0
745 746 747 748 0
-745 -746 0
-745 -747 0
-745 -748 0
-746 -747 0
-746 -748 0
-747 -748 0
749 750 751 752 0
-749 -750 0
-749 -751 0
-749 -752 0
-750 -751 0
-750 -752 0
-751 -752 0
753 754 755 756 0
-753 -754 0
-753 -755 0
-753 -756 0
-754 -755 0
-754 -756 0
-755 -756 0
757 758 759 760 0
-757 -758 0
-757 -759 0
-757 -760 0
-758 -759 0
-758 -760 0
-759 -760 0
761 762 763 764 0
-761 -762 0
-761 -763 0
-761 -764 0
-762 -763 0
-762 -764 0
-763 -764 0
765 766 767 768 0
-765 -766 0
-765 -767 0
-765 -768 0
-766 -767 0
-766 -768 0
-767 -768 0
769 770 771 772 0
-769 -770 0
-769 -771 0
-769 -772 0
-770 -771 0
-770 -772 0
-771 -772 0
773 774 775 776 0
-773 -774 0
-773 -775 0
-773 -776 0
-774 -775 0
-774 -776 0
-775 -776 0
777 778 779 780 0
-777 -778 0
-777 -779 0
-777 -780 0
-778 -779 0
-778 -780 0
-779 -780 0
781 782 783 784 0
-781 -782 0
-781 -783 0
-781 -784 0
-782 -783 0
-782 -784 0
-783 -784 0
785 786 787 788 0
-785 -786 0
-785 -787 0
-785 -788 0
-786 -787 0
-786 -788 0
-787 -788 0
789 790 791 792 0
-789 -790 0
-789 -791 0
-789 -792 0
-790 -791 0
-790 -792 0
-791 -792 0
793 794 795 796 0
-793 -794 0
-793 -795 0
-793 -796 0
-794 -795 0
-794 -796 0
-795 -796 0
797 798 799 800 0
-797 -798 0
-797 -799 0
-797 -800 0
-798 -799 0
-798 -800 0
-799 -800 0
801 802 803 804 0
-801 -802 0
-801 -803 0
-801 -804 0
-802 -803 0
-802 -804 0
-803 -804 0
805 806 807 808 0
-805 -806 0
-805 -807 0
-805 -808 0
-806 -807 0
-806 -808 0
-807 -808 0
809 810 811 812 0
-809 -810 0
-809 -811 0
-809 -812 0
-810 -811 0
-810 -812 0
-811 -812 0
813 814 815 816 0
-813 -814 0
-813 -815 0
-813 -816 0
-814 -815 0
-814 -816 0
-815 -816 0
817 818 819 820 0
-817 -818 0
-817 -819 0
-817 -820 0
-818 -819 0
-818 -820 0
-819 -820 0
821 822 823 824 0
-821 -822 0
-821 -823 0
-821 -824 0
-822 -823 0
-822 -824 0
-823 -824 0
825 826 827 828 0
-825 -826 0
-825 -827 0
-825 -828 0
-826 -827 0
-826 -828 0
-827 -828 0
829 830 831 832 0
-829 -830 0
-829 -831 0
-829 -832 0
-830 -831 0
-830 -832 0
-831 -832 0
833 834 835 836 0
-833 -834 0
-833 -835 0
-833 -836 0
-834 -835 0
-834 -836 0
-835 -836 0
837 838 839 840 0
-837 -838 0
-837 -839 0
-837 -840 0
-838 -839 0
-838 -840 0
-839 -840 0
841 842 843 844 0
-841 -842 0
-841 -843 0
-841 -844 0
-842 -843 0
-842 -844 0
-843 -844 0
845 846 847 848 0
-845 -846 0
-845 -847 0
-845 -848 0
-846 -847 0
-846 -848 0
-847 -848 0
849 850 851 852 0
-849 -850 0
-849 -851 0
-849 -852 0
-850 -851 0
-850 -852 0
-851 -852 0
853 854 855 856 0
-853 -854 0
-853 -855 0
-853 -856 0
-854 -855 0
-854 -856 0
-855 -856 0
857 858 859 860 0
-857 -858 0
-857 -859 0
-857 -860 0
-858 -859 0
-858 -860 0
-859 -860 0
861 862 863 864 0
-861 -862 0
-861 -863 0
-861 -864 0
-862 -863 0
-862 -864 0
-863 -864 0
865 866 867 868 0
-865 -866 0
-865 -867 0
-865 -868 0
-866 -867 0
-866 -868 0
-867 -868 0
869 870 871 872 0
-869 -870 0
-869 -871 0
-869 -872 0
-870 -871 0
-870 -872 0
-871 -872 0
873 874 875 876 0
-873 -874 0
-873 -875 0
-873 -876 0
-874 -875 0
-874 -876 0
-875 -876 0
877 878 879 880 0
-877 -878 0
-877 -879 0
-877 -880 0
-878 -879 0
-878 -880 0
-879 -880 0
881 882 883 884 0
-881 -882 0
-881 -883 0
-881 -884 0
-882 -883 0
-882 -884 0
-883 -884 0
885 886 887 888 0
-885 -886 0
-885 -887 0
-885 -888 0
-886 -887 0
-886 -888 0
-887 -888 0
889 890 891 892 0
-889 -890 0
-889 -891 0
-889 -892 0
-890 -891 0
-890 -892 0
-891 -892 0
893 894 895 896 0
-893 -894 0
-893 -895 0
-893 -896 0
-894 -895 0
-894 -896 0
-895 -896 0
897 898 899 900 0
-897 -898 0
-897 -899 0
-897 -900 0
-898 -899 0
-898 -900 0
-899 -900 0
901 902 903 904 0
-901 -902 0
-901 -903 0
-901 -904 0
-902 -903 0
-902 -904 0
-903 -904 0
905 906 907 908 0
-905 -906 0
-905 -907 0
-905 -908 0
-906 -907 0
-906 -908 0
-907 -908 0
909 910 911 912 0
-909 -910 0
-909 -911 0
-909 -912 0
-910 -911 0
-910 -912 0
-911 -912 0
913 914 915 916 0
-913 -914 0
-913 -915 0
-913 -916 0
-914 -915 0
-914 -916 0
-915 -916 0
917 918 919 920 0
-917 -918 0
-917 -919 0
-917 -920 0
-918 -919 0
-918 -920 0
-919 -920 0
921 922 923 924 0
-921 -922 0
-921 -923 0
-921 -924 0
-922 -923 0
-922 -924 0
-923 -924 0
925 926 927 928 0
-925 -926 0
-925 -927 0
-925 -928 0
-926 -927 0
-926 -928 0
-927 -928 0
929 930 931 932 0
-929 -930 0
-929 -931 0
-929 -932 0
-930 -931 0
-930 -932 0
-931 -932 0
933 934 935 936 0
-933 -934 0
-933 -935 0
-933 -936 0
-934 -935 0
-934 -936 0
-935 -936 0
937 938 939 940 0
-937 -938 0
-937 -939 0
-937 -940 0
-938 -939 0
-938 -940 0
-939 -940 0
941 942 943 944 0
-941 -942 0
-941 -943 0
-941 -944 0
-942 -943 0
-942 -944 0
-943 -944 0
945 946 947 948 0
-945 -946 0
-945 -947 0
-945 -948 0
-946 -947 0
-946 -948 0
-947 -948 0
949 950 951 952 0
-949 -950 0
-949 -951 0
-949 -952 0
-950 -951 0
-950 -952 0
-951 -952 0
953 954 955 956 0
-953 -954 0
-953 -955 0
-953 -956 0
-954 -955 0
-954 -956 0
-955 -956 0
957 958 959 960 0
-957 -958 0
-957 -959 0
-957 -960 0
-958 -959 0
-958 -960 0
-959 -960 0
961 962 963 964 0
-961 -962 0
-961 -963 0
-961 -964 0
-962 -963 0
-962 -964 0
-963 -964 0
965 966 967 968 0
-965 -966 0
-965 -967 0
-965 -968 0
-966 -967 0
-966 -968 0
-967 -968 0
969 970 971 972 0
-969 -970 0
-969 -971 0
-969 -972 0
-970 -971 0
-970 -972 0
-971 -972 0
973 974 975 976 0
-973 -974 0
-973 -975 0
-973 -976 0
-974 -975 0
-974 -976 0
-975 -976 0
977 978 979 980 0
-977 -978 0
-977 -979 0
-977 -980 0
-978 -979 0
-978 -980 0
-979 -980 0
981 982 983 984 0
-981 -982 0
-981 -983 0
-981 -984 0
-982 -983 0
-982 -984 0
-983 -984 0
985 986 987 988 0
-985 -986 0
-985 -987 0
-985 -988 0
-986 -987 0
-986 -988 0
-987 -988 0
989 990 991 992 0
-989 -990 0
-989 -991 0
-989 -992 0
-990 -991 0
-990 -992 0
-991 -992 0
993 994 995 996 0
-993 -994 0
-993 -995 0
-993 -996 0
-994 -995 0
-994 -996 0
-995 -996 0
997 998 999 1000 0
-997 -998 0
-997 -999 0
-997 -1000 0
-998 -999 0
-998 -1000 0
-999 -1000 0
1001 1002 1003 1004 0
-1001 -1002 0
-1001 -1003 0
-1001 -1004 0
-1002 -1003 0
-1002 -1004 0
-1003 -1004 0
1005 1006 1007 1008 0
-1005 -1006 0
-1005 -1007 0
-1005 -1008 0
-1006 -1007 0
-1006 -1008 0
-1007 -1008 0
1009 1010 1011 1012 0
-1009 -1010 0
-1009 -1011 0
-1009 -1012 0
-1010 -1011 0
-1010 -1012 0
-1011 -1012 0
1013 1014 1015 1016 0
-1013 -1014 0
-1013 -1015 0
-1013 -1016 0
-1014 -1015 0
-1014 -1016 0
-1015 -1016 0
1017 1018 1019 1020 0
-1017 -1018 0
-1017 -1019 0
-1017 -1020 0
-1018 -1019 0
-1018 -1020 0
-1019 -1020 0
1021 1022 1023 1024 0
-1021 -1022 0
-1021 -1023 0
-1021 -1024 0
-1022 -1023 0
-1022 -1024 0
-1023 -1024 0
1025 1026 1027 1028 0
-1025 -1026 0
-1025 -1027 0
-1025 -1028 0
-1026 -1027 0
-1026 -1028 0
-1027 -1028 0
1029 1030 1031 1032 0
-1029 -1030 0
-1029 -1031 0
-1029 -1032 0
-1030 -1031 0
-1030 -1032 0
-1031 -1032 0
1033 1034 1035 1036 0
-1033 -1034 0
-1033 -1035 0
-1033 -1036 0
-1034 -1035 0
-1034 -1036 0
-1035 -1036 0
1037 1038 1039 1040 0
-1037 -1038 0
-1037 -1039 0
-1037 -1040 0
-1038 -1039 0
-1038 -1040 0
-1039 -1040 0
1041 1042 1043 1044 0
-1041 -1042 0
-1041 -1043 0
-1041 -1044 0
-1042 -1043 0
-1042 -1044 0
-1043 -1044 0
1045 1046 1047 1048 0
-1045 -1046 0
-1045 -1047 0
-1045 -1048 0
-1046 -1047 0
-1046 -1048 0
-1047 -1048 0
1049 1050 1051 1052 0
-1049 -1050 0
-1049 -1051 0
-1049 -1052 0
-1050 -1051 0
-1050 -1052 0
-1051 -1052 0
1053 1054 1055 1056 0
-1053 -1054 0
-1053 -1055 0
-1053 -1056 0
-1054 -1055 0
-1054 -1056 0
-1055 -1056 0
1057 1058 1059 1060 0
-1057 -1058 0
-1057 -1059 0
-1057 -1060 0
-1058 -1059 0
-1058 -1060 0
-1059 -1060 0
1061 1062 1063 1064 0
-1061 -1062 0
-1061 -1063 0
-1061 -1064 0
-1062 -1063 0
-1062 -1064 0
-1063 -1064 0
1065 1066 1067 1068 0
-1065 -1066 0
-1065 -1067 0
-1065 -1068 0
-1066 -1067 0
-1066 -1068 0
-1067 -1068 0
1069 1070 1071 1072 0
-1069 -1070 0
-1069 -1071 0
-1069 -1072 0
-1070 -1071 0
-1070 -1072 0
-1071 -1072 0
1073 1074 1075 1076 0
-1073 -1074 0
-1073 -1075 0
-1073 -1076 0
-1074 -1075 0
-1074 -1076 0
-1075 -1076 0
1077 1078 1079 1080 0
-1077 -1078 0
-1077 -1079 0
-1077 -1080 0
-1078 -1079 0
-1078 -1080 0
-1079 -1080 0
1081 1082 1083 1084 0
-1081 -1082 0
-1081 -1083 0
-1081 -1084 0
-1082 -1083 0
-1082 -1084 0
-1083 -1084 0
1085 1086 1087 1088 0
-1085 -1086 0
-1085 -1087 0
-1085 -1088 0
-1086 -1087 0
-1086 -1088 0
-1087 -1088 0
1089 1090 1091 1092 0
-1089 -1090 0
-1089 -1091 0
-1089 -1092 0
-1090 -1091 0
-1090 -1092 0
-1091 -1092 0
1093 1094 1095 1096 0
-1093 -1094 0
-1093 -1095 0
-1093 -1096 0
-1094 -1095 0
-1094 -1096 0
-1095 -1096 0
1097 1098 1099 1100 0
-1097 -1098 0
-1097 -1099 0
-1097 -1100 0
-1098 -1099 0
-1098 -1100 0
-1099 -1100 0
1101 1102 1103 1104 0
-1101 -1102 0
-1101 -1103 0
-1101 -1104 0
-1102 -1103 0
-1102 -1104 0
-1103 -1104 0
1105 1106 1107 1108 0
-1105 -1106 0
-1105 -1107 0
-1105 -1108 0
-1106 -1107 0
-1106 -1108 0
-1107 -1108 0
1109 1110 1111 1112 0
-1109 -1110 0
-1109 -1111 0
-1109 -1112 0
-1110 -1111 0
-1110 -1112 0
-1111 -1112 0
1113 1114 1115 1116 0
-1113 -1114 0
-1113 -1115 0
-1113 -1116 0
-1114 -1115 0
-1114 -1116 0
-1115 -1116 0
1117 1118 1119 1120 0
-1117 -1118 0
-1117 -1119 0
-1117 -1120 0
-1118 -1119 0
-1118 -1120 0
-1119 -1120 0
1121 1122 1123 1124 0
-1121 -1122 0
-1121 -1123 0
-1121 -1124 0
-1122 -1123 0
-1122 -1124 0
-1123 -1124 0
1125 1126 1127 1128 0
-1125 -1126 0
-1125 -1127 0
-1125 -1128 0
-1126 -1127 0
-1126 -1128 0
-1127 -1128 0
1129 1130 1131 1132 0
-1129 -1130 0
-1129 -1131 0
-1129 -1132 0
-1130 -1131 0
-1130 -1132 0
-1131 -1132 0
1133 1134 1135 1136 0
-1133 -1134 0
-1133 -1135 0
-1133 -1136 0
-1134 -1135 0
-1134 -1136 0
-1135 -1136 0
1137 1138 1139 1140 0
-1137 -1138 0
-1137 -1139 0
-1137 -1140 0
-1138 -1139 0
-1138 -1140 0
-1139 -1140 0
1141 1142 1143 1144 0
-1141 -1142 0
-1141 -1143 0
-1141 -1144 0
-1142 -1143 0
-1142 -1144 0
-1143 -1144 0
1145 1146 1147 1148 0
-1145 -1146 0
-1145 -1147 0
-1145 -1148 0
-1146 -1147 0
-1146 -1148 0
-1147 -1148 0
1149 1150 1151 1152 0
-1149 -1150 0
-1149 -1151 0
-1149 -1152 0
-1150 -1151 0
-1150 -1152 0
-1151 -1152 0
1153 1154 1155 1156 0
-1153 -1154 0
-1153 -1155 0
-1153 -1156 0
-1154 -1155 0
-1154 -1156 0
-1155 -1156 0
1157 1158 1159 1160 0
-1157 -1158 0
-1157 -1159 0
-1157 -1160 0
-1158 -1159 0
-1158 -1160 0
-1159 -1160 0
1161 1162 1163 1164 0
-1161 -1162 0
-1161 -1163 0
-1161 -1164 0
-1162 -1163 0
-1162 -1164 0
-1163 -1164 0
1165 1166 1167 1168 0
-1165 -1166 0
-1165 -1167 0
-1165 -1168 0
-1166 -1167 0
-1166 -1168 0
-1167 -1168 0
1169 1170 1171 1172 0
-1169 -1170 0
-1169 -1171 0
-1169 -1172 0
-1170 -1171 0
-1170 -1172 0
-1171 -1172 0
1173 1174 1175 1176 0
-1173 -1174 0
-1173 -1175 0
-1173 -1176 0
-1174 -1175 0
-1174 -1176 0
-1175 -1176 0
1177 1178 1179 1180 0
-1177 -1178 0
-1177 -1179 0
-1177 -1180 0
-1178 -1179 0
-1178 -1180 0
-1179 -1180 0
1181 1182 1183 1184 0
-1181 -1182 0
-1181 -1183 0
-1181 -1184 0
-1182 -1183 0
-1182 -1184 0
-1183 -1184 0
1185 1186 1187 1188 0
-1185 -1186 0
-1185 -1187 0
-1185 -1188 0
-1186 -1187 0
-1186 -1188 0
-1187 -1188 0
1189 1190 1191 1192 0
-1189 -1190 0
-1189 -1191 0
-1189 -1192 0
-1190 -1191 0
-1190 -1192 0
-1191 -1192 0
1193 1194 1195 1196 0
-1193 -1194 0
-1193 -1195 0
-1193 -1196 0
-1194 -1195 0
-1194 -1196 0
-1195 -1196 0
1197 1198 1199 1200 0
-1197 -1198 0
-1197 -1199 0
-1197 -1200 0
-1198 -1199 0
-1198 -1200 0
-1199 -1200 0
1201 1202 1203 1204 0
-1201 -1202 0
-1201 -1203 0
-1201 -1204 0
-1202 -1203 0
-1202 -1204 0
-1203 -1204 0
1205 1206 1207 1208 0
-1205 -1206 0
-1205 -1207 0
-1205 -1208 0
-1206 -1207 0
-1206 -1208 0
-1207 -1208 0
1209 1210 1211 1212 0
-1209 -1210 0
-1209 -1211 0
-1209 -1212 0
-1210 -1211 0
-1210 -1212 0
-1211 -1212 0
1213 1214 1215 1216 0
-1213 -1214 0
-1213 -1215 0
-1213 -1216 0
-1214 -1215 0
-1214 -1216 0
-1215 -1216 0
1217 1218 1219 1220 0
-1217 -1218 0
-1217 -1219 0
-1217 -1220 0
-1218 -1219 0
-1218 -1220 0
-1219 -1220 0
1221 1222 1223 1224 0
-1221 -1222 0
-1221 -1223 0
-1221 -1224 0
-1222 -1223 0
-1222 -1224 0
-1223 -1224 0
1225 1226 1227 1228 0
-1225 -1226 0
-1225 -1227 0
-1225 -1228 0
-1226 -1227 0
-1226 -1228 0
-1227 -1228 0
1229 1230 1231 1232 0
-1229 -1230 0
-1229 -1231 0
-1229 -1232 0
-1230 -1231 0
-1230 -1232 0
-1231 -1232 0
1233 1234 1235 1236 0
-1233 -1234 0
-1233 -1235 0
-1233 -1236 0
-1234 -1235 0
-1234 -1236 0
-1235 -1236 0
1237 1238 1239 1240 0
-1237 -1238 0
-1237 -1239 0
-1237 -1240 0
-1238 -1239 0
-1238 -1240 0
-1239 -1240 0
1241 1242 1243 1244 0
-1241 -1242 0
-1241 -1243 0
-1241 -1244 0
-1242 -1243 0
-1242 -1244 0
-1243 -1244 0
1245 1246 1247 1248 0
-1245 -1246 0
-1245 -1247 0
-1245 -1248 0
-1246 -1247 0
-1246 -1248 0
-1247 -1248 0
1249 1250 1251 1252 0
-1249 -1250 0
-1249 -1251 0
-1249 -1252 0
-1250 -1251 0
-1250 -1252 0
-1251 -1252 0
1253 1254 1255 1256 0
-1253 -1254 0
-1253 -1255 0
-1253 -1256 0
-1254 -1255 0
-1254 -1256 0
-1255 -1256 0
1257 1258 1259 1260 0
-1257 -1258 0
-1257 -1259 0
-1257 -1260 0
-1258 -1259 0
-1258 -1260 0
-1259 -1260 0
1261 1262 1263 1264 0
-1261 -1262 0
-1261 -1263 0
-1261 -1264 0
-1262 -1263 0
-1262 -1264 0
-1263 -1264 0
1265 1266 1267 1268 0
-1265 -1266 0
-1265 -1267 0
-1265 -1268 0
-1266 -1267 0
-1266 -1268 0
-1267 -1268 0
1269 1270 1271 1272 0
-1269 -1270 0
-1269 -1271 0
-1269 -1272 0
-1270 -1271 0
-1270 -1272 0
-1271 -1272 0
1273 1274 1275 1276 0
-1273 -1274 0
-1273 -1275 0
-1273 -1276 0
-1274 -1275 0
-1274 -1276 0
-1275 -1276 0
1277 1278 1279 1280 0
-1277 -1278 0
-1277 -1279 0
-1277 -1280 0
-1278 -1279 0
-1278 -1280 0
-1279 -1280 0
1281 1282 1283 1284 0
-1281 -1282 0
-1281 -1283 0
-1281 -1284 0
-1282 -1283 0
-1282 -1284 0
-1283 -1284 0
1285 1286 1287 1288 0
-1285 -1286 0
-1285 -1287 0
-1285 -1288 0
-1286 -1287 0
-1286 -1288 0
-1287 -1288 0
1289 1290 1291 1292 0
-1289 -1290 0
-1289 -1291 0
-1289 -1292 0
-1290 -1291 0
-1290 -1292 0
-1291 -1292 0
1293 1294 1295 1296 0
-1293 -1294 0
-1293 -1295 0
-1293 -1296 0
-1294 -1295 0
-1294 -1296 0
-1295 -1296 0
1297 1298 1299 1300 0
-1297 -1298 0
-1297 -1299 0
-1297 -1300 0
-1298 -1299 0
-1298 -1300 0
-1299 -1300 0
1301 1302 1303 1304 0
-1301 -1302 0
-1301 -1303 0
-1301 -1304 0
-1302 -1303 0
-1302 -1304 0
-1303 -1304 0
1305 1306 1307 1308 0
-1305 -1306 0
-1305 -1307 0
-1305 -1308 0
-1306 -1307 0
-1306 -1308 0
-1307 -1308 0
1309 1310 1311 1312 0
-1309 -1310 0
-1309 -1311 0
-1309 -1312 0
-1310 -1311 0
-1310 -1312 0
-1311 -1312 0
1313 1314 1315 1316 0
-1313 -1314 0
-1313 -1315 0
-1313 -1316 0
-1314 -1315 0
-1314 -1316 0
-1315 -1316 0
1317 1318 1319 1320 0
-1317 -1318 0
-1317 -1319 0
-1317 -1320 0
-1318 -1319 0
-1318 -1320 0
-1319 -1320 0
1321 1322 1323 1324 0
-1321 -1322 0
-1321 -1323 0
-1321 -1324 0
-1322 -1323 0
-1322 -1324 0
-1323 -1324 0
1325 1326 1327 1328 0
-1325 -1326 0
-1325 -1327 0
-1325 -1328 0
-1326 -1327 0
-1326 -1328 0
-1327 -1328 0
1329 1330 1331 1332 0
-1329 -1330 0
-1329 -1331 0
-1329 -1332 0
-1330 -1331 0
-1330 -1332 0
-1331 -1332 0
1333 1334 1335 1336 0
-1333 -1334 0
-1333 -1335 0
-1333 -1336 0
-1334 -1335 0
-1334 -1336 0
-1335 -1336 0
1337 1338 1339 1340 0
-1337 -1338 0
-1337 -1339 0
-1337 -1340 0
-1338 -1339 0
-1338 -1340 0
-1339 -1340 0
1341 1342 1343 1344 0
-1341 -1342 0
-1341 -1343 0
-1341 -1344 0
-1342 -1343 0
-1342 -1344 0
-1343 -1344 0
1345 1346 1347 1348 0
-1345 -1346 0
-1345 -1347 0
-1345 -1348 0
-1346 -1347 0
-1346 -1348 0
-1347 -1348 0
1349 1350 1351 1352 0
-1349 -1350 0
-1349 -1351 0
-1349 -1352 0
-1350 -1351 0
-1350 -1352 0
-1351 -1352 0
1353 1354 1355 1356 0
-1353 -1354 0
-1353 -1355 0
-1353 -1356 0
-1354 -1355 0
-1354 -1356 0
-1355 -1356 0
1357 1358 1359 1360 0
-1357 -1358 0
-1357 -1359 0
-1357 -1360 0
-1358 -1359 0
-1358 -1360 0
-1359 -1360 0
1361 1362 1363 1364 0
-1361 -1362 0
-1361 -1363 0
-1361 -1364 0
-1362 -1363 0
-1362 -1364 0
-1363 -1364 0
1365 1366 1367 1368 0
-1365 -1366 0
-1365 -1367 0
-1365 -1368 0
-1366 -1367 0
-1366 -1368 0
-1367 -1368 0
1369 1370 1371 1372 0
-1369 -1370 0
-1369 -1371 0
-1369 -1372 0
-1370 -1371 0
-1370 -1372 0
-1371 -1372 0
1373 1374 1375 1376 0
-1373 -1374 0
-1373 -1375 0
-1373 -1376 0
-1374 -1375 0
-1374 -1376 0
-1375 -1376 0
1377 1378 1379 1380 0
-1377 -1378 0
-1377 -1379 0
-1377 -1380 0
-1378 -1379 0
-1378 -1380 0
-1379 -1380 0
1381 1382 1383 1384 0
-1381 -1382 0
-1381 -1383 0
-1381 -1384 0
-1382 -1383 0
-1382 -1384 0
-1383 -1384 0
1385 1386 1387 1388 0
-1385 -1386 0
-1385 -1387 0
-1385 -1388 0
-1386 -1387 0
-1386 -1388 0
-1387 -1388 0
1389 1390 1391 1392 0
-1389 -1390 0
-1389 -1391 0
-1389 -1392 0
-1390 -1391 0
-1390 -1392 0
-1391 -1392 0
1393 1394 1395 1396 0
-1393 -1394 0
-1393 -1395 0
-1393 -1396 0
-1394 -1395 0
-1394 -1396 0
-1395 -1396 0
1397 1398 1399 1400 0
-1397 -1398 0
-1397 -1399 0
-1397 -1400 0
-1398 -1399 0
-1398 -1400 0
-1399 -1400 0
1401 1402 1403 1404 0
-1401 -1402 0
-1401 -1403 0
-1401 -1404 0
-1402 -1403 0
-1402 -1404 0
-1403 -1404 0
1405 1406 1407 1408 0
-1405 -1406 0
-1405 -1407 0
-1405 -1408 0
-1406 -1407 0
-1406 -1408 0
-1407 -1408 0
1409 1410 1411 1412 0
-1409 -1410 0
-1409 -1411 0
-1409 -1412 0
-1410 -1411 0
-1410 -1412 0
-1411 -1412 0
1413 1414 1415 1416 0
-1413 -1414 0
-1413 -1415 0
-1413 -1416 0
-1414 -1415 0
-1414 -1416 0
-1415 -1416 0
1417 1418 1419 1420 0
-1417 -1418 0
-1417 -1419 0
-1417 -1420 0
-1418 -1419 0
-1418 -1420 0
-1419 -1420 0
1421 1422 1423 1424 0
-1421 -1422 0
-1421 -1423 0
-1421 -1424 0
-1422 -1423 0
-1422 -1424 0
-1423 -1424 0
1425 1426 1427 1428 0
-1425 -1426 0
-1425 -1427 0
-1425 -1428 0
-1426 -1427 0
-1426 -1428 0
-1427 -1428 0
1429 1430 1431 1432 0
-1429 -1430 0
-1429 -1431 0
-1429 -1432 0
-1430 -1431 0
-1430 -1432 0
-1431 -1432 0
1433 1434 1435 1436 0
-1433 -1434 0
-1433 -1435 0
-1433 -1436 0
-1434 -1435 0
-1434 -1436 0
-1435 -1436 0
1437 1438 1439 1440 0
-1437 -1438 0
-1437 -1439 0
-1437 -1440 0
-1438 -1439 0
-1438 -1440 0
-1439 -1440 0
1441 1442 1443 1444 0
-1441 -1442 0
-1441 -1443 0
-1441 -1444 0
-1442 -1443 0
-1442 -1444 0
-1443 -1444 0
1445 1446 1447 1448 0
-1445 -1446 0
-1445 -1447 0
-1445 -1448 0
-1446 -1447 0
-1446 -1448 0
-1447 -1448 0
1449 1450 1451 1452 0
-1449 -1450 0
-1449 -1451 0
-1449 -1452 0
-1450 -1451 0
-1450 -1452 0
-1451 -1452 0
1453 1454 1455 1456 0
-1453 -1454 0
-1453 -1455 0
-1453 -1456 0
-1454 -1455 0
-1454 -1456 0
-1455 -1456 0
1457 1458 1459 1460 0
-1457 -1458 0
-1457 -1459 0
-1457 -1460 0
-1458 -1459 0
-1458 -1460 0
-1459 -1460 0
1461 1462 1463 1464 0
-1461 -1462 0
-1461 -1463 0
-1461 -1464 0
-1462 -1463 0
-1462 -1464 0
-1463 -1464 0
1465 1466 1467 1468 0
-1465 -1466 0
-1465 -1467 0
-1465 -1468 0
-1466 -1467 0
-1466 -1468 0
-1467 -1468 0
-1 -621 0
-2 -622 0
-3 -623 0
-4 -624 0
-1 -625 0
-2 -626 0
-3 -627 0
-4 -628 0
-1 -629 0
-2 -630 0
-3 -631 0
-4 -632 0
-1 -633 0
-2 -634 0
-3 -635 0
-4 -636 0
-1 -637 0
-2 -638 0
-3 -639 0
-4 -640 0
-1 -641 0
-2 -642 0
-3 -643 0
-4 -644 0
-1 -645 0
-2 -646 0
-3 -647 0
-4 -648 0
-1 -649 0
-2 -650 0
-3 -651 0
-4 -652 0
-1 -653 0
-2 -654 0
-3 -655 0
-4 -656 0
-1 -657 0
-2 -658 0
-3 -659 0
-4 -660 0
-1 -661 0
-2 -662 0
-3 -663 0
-4 -664 0
-1 -665 0
-2 -666 0
-3 -667 0
-4 -668 0
-1 -669 0
-2 -670 0
-3 -671 0
-4 -672 0
-1 -673 0
-2 -674 0
-3 -675 0
-4 -676 0
-1 -677 0
-2 -678 0
-3 -679 0
-4 -680 0
-1 -681 0
-2 -682 0
-3 -683 0
-4 -684 0
-1 -685 0
-2 -686 0
-3 -687 0
-4 -688 0
-1 -689 0
-2 -690 0
-3 -691 0
-4 -692 0
-5 -477 0
-6 -478 0
-7 -479 0
-8 -480 0
-5 -497 0
-6 -498 0
-7 -499 0
-8 -500 0
-5 -541 0
-6 -542 0
-7 -543 0
-8 -544 0
-5 -573 0
-6 -574 0
-7 -575 0
-8 -576 0
-5 -589 0
-6 -590 0
-7 -591 0
-8 -592 0
-5 -677 0
-6 -678 0
-7 -679 0
-8 -680 0
-5 -761 0
-6 -762 0
-7 -763 0
-8 -764 0
-5 -785 0
-6 -786 0
-7 -787 0
-8 -788 0
-5 -833 0
-6 -834 0
-7 -835 0
-8 -836 0
-5 -873 0
-6 -874 0
-7 -875 0
-8 -876 0
-9 -501 0
-10 -502 0
-11 -503 0
-12 -504 0
-9 -529 0
-10 -530 0
-11 -531 0
-12 -532 0
-9 -577 0
-10 -578 0
-11 -579 0
-12 -580 0
-9 -593 0
-10 -594 0
-11 -595 0
-12 -596 0
-9 -617 0
-10 -618 0
-11 -619 0
-12 -620 0
-9 -645 0
-10 -646 0
-11 -647 0
-12 -648 0
-9 -745 0
-10 -746 0
-11 -747 0
-12 -748 0
-9 -765 0
-10 -766 0
-11 -767 0
-12 -768 0
-9 -829 0
-10 -830 0
-11 -831 0
-12 -832 0
-9 -837 0
-10 -838 0
-11 -839 0
-12 -840 0
-13 -501 0
-14 -502 0
-15 -503 0
-16 -504 0
-13 -549 0
-14 -550 0
-15 -551 0
-16 -552 0
-13 -581 0
-14 -582 0
-15 -583 0
-16 -584 0
-13 -597 0
-14 -598 0
-15 -599 0
-16 -600 0
-13 -689 0
-14 -690 0
-15 -691 0
-16 -692 0
-13 -769 0
-14 -770 0
-15 -771 0
-16 -772 0
-13 -833 0
-14 -834 0
-15 -835 0
-16 -836 0
-13 -841 0
-14 -842 0
-15 -843 0
-16 -844 0
-17 -505 0
-18 -506 0
-19 -507 0
-20 -508 0
-17 -537 0
-18 -538 0
-19 -539 0
-20 -540 0
-17 -585 0
-18 -586 0
-19 -587 0
-20 -588 0
-17 -601 0
-18 -602 0
-19 -603 0
-20 -604 0
-17 -657 0
-18 -658 0
-19 -659 0
-20 -660 0
-17 -757 0
-18 -758 0
-19 -759 0
-20 -760 0
-17 -837 0
-18 -838 0
-19 -839 0
-20 -840 0
-17 -845 0
-18 -846 0
-19 -847 0
-20 -848 0
-21 -505 0
-22 -506 0
-23 -507 0
-24 -508 0
-21 -509 0
-22 -510 0
-23 -511 0
-24 -512 0
-21 -557 0
-22 -558 0
-23 -559 0
-24 -560 0
-21 -589 0
-22 -590 0
-23 -591 0
-24 -592 0
-21 -613 0
-22 -614 0
-23 -615 0
-24 -616 0
-21 -629 0
-22 -630 0
-23 -631 0
-24 -632 0
-21 -741 0
-22 -742 0
-23 -743 0
-24 -744 0
-21 -761 0
-22 -762 0
-23 -763 0
-24 -764 0
-21 -841 0
-22 -842 0
-23 -843 0
-24 -844 0
-21 -849 0
-22 -850 0
-23 -851 0
-24 -852 0
-25 -481 0
-26 -482 0
-27 -483 0
-28 -484 0
-25 -485 0
-26 -486 0
-27 -487 0
-28 -488 0
-25 -545 0
-26 -546 0
-27 -547 0
-28 -548 0
-25 -561 0
-26 -562 0
-27 -563 0
-28 -564 0
-25 -593 0
-26 -594 0
-27 -595 0
-28 -596 0
-25 -669 0
-26 -670 0
-27 -671 0
-28 -672 0
-25 -765 0
-26 -766 0
-27 -767 0
-28 -768 0
-25 -773 0
-26 -774 0
-27 -775 0
-28 -776 0
-25 -845 0
-26 -846 0
-27 -847 0
-28 -848 0
-25 -853 0
-26 -854 0
-27 -855 0
-28 -856 0
-29 -469 0
-30 -470 0
-31 -471 0
-32 -472 0
-29 -485 0
-30 -486 0
-31 -487 0
-32 -488 0
-29 -517 0
-30 -518 0
-31 -519 0
-32 -520 0
-29 -565 0
-30 -566 0
-31 -567 0
-32 -568 0
-29 -597 0
-30 -598 0
-31 -599 0
-32 -600 0
-29 -641 0
-30 -642 0
-31 -643 0
-32 -644 0
-29 -769 0
-30 -770 0
-31 -771 0
-32 -772 0
-29 -777 0
-30 -778 0
-31 -779 0
-32 -780 0
-29 -849 0
-30 -850 0
-31 -851 0
-32 -852 0
-29 -857 0
-30 -858 0
-31 -859 0
-32 -860 0
-33 -489 0
-34 -490 0
-35 -491 0
-36 -492 0
-33 -553 0
-34 -554 0
-35 -555 0
-36 -556 0
-33 -569 0
-34 -570 0
-35 -571 0
-36 -572 0
-33 -601 0
-34 -602 0
-35 -603 0
-36 -604 0
-33 -609 0
-34 -610 0
-35 -611 0
-36 -612 0
-33 -681 0
-34 -682 0
-35 -683 0
-36 -684 0
-33 -753 0
-34 -754 0
-35 -755 0
-36 -756 0
-33 -781 0
-34 -782 0
-35 -783 0
-36 -784 0
-33 -853 0
-34 -854 0
-35 -855 0
-36 -856 0
-33 -861 0
-34 -862 0
-35 -863 0
-36 -864 0
-37 -489 0
-38 -490 0
-39 -491 0
-40 -492 0
-37 -525 0
-38 -526 0
-39 -527 0
-40 -528 0
-37 -557 0
-38 -558 0
-39 -559 0
-40 -560 0
-37 -573 0
-38 -574 0
-39 -575 0
-40 -576 0
-37 -653 0
-38 -654 0
-39 -655 0
-40 -656 0
-37 -785 0
-38 -786 0
-39 -787 0
-40 -788 0
-37 -857 0
-38 -858 0
-39 -859 0
-40 -860 0
-37 -865 0
-38 -866 0
-39 -867 0
-40 -868 0
-41 -493 0
-42 -494 0
-43 -495 0
-44 -496 0
-41 -513 0
-42 -514 0
-43 -515 0
-44 -516 0
-41 -561 0
-42 -562 0
-43 -563 0
-44 -564 0
-41 -577 0
-42 -578 0
-43 -579 0
-44 -580 0
-41 -621 0
-42 -622 0
-43 -623 0
-44 -624 0
-41 -773 0
-42 -774 0
-43 -775 0
-44 -776 0
-41 -861 0
-42 -862 0
-43 -863 0
-44 -864 0
-41 -869 0
-42 -870 0
-43 -871 0
-44 -872 0
-45 -493 0
-46 -494 0
-47 -495 0
-48 -496 0
-45 -533 0
-46 -534 0
-47 -535 0
-48 -536 0
-45 -565 0
-46 -566 0
-47 -567 0
-48 -568 0
-45 -581 0
-46 -582 0
-47 -583 0
-48 -584 0
-45 -605 0
-46 -606 0
-47 -607 0
-48 -608 0
-45 -665 0
-46 -666 0
-47 -667 0
-48 -668 0
-45 -749 0
-46 -750 0
-47 -751 0
-48 -752 0
-45 -777 0
-46 -778 0
-47 -779 0
-48 -780 0
-45 -865 0
-46 -866 0
-47 -867 0
-48 -868 0
-45 -873 0
-46 -874 0
-47 -875 0
-48 -876 0
-49 -473 0
-50 -474 0
-51 -475 0
-52 -476 0
-49 -497 0
-50 -498 0
-51 -499 0
-52 -500 0
-49 -521 0
-50 -522 0
-51 -523 0
-52 -524 0
-49 -569 0
-50 -570 0
-51 -571 0
-52 -572 0
-49 -585 0
-50 -586 0
-51 -587 0
-52 -588 0
-49 -633 0
-50 -634 0
-51 -635 0
-52 -636 0
-49 -757 0
-50 -758 0
-51 -759 0
-52 -760 0
-49 -781 0
-50 -782 0
-51 -783 0
-52 -784 0
-49 -829 0
-50 -830 0
-51 -831 0
-52 -832 0
-49 -869 0
-50 -870 0
-51 -871 0
-52 -872 0
-53 -417 0
-54 -418 0
-55 -419 0
-56 -420 0
-53 -421 0
-54 -422 0
-55 -423 0
-56 -424 0
-53 -493 0
-54 -494 0
-55 -495 0
-56 -496 0
-53 -501 0
-54 -502 0
-55 -503 0
-56 -504 0
-53 -521 0
-54 -522 0
-55 -523 0
-56 -524 0
-53 -541 0
-54 -542 0
-55 -543 0
-56 -544 0
-53 -701 0
-54 -702 0
-55 -703 0
-56 -704 0
-53 -729 0
-54 -730 0
-55 -731 0
-56 -732 0
-53 -789 0
-54 -790 0
-55 -791 0
-56 -792 0
-53 -801 0
-54 -802 0
-55 -803 0
-56 -804 0
-53 -833 0
-54 -834 0
-55 -835 0
-56 -836 0
-53 -869 0
-54 -870 0
-55 -871 0
-56 -872 0
-53 -909 0
-54 -910 0
-55 -911 0
-56 -912 0
-53 -953 0
-54 -954 0
-55 -955 0
-56 -956 0
-53 -957 0
-54 -958 0
-55 -959 0
-56 -960 0
-53 -985 0
-54 -986 0
-55 -987 0
-56 -988 0
-57 -425 0
-58 -426 0
-59 -427 0
-60 -428 0
-57 -429 0
-58 -430 0
-59 -431 0
-60 -432 0
-57 -497 0
-58 -498 0
-59 -499 0
-60 -500 0
-57 -505 0
-58 -506 0
-59 -507 0
-60 -508 0
-57 -529 0
-58 -530 0
-59 -531 0
-60 -532 0
-57 -549 0
-58 -550 0
-59 -551 0
-60 -552 0
-57 -709 0
-58 -710 0
-59 -711 0
-60 -712 0
-57 -737 0
-58 -738 0
-59 -739 0
-60 -740 0
-57 -793 0
-58 -794 0
-59 -795 0
-60 -796 0
-57 -829 0
-58 -830 0
-59 -831 0
-60 -832 0
-57 -841 0
-58 -842 0
-59 -843 0
-60 -844 0
-57 -913 0
-58 -914 0
-59 -915 0
-60 -916 0
-57 -917 0
-58 -918 0
-59 -919 0
-60 -920 0
-57 -961 0
-58 -962 0
-59 -963 0
-60 -964 0
-61 -433 0
-62 -434 0
-63 -435 0
-64 -436 0
-61 -437 0
-62 -438 0
-63 -439 0
-64 -440 0
-61 -485 0
-62 -486 0
-63 -487 0
-64 -488 0
-61 -501 0
-62 -502 0
-63 -503 0
-64 -504 0
-61 -509 0
-62 -510 0
-63 -511 0
-64 -512 0
-61 -537 0
-62 -538 0
-63 -539 0
-64 -540 0
-61 -697 0
-62 -698 0
-63 -699 0
-64 -700 0
-61 -717 0
-62 -718 0
-63 -719 0
-64 -720 0
-61 -789 0
-62 -790 0
-63 -791 0
-64 -792 0
-61 -837 0
-62 -838 0
-63 -839 0
-64 -840 0
-61 -849 0
-62 -850 0
-63 -851 0
-64 -852 0
-61 -921 0
-62 -922 0
-63 -923 0
-64 -924 0
-61 -925 0
-62 -926 0
-63 -927 0
-64 -928 0
-61 -965 0
-62 -966 0
-63 -967 0
-64 -968 0
-65 -397 0
-66 -398 0
-67 -399 0
-68 -400 0
-65 -441 0
-66 -442 0
-67 -443 0
-68 -444 0
-65 -489 0
-66 -490 0
-67 -491 0
-68 -492 0
-65 -505 0
-66 -506 0
-67 -507 0
-68 -508 0
-65 -517 0
-66 -518 0
-67 -519 0
-68 -520 0
-65 -545 0
-66 -546 0
-67 -547 0
-68 -548 0
-65 -705 0
-66 -706 0
-67 -707 0
-68 -708 0
-65 -725 0
-66 -726 0
-67 -727 0
-68 -728 0
-65 -793 0
-66 -794 0
-67 -795 0
-68 -796 0
-65 -797 0
-66 -798 0
-67 -799 0
-68 -800 0
-65 -845 0
-66 -846 0
-67 -847 0
-68 -848 0
-65 -857 0
-66 -858 0
-67 -859 0
-68 -860 0
-65 -929 0
-66 -930 0
-67 -931 0
-68 -932 0
-65 -933 0
-66 -934 0
-67 -935 0
-68 -936 0
-65 -969 0
-66 -970 0
-67 -971 0
-68 -972 0
-65 -973 0
-66 -974 0
-67 -975 0
-68 -976 0
-69 -401 0
-70 -402 0
-71 -403 0
-72 -404 0
-69 -405 0
-70 -406 0
-71 -407 0
-72 -408 0
-69 -485 0
-70 -486 0
-71 -487 0
-72 -488 0
-69 -493 0
-70 -494 0
-71 -495 0
-72 -496 0
-69 -525 0
-70 -526 0
-71 -527 0
-72 -528 0
-69 -553 0
-70 -554 0
-71 -555 0
-72 -556 0
-69 -713 0
-70 -714 0
-71 -715 0
-72 -716 0
-69 -733 0
-70 -734 0
-71 -735 0
-72 -736 0
-69 -801 0
-70 -802 0
-71 -803 0
-72 -804 0
-69 -853 0
-70 -854 0
-71 -855 0
-72 -856 0
-69 -865 0
-70 -866 0
-71 -867 0
-72 -868 0
-69 -937 0
-70 -938 0
-71 -939 0
-72 -940 0
-69 -941 0
-70 -942 0
-71 -943 0
-72 -944 0
-69 -977 0
-70 -978 0
-71 -979 0
-72 -980 0
-73 -409 0
-74 -410 0
-75 -411 0
-76 -412 0
-73 -413 0
-74 -414 0
-75 -415 0
-76 -416 0
-73 -489 0
-74 -490 0
-75 -491 0
-76 -492 0
-73 -497 0
-74 -498 0
-75 -499 0
-76 -500 0
-73 -513 0
-74 -514 0
-75 -515 0
-76 -516 0
-73 -533 0
-74 -534 0
-75 -535 0
-76 -536 0
-73 -693 0
-74 -694 0
-75 -695 0
-76 -696 0
-73 -721 0
-74 -722 0
-75 -723 0
-76 -724 0
-73 -797 0
-74 -798 0
-75 -799 0
-76 -800 0
-73 -861 0
-74 -862 0
-75 -863 0
-76 -864 0
-73 -873 0
-74 -874 0
-75 -875 0
-76 -876 0
-73 -945 0
-74 -946 0
-75 -947 0
-76 -948 0
-73 -949 0
-74 -950 0
-75 -951 0
-76 -952 0
-73 -981 0
-74 -982 0
-75 -983 0
-76 -984 0
-77 -353 0
-78 -354 0
-79 -355 0
-80 -356 0
-77 -421 0
-78 -422 0
-79 -423 0
-80 -424 0
-77 -433 0
-78 -434 0
-79 -435 0
-80 -436 0
-77 -577 0
-78 -578 0
-79 -579 0
-80 -580 0
-77 -597 0
-78 -598 0
-79 -599 0
-80 -600 0
-77 -877 0
-78 -878 0
-79 -879 0
-80 -880 0
-77 -909 0
-78 -910 0
-79 -911 0
-80 -912 0
-77 -921 0
-78 -922 0
-79 -923 0
-80 -924 0
-77 -993 0
-78 -994 0
-79 -995 0
-80 -996 0
-77 -997 0
-78 -998 0
-79 -999 0
-80 -1000 0
-81 -357 0
-82 -358 0
-83 -359 0
-84 -360 0
-81 -429 0
-82 -430 0
-83 -431 0
-84 -432 0
-81 -441 0
-82 -442 0
-83 -443 0
-84 -444 0
-81 -557 0
-82 -558 0
-83 -559 0
-84 -560 0
-81 -585 0
-82 -586 0
-83 -587 0
-84 -588 0
-81 -889 0
-82 -890 0
-83 -891 0
-84 -892 0
-81 -917 0
-82 -918 0
-83 -919 0
-84 -920 0
-81 -929 0
-82 -930 0
-83 -931 0
-84 -932 0
-81 -1001 0
-82 -1002 0
-83 -1003 0
-84 -1004 0
-81 -1005 0
-82 -1006 0
-83 -1007 0
-84 -1008 0
-85 -337 0
-86 -338 0
-87 -339 0
-88 -340 0
-85 -397 0
-86 -398 0
-87 -399 0
-88 -400 0
-85 -409 0
-86 -410 0
-87 -411 0
-88 -412 0
-85 -573 0
-86 -574 0
-87 -575 0
-88 -576 0
-85 -601 0
-86 -602 0
-87 -603 0
-88 -604 0
-85 -893 0
-86 -894 0
-87 -895 0
-88 -896 0
-85 -933 0
-86 -934 0
-87 -935 0
-88 -936 0
-85 -945 0
-86 -946 0
-87 -947 0
-88 -948 0
-85 -1017 0
-86 -1018 0
-87 -1019 0
-88 -1020 0
-85 -1021 0
-86 -1022 0
-87 -1023 0
-88 -1024 0
-89 -341 0
-90 -342 0
-91 -343 0
-92 -344 0
-89 -405 0
-90 -406 0
-91 -407 0
-92 -408 0
-89 -417 0
-90 -418 0
-91 -419 0
-92 -420 0
-89 -561 0
-90 -562 0
-91 -563 0
-92 -564 0
-89 -581 0
-90 -582 0
-91 -583 0
-92 -584 0
-89 -905 0
-90 -906 0
-91 -907 0
-92 -908 0
-89 -941 0
-90 -942 0
-91 -943 0
-92 -944 0
-89 -953 0
-90 -954 0
-91 -955 0
-92 -956 0
-89 -1025 0
-90 -1026 0
-91 -1027 0
-92 -1028 0
-89 -1029 0
-90 -1030 0
-91 -1031 0
-92 -1032 0
-93 -321 0
-94 -322 0
-95 -323 0
-96 -324 0
-93 -349 0
-94 -350 0
-95 -351 0
-96 -352 0
-93 -353 0
-94 -354 0
-95 -355 0
-96 -356 0
-93 -385 0
-94 -386 0
-95 -387 0
-96 -388 0
-93 -417 0
-94 -418 0
-95 -419 0
-96 -420 0
-93 -429 0
-94 -430 0
-95 -431 0
-96 -432 0
-93 -453 0
-94 -454 0
-95 -455 0
-96 -456 0
-93 -461 0
-94 -462 0
-95 -463 0
-96 -464 0
-93 -525 0
-94 -526 0
-95 -527 0
-96 -528 0
-93 -545 0
-94 -546 0
-95 -547 0
-96 -548 0
-93 -617 0
-94 -618 0
-95 -619 0
-96 -620 0
-93 -705 0
-94 -706 0
-95 -707 0
-96 -708 0
-93 -733 0
-94 -734 0
-95 -735 0
-96 -736 0
-93 -765 0
-94 -766 0
-95 -767 0
-96 -768 0
-93 -785 0
-94 -786 0
-95 -787 0
-96 -788 0
-93 -809 0
-94 -810 0
-95 -811 0
-96 -812 0
-93 -825 0
-94 -826 0
-95 -827 0
-96 -828 0
-93 -905 0
-94 -906 0
-95 -907 0
-96 -908 0
-93 -985 0
-94 -986 0
-95 -987 0
-96 -988 0
-93 -989 0
-94 -990 0
-95 -991 0
-96 -992 0
-93 -993 0
-94 -994 0
-95 -995 0
-96 -996 0
-93 -1037 0
-94 -1038 0
-95 -1039 0
-96 -1040 0
-93 -1041 0
-94 -1042 0
-95 -1043 0
-96 -1044 0
-97 -325 0
-98 -326 0
-99 -327 0
-100 -328 0
-97 -381 0
-98 -382 0
-99 -383 0
-100 -384 0
-97 -393 0
-98 -394 0
-99 -395 0
-100 -396 0
-97 -425 0
-98 -426 0
-99 -427 0
-100 -428 0
-97 -437 0
-98 -438 0
-99 -439 0
-100 -440 0
-97 -457 0
-98 -458 0
-99 -459 0
-100 -460 0
-97 -465 0
-98 -466 0
-99 -467 0
-100 -468 0
-97 -533 0
-98 -534 0
-99 -535 0
-100 -536 0
-97 -553 0
-98 -554 0
-99 -555 0
-100 -556 0
-97 -693 0
-98 -694 0
-99 -695 0
-100 -696 0
-97 -713 0
-98 -714 0
-99 -715 0
-100 -716 0
-97 -805 0
-98 -806 0
-99 -807 0
-100 -808 0
-97 -813 0
-98 -814 0
-99 -815 0
-100 -816 0
-97 -881 0
-98 -882 0
-99 -883 0
-100 -884 0
-97 -885 0
-98 -886 0
-99 -887 0
-100 -888 0
-97 -961 0
-98 -962 0
-99 -963 0
-100 -964 0
-97 -965 0
-98 -966 0
-99 -967 0
-100 -968 0
-97 -997 0
-98 -998 0
-99 -999 0
-100 -1000 0
-97 -1001 0
-98 -1002 0
-99 -1003 0
-100 -1004 0
-97 -1045 0
-98 -1046 0
-99 -1047 0
-100 -1048 0
-97 -1049 0
-98 -1050 0
-99 -1051 0
-100 -1052 0
-97 -1085 0
-98 -1086 0
-99 -1087 0
-100 -1088 0
-101 -329 0
-102 -330 0
-103 -331 0
-104 -332 0
-101 -357 0
-102 -358 0
-103 -359 0
-104 -360 0
-101 -361 0
-102 -362 0
-103 -363 0
-104 -364 0
-101 -389 0
-102 -390 0
-103 -391 0
-104 -392 0
-101 -397 0
-102 -398 0
-103 -399 0
-104 -400 0
-101 -433 0
-102 -434 0
-103 -435 0
-104 -436 0
-101 -445 0
-102 -446 0
-103 -447 0
-104 -448 0
-101 -461 0
-102 -462 0
-103 -463 0
-104 -464 0
-101 -513 0
-102 -514 0
-103 -515 0
-104 -516 0
-101 -541 0
-102 -542 0
-103 -543 0
-104 -544 0
-101 -613 0
-102 -614 0
-103 -615 0
-104 -616 0
-101 -701 0
-102 -702 0
-103 -703 0
-104 -704 0
-101 -721 0
-102 -722 0
-103 -723 0
-104 -724 0
-101 -761 0
-102 -762 0
-103 -763 0
-104 -764 0
-101 -773 0
-102 -774 0
-103 -775 0
-104 -776 0
-101 -809 0
-102 -810 0
-103 -811 0
-104 -812 0
-101 -817 0
-102 -818 0
-103 -819 0
-104 -820 0
-101 -893 0
-102 -894 0
-103 -895 0
-104 -896 0
-101 -973 0
-102 -974 0
-103 -975 0
-104 -976 0
-101 -1005 0
-102 -1006 0
-103 -1007 0
-104 -1008 0
-101 -1009 0
-102 -1010 0
-103 -1011 0
-104 -1012 0
-101 -1053 0
-102 -1054 0
-103 -1055 0
-104 -1056 0
-101 -1057 0
-102 -1058 0
-103 -1059 0
-104 -1060 0
-105 -309 0
-106 -310 0
-107 -311 0
-108 -312 0
-105 -333 0
-106 -334 0
-107 -335 0
-108 -336 0
-105 -337 0
-106 -338 0
-107 -339 0
-108 -340 0
-105 -369 0
-106 -370 0
-107 -371 0
-108 -372 0
-105 -405 0
-106 -406 0
-107 -407 0
-108 -408 0
-105 -441 0
-106 -442 0
-107 -443 0
-108 -444 0
-105 -449 0
-106 -450 0
-107 -451 0
-108 -452 0
-105 -465 0
-106 -466 0
-107 -467 0
-108 -468 0
-105 -521 0
-106 -522 0
-107 -523 0
-108 -524 0
-105 -549 0
-106 -550 0
-107 -551 0
-108 -552 0
-105 -609 0
-106 -610 0
-107 -611 0
-108 -612 0
-105 -709 0
-106 -710 0
-107 -711 0
-108 -712 0
-105 -729 0
-106 -730 0
-107 -731 0
-108 -732 0
-105 -769 0
-106 -770 0
-107 -771 0
-108 -772 0
-105 -781 0
-106 -782 0
-107 -783 0
-108 -784 0
-105 -813 0
-106 -814 0
-107 -815 0
-108 -816 0
-105 -821 0
-106 -822 0
-107 -823 0
-108 -824 0
-105 -889 0
-106 -890 0
-107 -891 0
-108 -892 0
-105 -969 0
-106 -970 0
-107 -971 0
-108 -972 0
-105 -1013 0
-106 -1014 0
-107 -1015 0
-108 -1016 0
-105 -1017 0
-106 -1018 0
-107 -1019 0
-108 -1020 0
-105 -1061 0
-106 -1062 0
-107 -1063 0
-108 -1064 0
-105 -1065 0
-106 -1066 0
-107 -1067 0
-108 -1068 0
-109 -313 0
-110 -314 0
-111 -315 0
-112 -316 0
-109 -365 0
-110 -366 0
-111 -367 0
-112 -368 0
-109 -377 0
-110 -378 0
-111 -379 0
-112 -380 0
-109 -401 0
-110 -402 0
-111 -403 0
-112 -404 0
-109 -413 0
-110 -414 0
-111 -415 0
-112 -416 0
-109 -445 0
-110 -446 0
-111 -447 0
-112 -448 0
-109 -453 0
-110 -454 0
-111 -455 0
-112 -456 0
-109 -509 0
-110 -510 0
-111 -511 0
-112 -512 0
-109 -529 0
-110 -530 0
-111 -531 0
-112 -532 0
-109 -717 0
-110 -718 0
-111 -719 0
-112 -720 0
-109 -737 0
-110 -738 0
-111 -739 0
-112 -740 0
-109 -817 0
-110 -818 0
-111 -819 0
-112 -820 0
-109 -825 0
-110 -826 0
-111 -827 0
-112 -828 0
-109 -897 0
-110 -898 0
-111 -899 0
-112 -900 0
-109 -901 0
-110 -902 0
-111 -903 0
-112 -904 0
-109 -977 0
-110 -978 0
-111 -979 0
-112 -980 0
-109 -981 0
-110 -982 0
-111 -983 0
-112 -984 0
-109 -1021 0
-110 -1022 0
-111 -1023 0
-112 -1024 0
-109 -1025 0
-110 -1026 0
-111 -1027 0
-112 -1028 0
-109 -1069 0
-110 -1070 0
-111 -1071 0
-112 -1072 0
-109 -1073 0
-110 -1074 0
-111 -1075 0
-112 -1076 0
-109 -1089 0
-110 -1090 0
-111 -1091 0
-112 -1092 0
-113 -317 0
-114 -318 0
-115 -319 0
-116 -320 0
-113 -341 0
-114 -342 0
-115 -343 0
-116 -344 0
-113 -345 0
-114 -346 0
-115 -347 0
-116 -348 0
-113 -373 0
-114 -374 0
-115 -375 0
-116 -376 0
-113 -409 0
-114 -410 0
-115 -411 0
-116 -412 0
-113 -421 0
-114 -422 0
-115 -423 0
-116 -424 0
-113 -449 0
-114 -450 0
-115 -451 0
-116 -452 0
-113 -457 0
-114 -458 0
-115 -459 0
-116 -460 0
-113 -517 0
-114 -518 0
-115 -519 0
-116 -520 0
-113 -537 0
-114 -538 0
-115 -539 0
-116 -540 0
-113 -605 0
-114 -606 0
-115 -607 0
-116 -608 0
-113 -697 0
-114 -698 0
-115 -699 0
-116 -700 0
-113 -725 0
-114 -726 0
-115 -727 0
-116 -728 0
-113 -757 0
-114 -758 0
-115 -759 0
-116 -760 0
-113 -777 0
-114 -778 0
-115 -779 0
-116 -780 0
-113 -805 0
-114 -806 0
-115 -807 0
-116 -808 0
-113 -821 0
-114 -822 0
-115 -823 0
-116 -824 0
-113 -877 0
-114 -878 0
-115 -879 0
-116 -880 0
-113 -957 0
-114 -958 0
-115 -959 0
-116 -960 0
-113 -1029 0
-114 -1030 0
-115 -1031 0
-116 -1032 0
-113 -1033 0
-114 -1034 0
-115 -1035 0
-116 -1036 0
-113 -1077 0
-114 -1078 0
-115 -1079 0
-116 -1080 0
-113 -1081 0
-114 -1082 0
-115 -1083 0
-116 -1084 0
-117 -285 0
-118 -286 0
-119 -287 0
-120 -288 0
-117 -377 0
-118 -378 0
-119 -379 0
-120 -380 0
-117 -385 0
-118 -386 0
-119 -387 0
-120 -388 0
-117 -569 0
-118 -570 0
-119 -571 0
-120 -572 0
-117 -593 0
-118 -594 0
-119 -595 0
-120 -596 0
-117 -837 0
-118 -838 0
-119 -839 0
-120 -840 0
-117 -869 0
-118 -870 0
-119 -871 0
-120 -872 0
-117 -901 0
-118 -902 0
-119 -903 0
-120 -904 0
-117 -1041 0
-118 -1042 0
-119 -1043 0
-120 -1044 0
-117 -1093 0
-118 -1094 0
-119 -1095 0
-120 -1096 0
-117 -1141 0
-118 -1142 0
-119 -1143 0
-120 -1144 0
-121 -289 0
-122 -290 0
-123 -291 0
-124 -292 0
-121 -389 0
-122 -390 0
-123 -391 0
-124 -392 0
-121 -573 0
-122 -574 0
-123 -575 0
-124 -576 0
-121 -597 0
-122 -598 0
-123 -599 0
-124 -600 0
-121 -841 0
-122 -842 0
-123 -843 0
-124 -844 0
-121 -873 0
-122 -874 0
-123 -875 0
-124 -876 0
-121 -1037 0
-122 -1038 0
-123 -1039 0
-124 -1040 0
-121 -1097 0
-122 -1098 0
-123 -1099 0
-124 -1100 0
-121 -1145 0
-122 -1146 0
-123 -1147 0
-124 -1148 0
-125 -293 0
-126 -294 0
-127 -295 0
-128 -296 0
-125 -393 0
-126 -394 0
-127 -395 0
-128 -396 0
-125 -473 0
-126 -474 0
-127 -475 0
-128 -476 0
-125 -577 0
-126 -578 0
-127 -579 0
-128 -580 0
-125 -601 0
-126 -602 0
-127 -603 0
-128 -604 0
-125 -829 0
-126 -830 0
-127 -831 0
-128 -832 0
-125 -845 0
-126 -846 0
-127 -847 0
-128 -848 0
-125 -877 0
-126 -878 0
-127 -879 0
-128 -880 0
-125 -1049 0
-126 -1050 0
-127 -1051 0
-128 -1052 0
-125 -1101 0
-126 -1102 0
-127 -1103 0
-128 -1104 0
-125 -1145 0
-126 -1146 0
-127 -1147 0
-128 -1148 0
-129 -297 0
-130 -298 0
-131 -299 0
-132 -300 0
-129 -381 0
-130 -382 0
-131 -383 0
-132 -384 0
-129 -469 0
-130 -470 0
-131 -471 0
-132 -472 0
-129 -557 0
-130 -558 0
-131 -559 0
-132 -560 0
-129 -581 0
-130 -582 0
-131 -583 0
-132 -584 0
-129 -833 0
-130 -834 0
-131 -835 0
-132 -836 0
-129 -849 0
-130 -850 0
-131 -851 0
-132 -852 0
-129 -889 0
-130 -890 0
-131 -891 0
-132 -892 0
-129 -1045 0
-130 -1046 0
-131 -1047 0
-132 -1048 0
-129 -1105 0
-130 -1106 0
-131 -1107 0
-132 -1108 0
-129 -1149 0
-130 -1150 0
-131 -1151 0
-132 -1152 0
-133 -301 0
-134 -302 0
-135 -303 0
-136 -304 0
-133 -385 0
-134 -386 0
-135 -387 0
-136 -388 0
-133 -561 0
-134 -562 0
-135 -563 0
-136 -564 0
-133 -585 0
-134 -586 0
-135 -587 0
-136 -588 0
-133 -837 0
-134 -838 0
-135 -839 0
-136 -840 0
-133 -853 0
-134 -854 0
-135 -855 0
-136 -856 0
-133 -1057 0
-134 -1058 0
-135 -1059 0
-136 -1060 0
-133 -1109 0
-134 -1110 0
-135 -1111 0
-136 -1112 0
-133 -1149 0
-134 -1150 0
-135 -1151 0
-136 -1152 0
-137 -305 0
-138 -306 0
-139 -307 0
-140 -308 0
-137 -365 0
-138 -366 0
-139 -367 0
-140 -368 0
-137 -389 0
-138 -390 0
-139 -391 0
-140 -392 0
-137 -565 0
-138 -566 0
-139 -567 0
-140 -568 0
-137 -589 0
-138 -590 0
-139 -591 0
-140 -592 0
-137 -841 0
-138 -842 0
-139 -843 0
-140 -844 0
-137 -857 0
-138 -858 0
-139 -859 0
-140 -860 0
-137 -897 0
-138 -898 0
-139 -899 0
-140 -900 0
-137 -1053 0
-138 -1054 0
-139 -1055 0
-140 -1056 0
-137 -1113 0
-138 -1114 0
-139 -1115 0
-140 -1116 0
-137 -1153 0
-138 -1154 0
-139 -1155 0
-140 -1156 0
-141 -261 0
-142 -262 0
-143 -263 0
-144 -264 0
-141 -369 0
-142 -370 0
-143 -371 0
-144 -372 0
-141 -393 0
-142 -394 0
-143 -395 0
-144 -396 0
-141 -569 0
-142 -570 0
-143 -571 0
-144 -572 0
-141 -593 0
-142 -594 0
-143 -595 0
-144 -596 0
-141 -845 0
-142 -846 0
-143 -847 0
-144 -848 0
-141 -861 0
-142 -862 0
-143 -863 0
-144 -864 0
-141 -885 0
-142 -886 0
-143 -887 0
-144 -888 0
-141 -1065 0
-142 -1066 0
-143 -1067 0
-144 -1068 0
-141 -1117 0
-142 -1118 0
-143 -1119 0
-144 -1120 0
-141 -1153 0
-142 -1154 0
-143 -1155 0
-144 -1156 0
-145 -265 0
-146 -266 0
-147 -267 0
-148 -268 0
-145 -373 0
-146 -374 0
-147 -375 0
-148 -376 0
-145 -573 0
-146 -574 0
-147 -575 0
-148 -576 0
-145 -597 0
-146 -598 0
-147 -599 0
-148 -600 0
-145 -849 0
-146 -850 0
-147 -851 0
-148 -852 0
-145 -865 0
-146 -866 0
-147 -867 0
-148 -868 0
-145 -1061 0
-146 -1062 0
-147 -1063 0
-148 -1064 0
-145 -1121 0
-146 -1122 0
-147 -1123 0
-148 -1124 0
-145 -1157 0
-146 -1158 0
-147 -1159 0
-148 -1160 0
-149 -269 0
-150 -270 0
-151 -271 0
-152 -272 0
-149 -377 0
-150 -378 0
-151 -379 0
-152 -380 0
-149 -481 0
-150 -482 0
-151 -483 0
-152 -484 0
-149 -577 0
-150 -578 0
-151 -579 0
-152 -580 0
-149 -601 0
-150 -602 0
-151 -603 0
-152 -604 0
-149 -853 0
-150 -854 0
-151 -855 0
-152 -856 0
-149 -869 0
-150 -870 0
-151 -871 0
-152 -872 0
-149 -893 0
-150 -894 0
-151 -895 0
-152 -896 0
-149 -1073 0
-150 -1074 0
-151 -1075 0
-152 -1076 0
-149 -1125 0
-150 -1126 0
-151 -1127 0
-152 -1128 0
-149 -1157 0
-150 -1158 0
-151 -1159 0
-152 -1160 0
-153 -273 0
-154 -274 0
-155 -275 0
-156 -276 0
-153 -365 0
-154 -366 0
-155 -367 0
-156 -368 0
-153 -477 0
-154 -478 0
-155 -479 0
-156 -480 0
-153 -557 0
-154 -558 0
-155 -559 0
-156 -560 0
-153 -581 0
-154 -582 0
-155 -583 0
-156 -584 0
-153 -857 0
-154 -858 0
-155 -859 0
-156 -860 0
-153 -873 0
-154 -874 0
-155 -875 0
-156 -876 0
-153 -905 0
-154 -906 0
-155 -907 0
-156 -908 0
-153 -1069 0
-154 -1070 0
-155 -1071 0
-156 -1072 0
-153 -1129 0
-154 -1130 0
-155 -1131 0
-156 -1132 0
-153 -1161 0
-154 -1162 0
-155 -1163 0
-156 -1164 0
-157 -277 0
-158 -278 0
-159 -279 0
-160 -280 0
-157 -369 0
-158 -370 0
-159 -371 0
-160 -372 0
-157 -561 0
-158 -562 0
-159 -563 0
-160 -564 0
-157 -585 0
-158 -586 0
-159 -587 0
-160 -588 0
-157 -829 0
-158 -830 0
-159 -831 0
-160 -832 0
-157 -861 0
-158 -862 0
-159 -863 0
-160 -864 0
-157 -1081 0
-158 -1082 0
-159 -1083 0
-160 -1084 0
-157 -1133 0
-158 -1134 0
-159 -1135 0
-160 -1136 0
-157 -1161 0
-158 -1162 0
-159 -1163 0
-160 -1164 0
-161 -281 0
-162 -282 0
-163 -283 0
-164 -284 0
-161 -373 0
-162 -374 0
-163 -375 0
-164 -376 0
-161 -381 0
-162 -382 0
-163 -383 0
-164 -384 0
-161 -565 0
-162 -566 0
-163 -567 0
-164 -568 0
-161 -589 0
-162 -590 0
-163 -591 0
-164 -592 0
-161 -833 0
-162 -834 0
-163 -835 0
-164 -836 0
-161 -865 0
-162 -866 0
-163 -867 0
-164 -868 0
-161 -881 0
-162 -882 0
-163 -883 0
-164 -884 0
-161 -1077 0
-162 -1078 0
-163 -1079 0
-164 -1080 0
-161 -1137 0
-162 -1138 0
-163 -1139 0
-164 -1140 0
-161 -1141 0
-162 -1142 0
-163 -1143 0
-164 -1144 0
-165 -281 0
-166 -282 0
-167 -283 0
-168 -284 0
-165 -289 0
-166 -290 0
-167 -291 0
-168 -292 0
-165 -461 0
-166 -462 0
-167 -463 0
-168 -464 0
-165 -637 0
-166 -638 0
-167 -639 0
-168 -640 0
-165 -677 0
-166 -678 0
-167 -679 0
-168 -680 0
-165 -761 0
-166 -762 0
-167 -763 0
-168 -764 0
-165 -949 0
-166 -950 0
-167 -951 0
-168 -952 0
-165 -1097 0
-166 -1098 0
-167 -1099 0
-168 -1100 0
-165 -1165 0
-166 -1166 0
-167 -1167 0
-168 -1168 0
-169 -285 0
-170 -286 0
-171 -287 0
-172 -288 0
-169 -293 0
-170 -294 0
-171 -295 0
-172 -296 0
-169 -453 0
-170 -454 0
-171 -455 0
-172 -456 0
-169 -645 0
-170 -646 0
-171 -647 0
-172 -648 0
-169 -685 0
-170 -686 0
-171 -687 0
-172 -688 0
-169 -921 0
-170 -922 0
-171 -923 0
-172 -924 0
-169 -1093 0
-170 -1094 0
-171 -1095 0
-172 -1096 0
-169 -1169 0
-170 -1170 0
-171 -1171 0
-172 -1172 0
-173 -289 0
-174 -290 0
-175 -291 0
-176 -292 0
-173 -297 0
-174 -298 0
-175 -299 0
-176 -300 0
-173 -465 0
-174 -466 0
-175 -467 0
-176 -468 0
-173 -649 0
-174 -650 0
-175 -651 0
-176 -652 0
-173 -689 0
-174 -690 0
-175 -691 0
-176 -692 0
-173 -769 0
-174 -770 0
-175 -771 0
-176 -772 0
-173 -909 0
-174 -910 0
-175 -911 0
-176 -912 0
-173 -1105 0
-174 -1106 0
-175 -1107 0
-176 -1108 0
-173 -1173 0
-174 -1174 0
-175 -1175 0
-176 -1176 0
-177 -293 0
-178 -294 0
-179 -295 0
-180 -296 0
-177 -301 0
-178 -302 0
-179 -303 0
-180 -304 0
-177 -457 0
-178 -458 0
-179 -459 0
-180 -460 0
-177 -625 0
-178 -626 0
-179 -627 0
-180 -628 0
-177 -657 0
-178 -658 0
-179 -659 0
-180 -660 0
-177 -757 0
-178 -758 0
-179 -759 0
-180 -760 0
-177 -929 0
-178 -930 0
-179 -931 0
-180 -932 0
-177 -1101 0
-178 -1102 0
-179 -1103 0
-180 -1104 0
-177 -1177 0
-178 -1178 0
-179 -1179 0
-180 -1180 0
-181 -297 0
-182 -298 0
-183 -299 0
-184 -300 0
-181 -305 0
-182 -306 0
-183 -307 0
-184 -308 0
-181 -445 0
-182 -446 0
-183 -447 0
-184 -448 0
-181 -629 0
-182 -630 0
-183 -631 0
-184 -632 0
-181 -661 0
-182 -662 0
-183 -663 0
-184 -664 0
-181 -917 0
-182 -918 0
-183 -919 0
-184 -920 0
-181 -1113 0
-182 -1114 0
-183 -1115 0
-184 -1116 0
-181 -1181 0
-182 -1182 0
-183 -1183 0
-184 -1184 0
-185 -261 0
-186 -262 0
-187 -263 0
-188 -264 0
-185 -301 0
-186 -302 0
-187 -303 0
-188 -304 0
-185 -461 0
-186 -462 0
-187 -463 0
-188 -464 0
-185 -637 0
-186 -638 0
-187 -639 0
-188 -640 0
-185 -669 0
-186 -670 0
-187 -671 0
-188 -672 0
-185 -765 0
-186 -766 0
-187 -767 0
-188 -768 0
-185 -937 0
-186 -938 0
-187 -939 0
-188 -940 0
-185 -1109 0
-186 -1110 0
-187 -1111 0
-188 -1112 0
-185 -1185 0
-186 -1186 0
-187 -1187 0
-188 -1188 0
-189 -265 0
-190 -266 0
-191 -267 0
-192 -268 0
-189 -305 0
-190 -306 0
-191 -307 0
-192 -308 0
-189 -449 0
-190 -450 0
-191 -451 0
-192 -452 0
-189 -641 0
-190 -642 0
-191 -643 0
-192 -644 0
-189 -673 0
-190 -674 0
-191 -675 0
-192 -676 0
-189 -777 0
-190 -778 0
-191 -779 0
-192 -780 0
-189 -925 0
-190 -926 0
-191 -927 0
-192 -928 0
-189 -1121 0
-190 -1122 0
-191 -1123 0
-192 -1124 0
-189 -1189 0
-190 -1190 0
-191 -1191 0
-192 -1192 0
-193 -261 0
-194 -262 0
-195 -263 0
-196 -264 0
-193 -269 0
-194 -270 0
-195 -271 0
-196 -272 0
-193 -465 0
-194 -466 0
-195 -467 0
-196 -468 0
-193 -649 0
-194 -650 0
-195 -651 0
-196 -652 0
-193 -681 0
-194 -682 0
-195 -683 0
-196 -684 0
-193 -945 0
-194 -946 0
-195 -947 0
-196 -948 0
-193 -1117 0
-194 -1118 0
-195 -1119 0
-196 -1120 0
-193 -1193 0
-194 -1194 0
-195 -1195 0
-196 -1196 0
-197 -265 0
-198 -266 0
-199 -267 0
-200 -268 0
-197 -273 0
-198 -274 0
-199 -275 0
-200 -276 0
-197 -453 0
-198 -454 0
-199 -455 0
-200 -456 0
-197 -653 0
-198 -654 0
-199 -655 0
-200 -656 0
-197 -685 0
-198 -686 0
-199 -687 0
-200 -688 0
-197 -785 0
-198 -786 0
-199 -787 0
-200 -788 0
-197 -933 0
-198 -934 0
-199 -935 0
-200 -936 0
-197 -1129 0
-198 -1130 0
-199 -1131 0
-200 -1132 0
-197 -1197 0
-198 -1198 0
-199 -1199 0
-200 -1200 0
-201 -269 0
-202 -270 0
-203 -271 0
-204 -272 0
-201 -277 0
-202 -278 0
-203 -279 0
-204 -280 0
-201 -445 0
-202 -446 0
-203 -447 0
-204 -448 0
-201 -621 0
-202 -622 0
-203 -623 0
-204 -624 0
-201 -661 0
-202 -662 0
-203 -663 0
-204 -664 0
-201 -773 0
-202 -774 0
-203 -775 0
-204 -776 0
-201 -953 0
-202 -954 0
-203 -955 0
-204 -956 0
-201 -1125 0
-202 -1126 0
-203 -1127 0
-204 -1128 0
-201 -1201 0
-202 -1202 0
-203 -1203 0
-204 -1204 0
-205 -273 0
-206 -274 0
-207 -275 0
-208 -276 0
-205 -281 0
-206 -282 0
-207 -283 0
-208 -284 0
-205 -457 0
-206 -458 0
-207 -459 0
-208 -460 0
-205 -625 0
-206 -626 0
-207 -627 0
-208 -628 0
-205 -665 0
-206 -666 0
-207 -667 0
-208 -668 0
-205 -941 0
-206 -942 0
-207 -943 0
-208 -944 0
-205 -1137 0
-206 -1138 0
-207 -1139 0
-208 -1140 0
-205 -1205 0
-206 -1206 0
-207 -1207 0
-208 -1208 0
-209 -277 0
-210 -278 0
-211 -279 0
-212 -280 0
-209 -285 0
-210 -286 0
-211 -287 0
-212 -288 0
-209 -449 0
-210 -450 0
-211 -451 0
-212 -452 0
-209 -633 0
-210 -634 0
-211 -635 0
-212 -636 0
-209 -673 0
-210 -674 0
-211 -675 0
-212 -676 0
-209 -781 0
-210 -782 0
-211 -783 0
-212 -784 0
-209 -913 0
-210 -914 0
-211 -915 0
-212 -916 0
-209 -1133 0
-210 -1134 0
-211 -1135 0
-212 -1136 0
-209 -1209 0
-210 -1210 0
-211 -1211 0
-212 -1212 0
-213 -241 0
-214 -242 0
-215 -243 0
-216 -244 0
-213 -281 0
-214 -282 0
-215 -283 0
-216 -284 0
-213 -325 0
-214 -326 0
-215 -327 0
-216 -328 0
-213 -433 0
-214 -434 0
-215 -435 0
-216 -436 0
-213 -493 0
-214 -494 0
-215 -495 0
-216 -496 0
-213 -733 0
-214 -734 0
-215 -735 0
-216 -736 0
-213 -809 0
-214 -810 0
-215 -811 0
-216 -812 0
-213 -953 0
-214 -954 0
-215 -955 0
-216 -956 0
-213 -997 0
-214 -998 0
-215 -999 0
-216 -1000 0
-213 -1141 0
-214 -1142 0
-215 -1143 0
-216 -1144 0
-213 -1169 0
-214 -1170 0
-215 -1171 0
-216 -1172 0
-213 -1217 0
-214 -1218 0
-215 -1219 0
-216 -1220 0
-217 -237 0
-218 -238 0
-219 -239 0
-220 -240 0
-217 -293 0
-218 -294 0
-219 -295 0
-220 -296 0
-217 -317 0
-218 -318 0
-219 -319 0
-220 -320 0
-217 -413 0
-218 -414 0
-219 -415 0
-220 -416 0
-217 -505 0
-218 -506 0
-219 -507 0
-220 -508 0
-217 -705 0
-218 -706 0
-219 -707 0
-220 -708 0
-217 -825 0
-218 -826 0
-219 -827 0
-220 -828 0
-217 -917 0
-218 -918 0
-219 -919 0
-220 -920 0
-217 -1033 0
-218 -1034 0
-219 -1035 0
-220 -1036 0
-217 -1145 0
-218 -1146 0
-219 -1147 0
-220 -1148 0
-217 -1165 0
-218 -1166 0
-219 -1167 0
-220 -1168 0
-217 -1213 0
-218 -1214 0
-219 -1215 0
-220 -1216 0
-221 -249 0
-222 -250 0
-223 -251 0
-224 -252 0
-221 -289 0
-222 -290 0
-223 -291 0
-224 -292 0
-221 -329 0
-222 -330 0
-223 -331 0
-224 -332 0
-221 -441 0
-222 -442 0
-223 -443 0
-224 -444 0
-221 -497 0
-222 -498 0
-223 -499 0
-224 -500 0
-221 -693 0
-222 -694 0
-223 -695 0
-224 -696 0
-221 -813 0
-222 -814 0
-223 -815 0
-224 -816 0
-221 -913 0
-222 -914 0
-223 -915 0
-224 -916 0
-221 -1005 0
-222 -1006 0
-223 -1007 0
-224 -1008 0
-221 -1145 0
-222 -1146 0
-223 -1147 0
-224 -1148 0
-221 -1177 0
-222 -1178 0
-223 -1179 0
-224 -1180 0
-221 -1225 0
-222 -1226 0
-223 -1227 0
-224 -1228 0
-225 -245 0
-226 -246 0
-227 -247 0
-228 -248 0
-225 -301 0
-226 -302 0
-227 -303 0
-228 -304 0
-225 -321 0
-226 -322 0
-227 -323 0
-228 -324 0
-225 -421 0
-226 -422 0
-227 -423 0
-228 -424 0
-225 -485 0
-226 -486 0
-227 -487 0
-228 -488 0
-225 -713 0
-226 -714 0
-227 -715 0
-228 -716 0
-225 -805 0
-226 -806 0
-227 -807 0
-228 -808 0
-225 -925 0
-226 -926 0
-227 -927 0
-228 -928 0
-225 -993 0
-226 -994 0
-227 -995 0
-228 -996 0
-225 -1149 0
-226 -1150 0
-227 -1151 0
-228 -1152 0
-225 -1173 0
-226 -1174 0
-227 -1175 0
-228 -1176 0
-225 -1221 0
-226 -1222 0
-227 -1223 0
-228 -1224 0
-229 -257 0
-230 -258 0
-231 -259 0
-232 -260 0
-229 -297 0
-230 -298 0
-231 -299 0
-232 -300 0
-229 -309 0
-230 -310 0
-231 -311 0
-232 -312 0
-229 -401 0
-230 -402 0
-231 -403 0
-232 -404 0
-229 -501 0
-230 -502 0
-231 -503 0
-232 -504 0
-229 -701 0
-230 -702 0
-231 -703 0
-232 -704 0
-229 -817 0
-230 -818 0
-231 -819 0
-232 -820 0
-229 -921 0
-230 -922 0
-231 -923 0
-232 -924 0
-229 -1013 0
-230 -1014 0
-231 -1015 0
-232 -1016 0
-229 -1149 0
-230 -1150 0
-231 -1151 0
-232 -1152 0
-229 -1185 0
-230 -1186 0
-231 -1187 0
-232 -1188 0
-229 -1233 0
-230 -1234 0
-231 -1235 0
-232 -1236 0
-233 -253 0
-234 -254 0
-235 -255 0
-236 -256 0
-233 -261 0
-234 -262 0
-235 -263 0
-236 -264 0
-233 -325 0
-234 -326 0
-235 -327 0
-236 -328 0
-233 -429 0
-234 -430 0
-235 -431 0
-236 -432 0
-233 -489 0
-234 -490 0
-235 -491 0
-236 -492 0
-233 -721 0
-234 -722 0
-235 -723 0
-236 -724 0
-233 -809 0
-234 -810 0
-235 -811 0
-236 -812 0
-233 -933 0
-234 -934 0
-235 -935 0
-236 -936 0
-233 -1001 0
-234 -1002 0
-235 -1003 0
-236 -1004 0
-233 -1153 0
-234 -1154 0
-235 -1155 0
-236 -1156 0
-233 -1181 0
-234 -1182 0
-235 -1183 0
-236 -1184 0
-233 -1229 0
-234 -1230 0
-235 -1231 0
-236 -1232 0
-237 -305 0
-238 -306 0
-239 -307 0
-240 -308 0
-237 -313 0
-238 -314 0
-239 -315 0
-240 -316 0
-237 -409 0
-238 -410 0
-239 -411 0
-240 -412 0
-237 -505 0
-238 -506 0
-239 -507 0
-240 -508 0
-237 -709 0
-238 -710 0
-239 -711 0
-240 -712 0
-237 -821 0
-238 -822 0
-239 -823 0
-240 -824 0
-237 -929 0
-238 -930 0
-239 -931 0
-240 -932 0
-237 -1021 0
-238 -1022 0
-239 -1023 0
-240 -1024 0
-237 -1153 0
-238 -1154 0
-239 -1155 0
-240 -1156 0
-237 -1193 0
-238 -1194 0
-239 -1195 0
-240 -1196 0
-237 -1241 0
-238 -1242 0
-239 -1243 0
-240 -1244 0
-241 -269 0
-242 -270 0
-243 -271 0
-244 -272 0
-241 -329 0
-242 -330 0
-243 -331 0
-244 -332 0
-241 -437 0
-242 -438 0
-243 -439 0
-244 -440 0
-241 -493 0
-242 -494 0
-243 -495 0
-244 -496 0
-241 -729 0
-242 -730 0
-243 -731 0
-244 -732 0
-241 -813 0
-242 -814 0
-243 -815 0
-244 -816 0
-241 -941 0
-242 -942 0
-243 -943 0
-244 -944 0
-241 -1009 0
-242 -1010 0
-243 -1011 0
-244 -1012 0
-241 -1157 0
-242 -1158 0
-243 -1159 0
-244 -1160 0
-241 -1189 0
-242 -1190 0
-243 -1191 0
-244 -1192 0
-241 -1237 0
-242 -1238 0
-243 -1239 0
-244 -1240 0
-245 -265 0
-246 -266 0
-247 -267 0
-248 -268 0
-245 -317 0
-246 -318 0
-247 -319 0
-248 -320 0
-245 -417 0
-246 -418 0
-247 -419 0
-248 -420 0
-245 -485 0
-246 -486 0
-247 -487 0
-248 -488 0
-245 -717 0
-246 -718 0
-247 -719 0
-248 -720 0
-245 -825 0
-246 -826 0
-247 -827 0
-248 -828 0
-245 -937 0
-246 -938 0
-247 -939 0
-248 -940 0
-245 -1029 0
-246 -1030 0
-247 -1031 0
-248 -1032 0
-245 -1157 0
-246 -1158 0
-247 -1159 0
-248 -1160 0
-245 -1201 0
-246 -1202 0
-247 -1203 0
-248 -1204 0
-245 -1249 0
-246 -1250 0
-247 -1251 0
-248 -1252 0
-249 -277 0
-250 -278 0
-251 -279 0
-252 -280 0
-249 -309 0
-250 -310 0
-251 -311 0
-252 -312 0
-249 -397 0
-250 -398 0
-251 -399 0
-252 -400 0
-249 -497 0
-250 -498 0
-251 -499 0
-252 -500 0
-249 -737 0
-250 -738 0
-251 -739 0
-252 -740 0
-249 -817 0
-250 -818 0
-251 -819 0
-252 -820 0
-249 -949 0
-250 -950 0
-251 -951 0
-252 -952 0
-249 -1017 0
-250 -1018 0
-251 -1019 0
-252 -1020 0
-249 -1161 0
-250 -1162 0
-251 -1163 0
-252 -1164 0
-249 -1197 0
-250 -1198 0
-251 -1199 0
-252 -1200 0
-249 -1245 0
-250 -1246 0
-251 -1247 0
-252 -1248 0
-253 -273 0
-254 -274 0
-255 -275 0
-256 -276 0
-253 -321 0
-254 -322 0
-255 -323 0
-256 -324 0
-253 -425 0
-254 -426 0
-255 -427 0
-256 -428 0
-253 -489 0
-254 -490 0
-255 -491 0
-256 -492 0
-253 -725 0
-254 -726 0
-255 -727 0
-256 -728 0
-253 -805 0
-254 -806 0
-255 -807 0
-256 -808 0
-253 -945 0
-254 -946 0
-255 -947 0
-256 -948 0
-253 -989 0
-254 -990 0
-255 -991 0
-256 -992 0
-253 -1161 0
-254 -1162 0
-255 -1163 0
-256 -1164 0
-253 -1209 0
-254 -1210 0
-255 -1211 0
-256 -1212 0
-253 -1257 0
-254 -1258 0
-255 -1259 0
-256 -1260 0
-257 -285 0
-258 -286 0
-259 -287 0
-260 -288 0
-257 -313 0
-258 -314 0
-259 -315 0
-260 -316 0
-257 -405 0
-258 -406 0
-259 -407 0
-260 -408 0
-257 -501 0
-258 -502 0
-259 -503 0
-260 -504 0
-257 -697 0
-258 -698 0
-259 -699 0
-260 -700 0
-257 -821 0
-258 -822 0
-259 -823 0
-260 -824 0
-257 -909 0
-258 -910 0
-259 -911 0
-260 -912 0
-257 -1025 0
-258 -1026 0
-259 -1027 0
-260 -1028 0
-257 -1141 0
-258 -1142 0
-259 -1143 0
-260 -1144 0
-257 -1205 0
-258 -1206 0
-259 -1207 0
-260 -1208 0
-257 -1253 0
-258 -1254 0
-259 -1255 0
-260 -1256 0
-261 -277 0
-262 -278 0
-263 -279 0
-264 -280 0
-261 -293 0
-262 -294 0
-263 -295 0
-264 -296 0
-261 -325 0
-262 -326 0
-263 -327 0
-264 -328 0
-261 -569 0
-262 -570 0
-263 -571 0
-264 -572 0
-261 -637 0
-262 -638 0
-263 -639 0
-264 -640 0
-261 -681 0
-262 -682 0
-263 -683 0
-264 -684 0
-261 -949 0
-262 -950 0
-263 -951 0
-264 -952 0
-261 -1169 0
-262 -1170 0
-263 -1171 0
-264 -1172 0
-261 -1209 0
-262 -1210 0
-263 -1211 0
-264 -1212 0
-261 -1261 0
-262 -1262 0
-263 -1263 0
-264 -1264 0
-265 -281 0
-266 -282 0
-267 -283 0
-268 -284 0
-265 -297 0
-266 -298 0
-267 -299 0
-268 -300 0
-265 -317 0
-266 -318 0
-267 -319 0
-268 -320 0
-265 -597 0
-266 -598 0
-267 -599 0
-268 -600 0
-265 -641 0
-266 -642 0
-267 -643 0
-268 -644 0
-265 -685 0
-266 -686 0
-267 -687 0
-268 -688 0
-265 -921 0
-266 -922 0
-267 -923 0
-268 -924 0
-265 -1165 0
-266 -1166 0
-267 -1167 0
-268 -1168 0
-265 -1173 0
-266 -1174 0
-267 -1175 0
-268 -1176 0
-269 -285 0
-270 -286 0
-271 -287 0
-272 -288 0
-269 -301 0
-270 -302 0
-271 -303 0
-272 -304 0
-269 -329 0
-270 -330 0
-271 -331 0
-272 -332 0
-269 -481 0
-270 -482 0
-271 -483 0
-272 -484 0
-269 -577 0
-270 -578 0
-271 -579 0
-272 -580 0
-269 -621 0
-270 -622 0
-271 -623 0
-272 -624 0
-269 -649 0
-270 -650 0
-271 -651 0
-272 -652 0
-269 -909 0
-270 -910 0
-271 -911 0
-272 -912 0
-269 -1169 0
-270 -1170 0
-271 -1171 0
-272 -1172 0
-269 -1177 0
-270 -1178 0
-271 -1179 0
-272 -1180 0
-273 -289 0
-274 -290 0
-275 -291 0
-276 -292 0
-273 -305 0
-274 -306 0
-275 -307 0
-276 -308 0
-273 -321 0
-274 -322 0
-275 -323 0
-276 -324 0
-273 -477 0
-274 -478 0
-275 -479 0
-276 -480 0
-273 -557 0
-274 -558 0
-275 -559 0
-276 -560 0
-273 -625 0
-274 -626 0
-275 -627 0
-276 -628 0
-273 -653 0
-274 -654 0
-275 -655 0
-276 -656 0
-273 -929 0
-274 -930 0
-275 -931 0
-276 -932 0
-273 -1173 0
-274 -1174 0
-275 -1175 0
-276 -1176 0
-273 -1181 0
-274 -1182 0
-275 -1183 0
-276 -1184 0
-277 -293 0
-278 -294 0
-279 -295 0
-280 -296 0
-277 -309 0
-278 -310 0
-279 -311 0
-280 -312 0
-277 -585 0
-278 -586 0
-279 -587 0
-280 -588 0
-277 -633 0
-278 -634 0
-279 -635 0
-280 -636 0
-277 -661 0
-278 -662 0
-279 -663 0
-280 -664 0
-277 -917 0
-278 -918 0
-279 -919 0
-280 -920 0
-277 -1177 0
-278 -1178 0
-279 -1179 0
-280 -1180 0
-277 -1185 0
-278 -1186 0
-279 -1187 0
-280 -1188 0
-281 -297 0
-282 -298 0
-283 -299 0
-284 -300 0
-281 -325 0
-282 -326 0
-283 -327 0
-284 -328 0
-281 -565 0
-282 -566 0
-283 -567 0
-284 -568 0
-281 -637 0
-282 -638 0
-283 -639 0
-284 -640 0
-281 -665 0
-282 -666 0
-283 -667 0
-284 -668 0
-281 -937 0
-282 -938 0
-283 -939 0
-284 -940 0
-281 -1181 0
-282 -1182 0
-283 -1183 0
-284 -1184 0
-281 -1189 0
-282 -1190 0
-283 -1191 0
-284 -1192 0
-281 -1265 0
-282 -1266 0
-283 -1267 0
-284 -1268 0
-285 -301 0
-286 -302 0
-287 -303 0
-288 -304 0
-285 -313 0
-286 -314 0
-287 -315 0
-288 -316 0
-285 -593 0
-286 -594 0
-287 -595 0
-288 -596 0
-285 -645 0
-286 -646 0
-287 -647 0
-288 -648 0
-285 -673 0
-286 -674 0
-287 -675 0
-288 -676 0
-285 -925 0
-286 -926 0
-287 -927 0
-288 -928 0
-285 -1185 0
-286 -1186 0
-287 -1187 0
-288 -1188 0
-285 -1193 0
-286 -1194 0
-287 -1195 0
-288 -1196 0
-285 -1269 0
-286 -1270 0
-287 -1271 0
-288 -1272 0
-289 -305 0
-290 -306 0
-291 -307 0
-292 -308 0
-289 -329 0
-290 -330 0
-291 -331 0
-292 -332 0
-289 -573 0
-290 -574 0
-291 -575 0
-292 -576 0
-289 -649 0
-290 -650 0
-291 -651 0
-292 -652 0
-289 -677 0
-290 -678 0
-291 -679 0
-292 -680 0
-289 -945 0
-290 -946 0
-291 -947 0
-292 -948 0
-289 -1189 0
-290 -1190 0
-291 -1191 0
-292 -1192 0
-289 -1197 0
-290 -1198 0
-291 -1199 0
-292 -1200 0
-293 -317 0
-294 -318 0
-295 -319 0
-296 -320 0
-293 -473 0
-294 -474 0
-295 -475 0
-296 -476 0
-293 -601 0
-294 -602 0
-295 -603 0
-296 -604 0
-293 -657 0
-294 -658 0
-295 -659 0
-296 -660 0
-293 -685 0
-294 -686 0
-295 -687 0
-296 -688 0
-293 -933 0
-294 -934 0
-295 -935 0
-296 -936 0
-293 -1193 0
-294 -1194 0
-295 -1195 0
-296 -1196 0
-293 -1201 0
-294 -1202 0
-295 -1203 0
-296 -1204 0
-297 -309 0
-298 -310 0
-299 -311 0
-300 -312 0
-297 -469 0
-298 -470 0
-299 -471 0
-300 -472 0
-297 -581 0
-298 -582 0
-299 -583 0
-300 -584 0
-297 -661 0
-298 -662 0
-299 -663 0
-300 -664 0
-297 -689 0
-298 -690 0
-299 -691 0
-300 -692 0
-297 -953 0
-298 -954 0
-299 -955 0
-300 -956 0
-297 -1197 0
-298 -1198 0
-299 -1199 0
-300 -1200 0
-297 -1205 0
-298 -1206 0
-299 -1207 0
-300 -1208 0
-301 -321 0
-302 -322 0
-303 -323 0
-304 -324 0
-301 -561 0
-302 -562 0
-303 -563 0
-304 -564 0
-301 -625 0
-302 -626 0
-303 -627 0
-304 -628 0
-301 -669 0
-302 -670 0
-303 -671 0
-304 -672 0
-301 -941 0
-302 -942 0
-303 -943 0
-304 -944 0
-301 -1201 0
-302 -1202 0
-303 -1203 0
-304 -1204 0
-301 -1209 0
-302 -1210 0
-303 -1211 0
-304 -1212 0
-305 -313 0
-306 -314 0
-307 -315 0
-308 -316 0
-305 -589 0
-306 -590 0
-307 -591 0
-308 -592 0
-305 -629 0
-306 -630 0
-307 -631 0
-308 -632 0
-305 -673 0
-306 -674 0
-307 -675 0
-308 -676 0
-305 -913 0
-306 -914 0
-307 -915 0
-308 -916 0
-305 -1165 0
-306 -1166 0
-307 -1167 0
-308 -1168 0
-305 -1205 0
-306 -1206 0
-307 -1207 0
-308 -1208 0
-305 -1273 0
-306 -1274 0
-307 -1275 0
-308 -1276 0
-309 -341 0
-310 -342 0
-311 -343 0
-312 -344 0
-309 -521 0
-310 -522 0
-311 -523 0
-312 -524 0
-309 -549 0
-310 -550 0
-311 -551 0
-312 -552 0
-309 -917 0
-310 -918 0
-311 -919 0
-312 -920 0
-309 -953 0
-310 -954 0
-311 -955 0
-312 -956 0
-309 -1045 0
-310 -1046 0
-311 -1047 0
-312 -1048 0
-309 -1081 0
-310 -1082 0
-311 -1083 0
-312 -1084 0
-309 -1261 0
-310 -1262 0
-311 -1263 0
-312 -1264 0
-309 -1277 0
-310 -1278 0
-311 -1279 0
-312 -1280 0
-309 -1281 0
-310 -1282 0
-311 -1283 0
-312 -1284 0
-313 -349 0
-314 -350 0
-315 -351 0
-316 -352 0
-313 -361 0
-314 -362 0
-315 -363 0
-316 -364 0
-313 -509 0
-314 -510 0
-315 -511 0
-316 -512 0
-313 -529 0
-314 -530 0
-315 -531 0
-316 -532 0
-313 -913 0
-314 -914 0
-315 -915 0
-316 -916 0
-313 -925 0
-314 -926 0
-315 -927 0
-316 -928 0
-313 -1041 0
-314 -1042 0
-315 -1043 0
-316 -1044 0
-313 -1053 0
-314 -1054 0
-315 -1055 0
-316 -1056 0
-317 -337 0
-318 -338 0
-319 -339 0
-320 -340 0
-317 -517 0
-318 -518 0
-319 -519 0
-320 -520 0
-317 -537 0
-318 -538 0
-319 -539 0
-320 -540 0
-317 -921 0
-318 -922 0
-319 -923 0
-320 -924 0
-317 -933 0
-318 -934 0
-319 -935 0
-320 -936 0
-317 -1049 0
-318 -1050 0
-319 -1051 0
-320 -1052 0
-317 -1061 0
-318 -1062 0
-319 -1063 0
-320 -1064 0
-317 -1265 0
-318 -1266 0
-319 -1267 0
-320 -1268 0
-317 -1285 0
-318 -1286 0
-319 -1287 0
-320 -1288 0
-317 -1289 0
-318 -1290 0
-319 -1291 0
-320 -1292 0
-321 -357 0
-322 -358 0
-323 -359 0
-324 -360 0
-321 -525 0
-322 -526 0
-323 -527 0
-324 -528 0
-321 -545 0
-322 -546 0
-323 -547 0
-324 -548 0
-321 -929 0
-322 -930 0
-323 -931 0
-324 -932 0
-321 -941 0
-322 -942 0
-323 -943 0
-324 -944 0
-321 -1057 0
-322 -1058 0
-323 -1059 0
-324 -1060 0
-321 -1069 0
-322 -1070 0
-323 -1071 0
-324 -1072 0
-321 -1269 0
-322 -1270 0
-323 -1271 0
-324 -1272 0
-321 -1293 0
-322 -1294 0
-323 -1295 0
-324 -1296 0
-321 -1297 0
-322 -1298 0
-323 -1299 0
-324 -1300 0
-325 -333 0
-326 -334 0
-327 -335 0
-328 -336 0
-325 -345 0
-326 -346 0
-327 -347 0
-328 -348 0
-325 -533 0
-326 -534 0
-327 -535 0
-328 -536 0
-325 -553 0
-326 -554 0
-327 -555 0
-328 -556 0
-325 -937 0
-326 -938 0
-327 -939 0
-328 -940 0
-325 -949 0
-326 -950 0
-327 -951 0
-328 -952 0
-325 -1065 0
-326 -1066 0
-327 -1067 0
-328 -1068 0
-325 -1077 0
-326 -1078 0
-327 -1079 0
-328 -1080 0
-329 -353 0
-330 -354 0
-331 -355 0
-332 -356 0
-329 -513 0
-330 -514 0
-331 -515 0
-332 -516 0
-329 -541 0
-330 -542 0
-331 -543 0
-332 -544 0
-329 -909 0
-330 -910 0
-331 -911 0
-332 -912 0
-329 -945 0
-330 -946 0
-331 -947 0
-332 -948 0
-329 -1037 0
-330 -1038 0
-331 -1039 0
-332 -1040 0
-329 -1073 0
-330 -1074 0
-331 -1075 0
-332 -1076 0
-329 -1273 0
-330 -1274 0
-331 -1275 0
-332 -1276 0
-329 -1301 0
-330 -1302 0
-331 -1303 0
-332 -1304 0
-329 -1305 0
-330 -1306 0
-331 -1307 0
-332 -1308 0
-333 -449 0
-334 -450 0
-335 -451 0
-336 -452 0
-333 -565 0
-334 -566 0
-335 -567 0
-336 -568 0
-333 -961 0
-334 -962 0
-335 -963 0
-336 -964 0
-333 -1077 0
-334 -1078 0
-335 -1079 0
-336 -1080 0
-333 -1133 0
-334 -1134 0
-335 -1135 0
-336 -1136 0
-333 -1217 0
-334 -1218 0
-335 -1219 0
-336 -1220 0
-333 -1277 0
-334 -1278 0
-335 -1279 0
-336 -1280 0
-333 -1309 0
-334 -1310 0
-335 -1311 0
-336 -1312 0
-337 -465 0
-338 -466 0
-339 -467 0
-340 -468 0
-337 -601 0
-338 -602 0
-339 -603 0
-340 -604 0
-337 -609 0
-338 -610 0
-339 -611 0
-340 -612 0
-337 -957 0
-338 -958 0
-339 -959 0
-340 -960 0
-337 -1049 0
-338 -1050 0
-339 -1051 0
-340 -1052 0
-337 -1105 0
-338 -1106 0
-339 -1107 0
-340 -1108 0
-337 -1213 0
-338 -1214 0
-339 -1215 0
-340 -1216 0
-337 -1281 0
-338 -1282 0
-339 -1283 0
-340 -1284 0
-337 -1313 0
-338 -1314 0
-339 -1315 0
-340 -1316 0
-341 -457 0
-342 -458 0
-343 -459 0
-344 -460 0
-341 -581 0
-342 -582 0
-343 -583 0
-344 -584 0
-341 -605 0
-342 -606 0
-343 -607 0
-344 -608 0
-341 -969 0
-342 -970 0
-343 -971 0
-344 -972 0
-341 -1045 0
-342 -1046 0
-343 -1047 0
-344 -1048 0
-341 -1101 0
-342 -1102 0
-343 -1103 0
-344 -1104 0
-341 -1233 0
-342 -1234 0
-343 -1235 0
-344 -1236 0
-341 -1285 0
-342 -1286 0
-343 -1287 0
-344 -1288 0
-341 -1317 0
-342 -1318 0
-343 -1319 0
-344 -1320 0
-345 -449 0
-346 -450 0
-347 -451 0
-348 -452 0
-345 -569 0
-346 -570 0
-347 -571 0
-348 -572 0
-345 -965 0
-346 -966 0
-347 -967 0
-348 -968 0
-345 -1065 0
-346 -1066 0
-347 -1067 0
-348 -1068 0
-345 -1121 0
-346 -1122 0
-347 -1123 0
-348 -1124 0
-345 -1229 0
-346 -1230 0
-347 -1231 0
-348 -1232 0
-345 -1289 0
-346 -1290 0
-347 -1291 0
-348 -1292 0
-345 -1321 0
-346 -1322 0
-347 -1323 0
-348 -1324 0
-349 -461 0
-350 -462 0
-351 -463 0
-352 -464 0
-349 -589 0
-350 -590 0
-351 -591 0
-352 -592 0
-349 -977 0
-350 -978 0
-351 -979 0
-352 -980 0
-349 -1053 0
-350 -1054 0
-351 -1055 0
-352 -1056 0
-349 -1109 0
-350 -1110 0
-351 -1111 0
-352 -1112 0
-349 -1241 0
-350 -1242 0
-351 -1243 0
-352 -1244 0
-349 -1293 0
-350 -1294 0
-351 -1295 0
-352 -1296 0
-349 -1321 0
-350 -1322 0
-351 -1323 0
-352 -1324 0
-353 -453 0
-354 -454 0
-355 -455 0
-356 -456 0
-353 -577 0
-354 -578 0
-355 -579 0
-356 -580 0
-353 -617 0
-354 -618 0
-355 -619 0
-356 -620 0
-353 -973 0
-354 -974 0
-355 -975 0
-356 -976 0
-353 -1073 0
-354 -1074 0
-355 -1075 0
-356 -1076 0
-353 -1129 0
-354 -1130 0
-355 -1131 0
-356 -1132 0
-353 -1237 0
-354 -1238 0
-355 -1239 0
-356 -1240 0
-353 -1297 0
-354 -1298 0
-355 -1299 0
-356 -1300 0
-353 -1325 0
-354 -1326 0
-355 -1327 0
-356 -1328 0
-357 -445 0
-358 -446 0
-359 -447 0
-360 -448 0
-357 -557 0
-358 -558 0
-359 -559 0
-360 -560 0
-357 -613 0
-358 -614 0
-359 -615 0
-360 -616 0
-357 -985 0
-358 -986 0
-359 -987 0
-360 -988 0
-357 -1069 0
-358 -1070 0
-359 -1071 0
-360 -1072 0
-357 -1125 0
-358 -1126 0
-359 -1127 0
-360 -1128 0
-357 -1257 0
-358 -1258 0
-359 -1259 0
-360 -1260 0
-357 -1301 0
-358 -1302 0
-359 -1303 0
-360 -1304 0
-357 -1329 0
-358 -1330 0
-359 -1331 0
-360 -1332 0
-361 -461 0
-362 -462 0
-363 -463 0
-364 -464 0
-361 -593 0
-362 -594 0
-363 -595 0
-364 -596 0
-361 -981 0
-362 -982 0
-363 -983 0
-364 -984 0
-361 -1041 0
-362 -1042 0
-363 -1043 0
-364 -1044 0
-361 -1097 0
-362 -1098 0
-363 -1099 0
-364 -1100 0
-361 -1253 0
-362 -1254 0
-363 -1255 0
-364 -1256 0
-361 -1305 0
-362 -1306 0
-363 -1307 0
-364 -1308 0
-361 -1309 0
-362 -1310 0
-363 -1311 0
-364 -1312 0
-365 -413 0
-366 -414 0
-367 -415 0
-368 -416 0
-365 -737 0
-366 -738 0
-367 -739 0
-368 -740 0
-365 -841 0
-366 -842 0
-367 -843 0
-368 -844 0
-365 -873 0
-366 -874 0
-367 -875 0
-368 -876 0
-365 -1165 0
-366 -1166 0
-367 -1167 0
-368 -1168 0
-369 -441 0
-370 -442 0
-371 -443 0
-372 -444 0
-369 -481 0
-370 -482 0
-371 -483 0
-372 -484 0
-369 -709 0
-370 -710 0
-371 -711 0
-372 -712 0
-369 -829 0
-370 -830 0
-371 -831 0
-372 -832 0
-369 -845 0
-370 -846 0
-371 -847 0
-372 -848 0
-369 -1177 0
-370 -1178 0
-371 -1179 0
-372 -1180 0
-373 -421 0
-374 -422 0
-375 -423 0
-376 -424 0
-373 -477 0
-374 -478 0
-375 -479 0
-376 -480 0
-373 -697 0
-374 -698 0
-375 -699 0
-376 -700 0
-373 -833 0
-374 -834 0
-375 -835 0
-376 -836 0
-373 -849 0
-374 -850 0
-375 -851 0
-376 -852 0
-373 -1173 0
-374 -1174 0
-375 -1175 0
-376 -1176 0
-377 -401 0
-378 -402 0
-379 -403 0
-380 -404 0
-377 -717 0
-378 -718 0
-379 -719 0
-380 -720 0
-377 -837 0
-378 -838 0
-379 -839 0
-380 -840 0
-377 -853 0
-378 -854 0
-379 -855 0
-380 -856 0
-377 -1185 0
-378 -1186 0
-379 -1187 0
-380 -1188 0
-381 -437 0
-382 -438 0
-383 -439 0
-384 -440 0
-381 -713 0
-382 -714 0
-383 -715 0
-384 -716 0
-381 -849 0
-382 -850 0
-383 -851 0
-384 -852 0
-381 -865 0
-382 -866 0
-383 -867 0
-384 -868 0
-381 -1189 0
-382 -1190 0
-383 -1191 0
-384 -1192 0
-385 -417 0
-386 -418 0
-387 -419 0
-388 -420 0
-385 -473 0
-386 -474 0
-387 -475 0
-388 -476 0
-385 -733 0
-386 -734 0
-387 -735 0
-388 -736 0
-385 -853 0
-386 -854 0
-387 -855 0
-388 -856 0
-385 -869 0
-386 -870 0
-387 -871 0
-388 -872 0
-385 -1201 0
-386 -1202 0
-387 -1203 0
-388 -1204 0
-389 -397 0
-390 -398 0
-391 -399 0
-392 -400 0
-389 -469 0
-390 -470 0
-391 -471 0
-392 -472 0
-389 -721 0
-390 -722 0
-391 -723 0
-392 -724 0
-389 -857 0
-390 -858 0
-391 -859 0
-392 -860 0
-389 -873 0
-390 -874 0
-391 -875 0
-392 -876 0
-389 -1197 0
-390 -1198 0
-391 -1199 0
-392 -1200 0
-393 -425 0
-394 -426 0
-395 -427 0
-396 -428 0
-393 -693 0
-394 -694 0
-395 -695 0
-396 -696 0
-393 -829 0
-394 -830 0
-395 -831 0
-396 -832 0
-393 -861 0
-394 -862 0
-395 -863 0
-396 -864 0
-393 -1209 0
-394 -1210 0
-395 -1211 0
-396 -1212 0
-397 -409 0
-398 -410 0
-399 -411 0
-400 -412 0
-397 -505 0
-398 -506 0
-399 -507 0
-400 -508 0
-397 -761 0
-398 -762 0
-399 -763 0
-400 -764 0
-397 -949 0
-398 -950 0
-399 -951 0
-400 -952 0
-397 -1145 0
-398 -1146 0
-399 -1147 0
-400 -1148 0
-397 -1257 0
-398 -1258 0
-399 -1259 0
-400 -1260 0
-397 -1281 0
-398 -1282 0
-399 -1283 0
-400 -1284 0
-397 -1309 0
-398 -1310 0
-399 -1311 0
-400 -1312 0
-401 -437 0
-402 -438 0
-403 -439 0
-404 -440 0
-401 -493 0
-402 -494 0
-403 -495 0
-404 -496 0
-401 -745 0
-402 -746 0
-403 -747 0
-404 -748 0
-401 -921 0
-402 -922 0
-403 -923 0
-404 -924 0
-401 -1085 0
-402 -1086 0
-403 -1087 0
-404 -1088 0
-401 -1141 0
-402 -1142 0
-403 -1143 0
-404 -1144 0
-401 -1221 0
-402 -1222 0
-403 -1223 0
-404 -1224 0
-401 -1277 0
-402 -1278 0
-403 -1279 0
-404 -1280 0
-401 -1313 0
-402 -1314 0
-403 -1315 0
-404 -1316 0
-405 -417 0
-406 -418 0
-407 -419 0
-408 -420 0
-405 -485 0
-406 -486 0
-407 -487 0
-408 -488 0
-405 -769 0
-406 -770 0
-407 -771 0
-408 -772 0
-405 -909 0
-406 -910 0
-407 -911 0
-408 -912 0
-405 -1149 0
-406 -1150 0
-407 -1151 0
-408 -1152 0
-405 -1217 0
-406 -1218 0
-407 -1219 0
-408 -1220 0
-405 -1313 0
-406 -1314 0
-407 -1315 0
-408 -1316 0
-405 -1333 0
-406 -1334 0
-407 -1335 0
-408 -1336 0
-409 -497 0
-410 -498 0
-411 -499 0
-412 -500 0
-409 -757 0
-410 -758 0
-411 -759 0
-412 -760 0
-409 -929 0
-410 -930 0
-411 -931 0
-412 -932 0
-409 -1145 0
-410 -1146 0
-411 -1147 0
-412 -1148 0
-409 -1229 0
-410 -1230 0
-411 -1231 0
-412 -1232 0
-409 -1317 0
-410 -1318 0
-411 -1319 0
-412 -1320 0
-409 -1337 0
-410 -1338 0
-411 -1339 0
-412 -1340 0
-413 -425 0
-414 -426 0
-415 -427 0
-416 -428 0
-413 -489 0
-414 -490 0
-415 -491 0
-416 -492 0
-413 -741 0
-414 -742 0
-415 -743 0
-416 -744 0
-413 -917 0
-414 -918 0
-415 -919 0
-416 -920 0
-413 -1085 0
-414 -1086 0
-415 -1087 0
-416 -1088 0
-413 -1153 0
-414 -1154 0
-415 -1155 0
-416 -1156 0
-413 -1225 0
-414 -1226 0
-415 -1227 0
-416 -1228 0
-413 -1289 0
-414 -1290 0
-415 -1291 0
-416 -1292 0
-413 -1317 0
-414 -1318 0
-415 -1319 0
-416 -1320 0
-417 -501 0
-418 -502 0
-419 -503 0
-420 -504 0
-417 -765 0
-418 -766 0
-419 -767 0
-420 -768 0
-417 -937 0
-418 -938 0
-419 -939 0
-420 -940 0
-417 -1149 0
-418 -1150 0
-419 -1151 0
-420 -1152 0
-417 -1237 0
-418 -1238 0
-419 -1239 0
-420 -1240 0
-417 -1285 0
-418 -1286 0
-419 -1287 0
-420 -1288 0
-417 -1321 0
-418 -1322 0
-419 -1323 0
-420 -1324 0
-421 -433 0
-422 -434 0
-423 -435 0
-424 -436 0
-421 -493 0
-422 -494 0
-423 -495 0
-424 -496 0
-421 -777 0
-422 -778 0
-423 -779 0
-424 -780 0
-421 -925 0
-422 -926 0
-423 -927 0
-424 -928 0
-421 -1157 0
-422 -1158 0
-423 -1159 0
-424 -1160 0
-421 -1233 0
-422 -1234 0
-423 -1235 0
-424 -1236 0
-421 -1297 0
-422 -1298 0
-423 -1299 0
-424 -1300 0
-421 -1321 0
-422 -1322 0
-423 -1323 0
-424 -1324 0
-425 -505 0
-426 -506 0
-427 -507 0
-428 -508 0
-425 -753 0
-426 -754 0
-427 -755 0
-428 -756 0
-425 -945 0
-426 -946 0
-427 -947 0
-428 -948 0
-425 -1089 0
-426 -1090 0
-427 -1091 0
-428 -1092 0
-425 -1153 0
-426 -1154 0
-427 -1155 0
-428 -1156 0
-425 -1245 0
-426 -1246 0
-427 -1247 0
-428 -1248 0
-425 -1293 0
-426 -1294 0
-427 -1295 0
-428 -1296 0
-425 -1325 0
-426 -1326 0
-427 -1327 0
-428 -1328 0
-429 -441 0
-430 -442 0
-431 -443 0
-432 -444 0
-429 -497 0
-430 -498 0
-431 -499 0
-432 -500 0
-429 -785 0
-430 -786 0
-431 -787 0
-432 -788 0
-429 -933 0
-430 -934 0
-431 -935 0
-432 -936 0
-429 -1161 0
-430 -1162 0
-431 -1163 0
-432 -1164 0
-429 -1241 0
-430 -1242 0
-431 -1243 0
-432 -1244 0
-429 -1325 0
-430 -1326 0
-431 -1327 0
-432 -1328 0
-429 -1341 0
-430 -1342 0
-431 -1343 0
-432 -1344 0
-433 -485 0
-434 -486 0
-435 -487 0
-436 -488 0
-433 -773 0
-434 -774 0
-435 -775 0
-436 -776 0
-433 -953 0
-434 -954 0
-435 -955 0
-436 -956 0
-433 -1157 0
-434 -1158 0
-435 -1159 0
-436 -1160 0
-433 -1253 0
-434 -1254 0
-435 -1255 0
-436 -1256 0
-433 -1329 0
-434 -1330 0
-435 -1331 0
-436 -1332 0
-433 -1345 0
-434 -1346 0
-435 -1347 0
-436 -1348 0
-437 -501 0
-438 -502 0
-439 -503 0
-440 -504 0
-437 -749 0
-438 -750 0
-439 -751 0
-440 -752 0
-437 -941 0
-438 -942 0
-439 -943 0
-440 -944 0
-437 -1089 0
-438 -1090 0
-439 -1091 0
-440 -1092 0
-437 -1141 0
-438 -1142 0
-439 -1143 0
-440 -1144 0
-437 -1249 0
-438 -1250 0
-439 -1251 0
-440 -1252 0
-437 -1305 0
-438 -1306 0
-439 -1307 0
-440 -1308 0
-437 -1329 0
-438 -1330 0
-439 -1331 0
-440 -1332 0
-441 -489 0
-442 -490 0
-443 -491 0
-444 -492 0
-441 -781 0
-442 -782 0
-443 -783 0
-444 -784 0
-441 -913 0
-442 -914 0
-443 -915 0
-444 -916 0
-441 -1161 0
-442 -1162 0
-443 -1163 0
-444 -1164 0
-441 -1213 0
-442 -1214 0
-443 -1215 0
-444 -1216 0
-441 -1301 0
-442 -1302 0
-443 -1303 0
-444 -1304 0
-441 -1309 0
-442 -1310 0
-443 -1311 0
-444 -1312 0
-445 -809 0
-446 -810 0
-447 -811 0
-448 -812 0
-445 -825 0
-446 -826 0
-447 -827 0
-448 -828 0
-445 -917 0
-446 -918 0
-447 -919 0
-448 -920 0
-445 -953 0
-446 -954 0
-447 -955 0
-448 -956 0
-445 -1273 0
-446 -1274 0
-447 -1275 0
-448 -1276 0
-449 -805 0
-450 -806 0
-451 -807 0
-452 -808 0
-449 -813 0
-450 -814 0
-451 -815 0
-452 -816 0
-449 -913 0
-450 -914 0
-451 -915 0
-452 -916 0
-449 -925 0
-450 -926 0
-451 -927 0
-452 -928 0
-449 -1397 0
-450 -1398 0
-451 -1399 0
-452 -1400 0
-453 -809 0
-454 -810 0
-455 -811 0
-456 -812 0
-453 -817 0
-454 -818 0
-455 -819 0
-456 -820 0
-453 -921 0
-454 -922 0
-455 -923 0
-456 -924 0
-453 -933 0
-454 -934 0
-455 -935 0
-456 -936 0
-453 -1269 0
-454 -1270 0
-455 -1271 0
-456 -1272 0
-457 -813 0
-458 -814 0
-459 -815 0
-460 -816 0
-457 -821 0
-458 -822 0
-459 -823 0
-460 -824 0
-457 -929 0
-458 -930 0
-459 -931 0
-460 -932 0
-457 -941 0
-458 -942 0
-459 -943 0
-460 -944 0
-457 -1265 0
-458 -1266 0
-459 -1267 0
-460 -1268 0
-461 -817 0
-462 -818 0
-463 -819 0
-464 -820 0
-461 -825 0
-462 -826 0
-463 -827 0
-464 -828 0
-461 -937 0
-462 -938 0
-463 -939 0
-464 -940 0
-461 -949 0
-462 -950 0
-463 -951 0
-464 -952 0
-461 -1401 0
-462 -1402 0
-463 -1403 0
-464 -1404 0
-465 -805 0
-466 -806 0
-467 -807 0
-468 -808 0
-465 -821 0
-466 -822 0
-467 -823 0
-468 -824 0
-465 -909 0
-466 -910 0
-467 -911 0
-468 -912 0
-465 -945 0
-466 -946 0
-467 -947 0
-468 -948 0
-465 -1261 0
-466 -1262 0
-467 -1263 0
-468 -1264 0
-469 -565 0
-470 -566 0
-471 -567 0
-472 -568 0
-469 -701 0
-470 -702 0
-471 -703 0
-472 -704 0
-469 -1281 0
-470 -1282 0
-471 -1283 0
-472 -1284 0
-473 -569 0
-474 -570 0
-475 -571 0
-476 -572 0
-473 -705 0
-474 -706 0
-475 -707 0
-476 -708 0
-473 -1285 0
-474 -1286 0
-475 -1287 0
-476 -1288 0
-477 -589 0
-478 -590 0
-479 -591 0
-480 -592 0
-477 -725 0
-478 -726 0
-479 -727 0
-480 -728 0
-477 -1297 0
-478 -1298 0
-479 -1299 0
-480 -1300 0
-481 -593 0
-482 -594 0
-483 -595 0
-484 -596 0
-481 -729 0
-482 -730 0
-483 -731 0
-484 -732 0
-481 -1301 0
-482 -1302 0
-483 -1303 0
-484 -1304 0
-485 -517 0
-486 -518 0
-487 -519 0
-488 -520 0
-485 -545 0
-486 -546 0
-487 -547 0
-488 -548 0
-485 -789 0
-486 -790 0
-487 -791 0
-488 -792 0
-485 -801 0
-486 -802 0
-487 -803 0
-488 -804 0
-485 -993 0
-486 -994 0
-487 -995 0
-488 -996 0
-485 -1029 0
-486 -1030 0
-487 -1031 0
-488 -1032 0
-485 -1217 0
-486 -1218 0
-487 -1219 0
-488 -1220 0
-485 -1253 0
-486 -1254 0
-487 -1255 0
-488 -1256 0
-485 -1349 0
-486 -1350 0
-487 -1351 0
-488 -1352 0
-485 -1393 0
-486 -1394 0
-487 -1395 0
-488 -1396 0
-489 -525 0
-490 -526 0
-491 -527 0
-492 -528 0
-489 -553 0
-490 -554 0
-491 -555 0
-492 -556 0
-489 -609 0
-490 -610 0
-491 -611 0
-492 -612 0
-489 -793 0
-490 -794 0
-491 -795 0
-492 -796 0
-489 -989 0
-490 -990 0
-491 -991 0
-492 -992 0
-489 -1001 0
-490 -1002 0
-491 -1003 0
-492 -1004 0
-489 -1213 0
-490 -1214 0
-491 -1215 0
-492 -1216 0
-489 -1225 0
-490 -1226 0
-491 -1227 0
-492 -1228 0
-489 -1353 0
-490 -1354 0
-491 -1355 0
-492 -1356 0
-489 -1357 0
-490 -1358 0
-491 -1359 0
-492 -1360 0
-493 -513 0
-494 -514 0
-495 -515 0
-496 -516 0
-493 -533 0
-494 -534 0
-495 -535 0
-496 -536 0
-493 -605 0
-494 -606 0
-495 -607 0
-496 -608 0
-493 -789 0
-494 -790 0
-495 -791 0
-496 -792 0
-493 -997 0
-494 -998 0
-495 -999 0
-496 -1000 0
-493 -1009 0
-494 -1010 0
-495 -1011 0
-496 -1012 0
-493 -1221 0
-494 -1222 0
-495 -1223 0
-496 -1224 0
-493 -1233 0
-494 -1234 0
-495 -1235 0
-496 -1236 0
-493 -1361 0
-494 -1362 0
-495 -1363 0
-496 -1364 0
-493 -1365 0
-494 -1366 0
-495 -1367 0
-496 -1368 0
-497 -521 0
-498 -522 0
-499 -523 0
-500 -524 0
-497 -541 0
-498 -542 0
-499 -543 0
-500 -544 0
-497 -793 0
-498 -794 0
-499 -795 0
-500 -796 0
-497 -797 0
-498 -798 0
-499 -799 0
-500 -800 0
-497 -1005 0
-498 -1006 0
-499 -1007 0
-500 -1008 0
-497 -1017 0
-498 -1018 0
-499 -1019 0
-500 -1020 0
-497 -1229 0
-498 -1230 0
-499 -1231 0
-500 -1232 0
-497 -1241 0
-498 -1242 0
-499 -1243 0
-500 -1244 0
-497 -1369 0
-498 -1370 0
-499 -1371 0
-500 -1372 0
-497 -1373 0
-498 -1374 0
-499 -1375 0
-500 -1376 0
-501 -529 0
-502 -530 0
-503 -531 0
-504 -532 0
-501 -549 0
-502 -550 0
-503 -551 0
-504 -552 0
-501 -617 0
-502 -618 0
-503 -619 0
-504 -620 0
-501 -801 0
-502 -802 0
-503 -803 0
-504 -804 0
-501 -1013 0
-502 -1014 0
-503 -1015 0
-504 -1016 0
-501 -1025 0
-502 -1026 0
-503 -1027 0
-504 -1028 0
-501 -1237 0
-502 -1238 0
-503 -1239 0
-504 -1240 0
-501 -1249 0
-502 -1250 0
-503 -1251 0
-504 -1252 0
-501 -1377 0
-502 -1378 0
-503 -1379 0
-504 -1380 0
-501 -1381 0
-502 -1382 0
-503 -1383 0
-504 -1384 0
-505 -509 0
-506 -510 0
-507 -511 0
-508 -512 0
-505 -537 0
-506 -538 0
-507 -539 0
-508 -540 0
-505 -613 0
-506 -614 0
-507 -615 0
-508 -616 0
-505 -797 0
-506 -798 0
-507 -799 0
-508 -800 0
-505 -1021 0
-506 -1022 0
-507 -1023 0
-508 -1024 0
-505 -1033 0
-506 -1034 0
-507 -1035 0
-508 -1036 0
-505 -1245 0
-506 -1246 0
-507 -1247 0
-508 -1248 0
-505 -1257 0
-506 -1258 0
-507 -1259 0
-508 -1260 0
-505 -1385 0
-506 -1386 0
-507 -1387 0
-508 -1388 0
-505 -1389 0
-506 -1390 0
-507 -1391 0
-508 -1392 0
-509 -617 0
-510 -618 0
-511 -619 0
-512 -620 0
-509 -741 0
-510 -742 0
-511 -743 0
-512 -744 0
-509 -837 0
-510 -838 0
-511 -839 0
-512 -840 0
-509 -901 0
-510 -902 0
-511 -903 0
-512 -904 0
-509 -1305 0
-510 -1306 0
-511 -1307 0
-512 -1308 0
-513 -873 0
-514 -874 0
-515 -875 0
-516 -876 0
-513 -985 0
-514 -986 0
-515 -987 0
-516 -988 0
-517 -845 0
-518 -846 0
-519 -847 0
-520 -848 0
-517 -877 0
-518 -878 0
-519 -879 0
-520 -880 0
-517 -965 0
-518 -966 0
-519 -967 0
-520 -968 0
-517 -1281 0
-518 -1282 0
-519 -1283 0
-520 -1284 0
-517 -1337 0
-518 -1338 0
-519 -1339 0
-520 -1340 0
-517 -1397 0
-518 -1398 0
-519 -1399 0
-520 -1400 0
-521 -833 0
-522 -834 0
-523 -835 0
-524 -836 0
-521 -889 0
-522 -890 0
-523 -891 0
-524 -892 0
-521 -961 0
-522 -962 0
-523 -963 0
-524 -964 0
-521 -1285 0
-522 -1286 0
-523 -1287 0
-524 -1288 0
-521 -1333 0
-522 -1334 0
-523 -1335 0
-524 -1336 0
-521 -1397 0
-522 -1398 0
-523 -1399 0
-524 -1400 0
-525 -853 0
-526 -854 0
-527 -855 0
-528 -856 0
-525 -973 0
-526 -974 0
-527 -975 0
-528 -976 0
-529 -613 0
-530 -614 0
-531 -615 0
-532 -616 0
-529 -745 0
-530 -746 0
-531 -747 0
-532 -748 0
-529 -841 0
-530 -842 0
-531 -843 0
-532 -844 0
-529 -897 0
-530 -898 0
-531 -899 0
-532 -900 0
-529 -1293 0
-530 -1294 0
-531 -1295 0
-532 -1296 0
-533 -609 0
-534 -610 0
-535 -611 0
-536 -612 0
-533 -749 0
-534 -750 0
-535 -751 0
-536 -752 0
-533 -861 0
-534 -862 0
-535 -863 0
-536 -864 0
-533 -885 0
-534 -886 0
-535 -887 0
-536 -888 0
-533 -1289 0
-534 -1290 0
-535 -1291 0
-536 -1292 0
-537 -849 0
-538 -850 0
-539 -851 0
-540 -852 0
-537 -969 0
-538 -970 0
-539 -971 0
-540 -972 0
-541 -869 0
-542 -870 0
-543 -871 0
-544 -872 0
-541 -893 0
-542 -894 0
-543 -895 0
-544 -896 0
-541 -981 0
-542 -982 0
-543 -983 0
-544 -984 0
-541 -1297 0
-542 -1298 0
-543 -1299 0
-544 -1300 0
-541 -1345 0
-542 -1346 0
-543 -1347 0
-544 -1348 0
-541 -1401 0
-542 -1402 0
-543 -1403 0
-544 -1404 0
-545 -857 0
-546 -858 0
-547 -859 0
-548 -860 0
-545 -905 0
-546 -906 0
-547 -907 0
-548 -908 0
-545 -977 0
-546 -978 0
-547 -979 0
-548 -980 0
-545 -1301 0
-546 -1302 0
-547 -1303 0
-548 -1304 0
-545 -1341 0
-546 -1342 0
-547 -1343 0
-548 -1344 0
-545 -1401 0
-546 -1402 0
-547 -1403 0
-548 -1404 0
-549 -829 0
-550 -830 0
-551 -831 0
-552 -832 0
-549 -957 0
-550 -958 0
-551 -959 0
-552 -960 0
-553 -605 0
-554 -606 0
-555 -607 0
-556 -608 0
-553 -753 0
-554 -754 0
-555 -755 0
-556 -756 0
-553 -865 0
-554 -866 0
-555 -867 0
-556 -868 0
-553 -881 0
-554 -882 0
-555 -883 0
-556 -884 0
-553 -1277 0
-554 -1278 0
-555 -1279 0
-556 -1280 0
-557 -761 0
-558 -762 0
-559 -763 0
-560 -764 0
-557 -785 0
-558 -786 0
-559 -787 0
-560 -788 0
-557 -1137 0
-558 -1138 0
-559 -1139 0
-560 -1140 0
-557 -1257 0
-558 -1258 0
-559 -1259 0
-560 -1260 0
-557 -1353 0
-558 -1354 0
-559 -1355 0
-560 -1356 0
-561 -765 0
-562 -766 0
-563 -767 0
-564 -768 0
-561 -905 0
-562 -906 0
-563 -907 0
-564 -908 0
-561 -1101 0
-562 -1102 0
-563 -1103 0
-564 -1104 0
-561 -1221 0
-562 -1222 0
-563 -1223 0
-564 -1224 0
-561 -1349 0
-562 -1350 0
-563 -1351 0
-564 -1352 0
-565 -769 0
-566 -770 0
-567 -771 0
-568 -772 0
-565 -885 0
-566 -886 0
-567 -887 0
-568 -888 0
-565 -1097 0
-566 -1098 0
-567 -1099 0
-568 -1100 0
-565 -1217 0
-566 -1218 0
-567 -1219 0
-568 -1220 0
-565 -1361 0
-566 -1362 0
-567 -1363 0
-568 -1364 0
-569 -757 0
-570 -758 0
-571 -759 0
-572 -760 0
-569 -881 0
-570 -882 0
-571 -883 0
-572 -884 0
-569 -1109 0
-570 -1110 0
-571 -1111 0
-572 -1112 0
-569 -1229 0
-570 -1230 0
-571 -1231 0
-572 -1232 0
-569 -1357 0
-570 -1358 0
-571 -1359 0
-572 -1360 0
-573 -761 0
-574 -762 0
-575 -763 0
-576 -764 0
-573 -893 0
-574 -894 0
-575 -895 0
-576 -896 0
-573 -1105 0
-574 -1106 0
-575 -1107 0
-576 -1108 0
-573 -1225 0
-574 -1226 0
-575 -1227 0
-576 -1228 0
-573 -1369 0
-574 -1370 0
-575 -1371 0
-576 -1372 0
-577 -765 0
-578 -766 0
-579 -767 0
-580 -768 0
-577 -773 0
-578 -774 0
-579 -775 0
-580 -776 0
-577 -1117 0
-578 -1118 0
-579 -1119 0
-580 -1120 0
-577 -1237 0
-578 -1238 0
-579 -1239 0
-580 -1240 0
-577 -1365 0
-578 -1366 0
-579 -1367 0
-580 -1368 0
-581 -769 0
-582 -770 0
-583 -771 0
-584 -772 0
-581 -777 0
-582 -778 0
-583 -779 0
-584 -780 0
-581 -1113 0
-582 -1114 0
-583 -1115 0
-584 -1116 0
-581 -1233 0
-582 -1234 0
-583 -1235 0
-584 -1236 0
-581 -1377 0
-582 -1378 0
-583 -1379 0
-584 -1380 0
-585 -781 0
-586 -782 0
-587 -783 0
-588 -784 0
-585 -889 0
-586 -890 0
-587 -891 0
-588 -892 0
-585 -1125 0
-586 -1126 0
-587 -1127 0
-588 -1128 0
-585 -1245 0
-586 -1246 0
-587 -1247 0
-588 -1248 0
-585 -1373 0
-586 -1374 0
-587 -1375 0
-588 -1376 0
-589 -785 0
-590 -786 0
-591 -787 0
-592 -788 0
-589 -901 0
-590 -902 0
-591 -903 0
-592 -904 0
-589 -1121 0
-590 -1122 0
-591 -1123 0
-592 -1124 0
-589 -1241 0
-590 -1242 0
-591 -1243 0
-592 -1244 0
-589 -1385 0
-590 -1386 0
-591 -1387 0
-592 -1388 0
-593 -773 0
-594 -774 0
-595 -775 0
-596 -776 0
-593 -897 0
-594 -898 0
-595 -899 0
-596 -900 0
-593 -1133 0
-594 -1134 0
-595 -1135 0
-596 -1136 0
-593 -1253 0
-594 -1254 0
-595 -1255 0
-596 -1256 0
-593 -1381 0
-594 -1382 0
-595 -1383 0
-596 -1384 0
-597 -777 0
-598 -778 0
-599 -779 0
-600 -780 0
-597 -877 0
-598 -878 0
-599 -879 0
-600 -880 0
-597 -1129 0
-598 -1130 0
-599 -1131 0
-600 -1132 0
-597 -1249 0
-598 -1250 0
-599 -1251 0
-600 -1252 0
-597 -1393 0
-598 -1394 0
-599 -1395 0
-600 -1396 0
-601 -757 0
-602 -758 0
-603 -759 0
-604 -760 0
-601 -781 0
-602 -782 0
-603 -783 0
-604 -784 0
-601 -1093 0
-602 -1094 0
-603 -1095 0
-604 -1096 0
-601 -1213 0
-602 -1214 0
-603 -1215 0
-604 -1216 0
-601 -1389 0
-602 -1390 0
-603 -1391 0
-604 -1392 0
-605 -957 0
-606 -958 0
-607 -959 0
-608 -960 0
-605 -1049 0
-606 -1050 0
-607 -1051 0
-608 -1052 0
-605 -1277 0
-606 -1278 0
-607 -1279 0
-608 -1280 0
-609 -969 0
-610 -970 0
-611 -971 0
-612 -972 0
-609 -1045 0
-610 -1046 0
-611 -1047 0
-612 -1048 0
-609 -1289 0
-610 -1290 0
-611 -1291 0
-612 -1292 0
-613 -973 0
-614 -974 0
-615 -975 0
-616 -976 0
-613 -1073 0
-614 -1074 0
-615 -1075 0
-616 -1076 0
-613 -1293 0
-614 -1294 0
-615 -1295 0
-616 -1296 0
-617 -985 0
-618 -986 0
-619 -987 0
-620 -988 0
-617 -1069 0
-618 -1070 0
-619 -1071 0
-620 -1072 0
-617 -1305 0
-618 -1306 0
-619 -1307 0
-620 -1308 0
-621 -633 0
-622 -634 0
-623 -635 0
-624 -636 0
-621 -681 0
-622 -682 0
-623 -683 0
-624 -684 0
-621 -789 0
-622 -790 0
-623 -791 0
-624 -792 0
-621 -869 0
-622 -870 0
-623 -871 0
-624 -872 0
-621 -1169 0
-622 -1170 0
-623 -1171 0
-624 -1172 0
-625 -637 0
-626 -638 0
-627 -639 0
-628 -640 0
-625 -685 0
-626 -686 0
-627 -687 0
-628 -688 0
-625 -1173 0
-626 -1174 0
-627 -1175 0
-628 -1176 0
-625 -1209 0
-626 -1210 0
-627 -1211 0
-628 -1212 0
-629 -641 0
-630 -642 0
-631 -643 0
-632 -644 0
-629 -689 0
-630 -690 0
-631 -691 0
-632 -692 0
-629 -841 0
-630 -842 0
-631 -843 0
-632 -844 0
-629 -1165 0
-630 -1166 0
-631 -1167 0
-632 -1168 0
-633 -645 0
-634 -646 0
-635 -647 0
-636 -648 0
-633 -793 0
-634 -794 0
-635 -795 0
-636 -796 0
-633 -829 0
-634 -830 0
-635 -831 0
-636 -832 0
-633 -1177 0
-634 -1178 0
-635 -1179 0
-636 -1180 0
-633 -1397 0
-634 -1398 0
-635 -1399 0
-636 -1400 0
-637 -649 0
-638 -650 0
-639 -651 0
-640 -652 0
-637 -1169 0
-638 -1170 0
-639 -1171 0
-640 -1172 0
-637 -1181 0
-638 -1182 0
-639 -1183 0
-640 -1184 0
-641 -653 0
-642 -654 0
-643 -655 0
-644 -656 0
-641 -789 0
-642 -790 0
-643 -791 0
-644 -792 0
-641 -849 0
-642 -850 0
-643 -851 0
-644 -852 0
-641 -1173 0
-642 -1174 0
-643 -1175 0
-644 -1176 0
-641 -1397 0
-642 -1398 0
-643 -1399 0
-644 -1400 0
-645 -657 0
-646 -658 0
-647 -659 0
-648 -660 0
-645 -837 0
-646 -838 0
-647 -839 0
-648 -840 0
-645 -1185 0
-646 -1186 0
-647 -1187 0
-648 -1188 0
-649 -661 0
-650 -662 0
-651 -663 0
-652 -664 0
-649 -1177 0
-650 -1178 0
-651 -1179 0
-652 -1180 0
-649 -1189 0
-650 -1190 0
-651 -1191 0
-652 -1192 0
-653 -665 0
-654 -666 0
-655 -667 0
-656 -668 0
-653 -793 0
-654 -794 0
-655 -795 0
-656 -796 0
-653 -857 0
-654 -858 0
-655 -859 0
-656 -860 0
-653 -1181 0
-654 -1182 0
-655 -1183 0
-656 -1184 0
-657 -669 0
-658 -670 0
-659 -671 0
-660 -672 0
-657 -797 0
-658 -798 0
-659 -799 0
-660 -800 0
-657 -845 0
-658 -846 0
-659 -847 0
-660 -848 0
-657 -1193 0
-658 -1194 0
-659 -1195 0
-660 -1196 0
-661 -673 0
-662 -674 0
-663 -675 0
-664 -676 0
-661 -1185 0
-662 -1186 0
-663 -1187 0
-664 -1188 0
-661 -1197 0
-662 -1198 0
-663 -1199 0
-664 -1200 0
-665 -677 0
-666 -678 0
-667 -679 0
-668 -680 0
-665 -865 0
-666 -866 0
-667 -867 0
-668 -868 0
-665 -1189 0
-666 -1190 0
-667 -1191 0
-668 -1192 0
-669 -681 0
-670 -682 0
-671 -683 0
-672 -684 0
-669 -801 0
-670 -802 0
-671 -803 0
-672 -804 0
-669 -853 0
-670 -854 0
-671 -855 0
-672 -856 0
-669 -1201 0
-670 -1202 0
-671 -1203 0
-672 -1204 0
-669 -1401 0
-670 -1402 0
-671 -1403 0
-672 -1404 0
-673 -685 0
-674 -686 0
-675 -687 0
-676 -688 0
-673 -1193 0
-674 -1194 0
-675 -1195 0
-676 -1196 0
-673 -1205 0
-674 -1206 0
-675 -1207 0
-676 -1208 0
-677 -689 0
-678 -690 0
-679 -691 0
-680 -692 0
-677 -797 0
-678 -798 0
-679 -799 0
-680 -800 0
-677 -873 0
-678 -874 0
-679 -875 0
-680 -876 0
-677 -1197 0
-678 -1198 0
-679 -1199 0
-680 -1200 0
-677 -1401 0
-678 -1402 0
-679 -1403 0
-680 -1404 0
-681 -861 0
-682 -862 0
-683 -863 0
-684 -864 0
-681 -1209 0
-682 -1210 0
-683 -1211 0
-684 -1212 0
-685 -1165 0
-686 -1166 0
-687 -1167 0
-688 -1168 0
-685 -1201 0
-686 -1202 0
-687 -1203 0
-688 -1204 0
-689 -801 0
-690 -802 0
-691 -803 0
-692 -804 0
-689 -833 0
-690 -834 0
-691 -835 0
-692 -836 0
-689 -1205 0
-690 -1206 0
-691 -1207 0
-692 -1208 0
-693 -741 0
-694 -742 0
-695 -743 0
-696 -744 0
-693 -949 0
-694 -950 0
-695 -951 0
-696 -952 0
-693 -1145 0
-694 -1146 0
-695 -1147 0
-696 -1148 0
-693 -1305 0
-694 -1306 0
-695 -1307 0
-696 -1308 0
-693 -1353 0
-694 -1354 0
-695 -1355 0
-696 -1356 0
-693 -1405 0
-694 -1406 0
-695 -1407 0
-696 -1408 0
-697 -921 0
-698 -922 0
-699 -923 0
-700 -924 0
-697 -1141 0
-698 -1142 0
-699 -1143 0
-700 -1144 0
-697 -1349 0
-698 -1350 0
-699 -1351 0
-700 -1352 0
-697 -1409 0
-698 -1410 0
-699 -1411 0
-700 -1412 0
-701 -909 0
-702 -910 0
-703 -911 0
-704 -912 0
-701 -1149 0
-702 -1150 0
-703 -1151 0
-704 -1152 0
-701 -1281 0
-702 -1282 0
-703 -1283 0
-704 -1284 0
-701 -1361 0
-702 -1362 0
-703 -1363 0
-704 -1364 0
-701 -1413 0
-702 -1414 0
-703 -1415 0
-704 -1416 0
-705 -929 0
-706 -930 0
-707 -931 0
-708 -932 0
-705 -1145 0
-706 -1146 0
-707 -1147 0
-708 -1148 0
-705 -1285 0
-706 -1286 0
-707 -1287 0
-708 -1288 0
-705 -1357 0
-706 -1358 0
-707 -1359 0
-708 -1360 0
-705 -1417 0
-706 -1418 0
-707 -1419 0
-708 -1420 0
-709 -917 0
-710 -918 0
-711 -919 0
-712 -920 0
-709 -1153 0
-710 -1154 0
-711 -1155 0
-712 -1156 0
-709 -1369 0
-710 -1370 0
-711 -1371 0
-712 -1372 0
-709 -1421 0
-710 -1422 0
-711 -1423 0
-712 -1424 0
-713 -745 0
-714 -746 0
-715 -747 0
-716 -748 0
-713 -937 0
-714 -938 0
-715 -939 0
-716 -940 0
-713 -1149 0
-714 -1150 0
-715 -1151 0
-716 -1152 0
-713 -1293 0
-714 -1294 0
-715 -1295 0
-716 -1296 0
-713 -1365 0
-714 -1366 0
-715 -1367 0
-716 -1368 0
-713 -1425 0
-714 -1426 0
-715 -1427 0
-716 -1428 0
-717 -749 0
-718 -750 0
-719 -751 0
-720 -752 0
-717 -925 0
-718 -926 0
-719 -927 0
-720 -928 0
-717 -1157 0
-718 -1158 0
-719 -1159 0
-720 -1160 0
-717 -1289 0
-718 -1290 0
-719 -1291 0
-720 -1292 0
-717 -1377 0
-718 -1378 0
-719 -1379 0
-720 -1380 0
-717 -1429 0
-718 -1430 0
-719 -1431 0
-720 -1432 0
-721 -945 0
-722 -946 0
-723 -947 0
-724 -948 0
-721 -1153 0
-722 -1154 0
-723 -1155 0
-724 -1156 0
-721 -1373 0
-722 -1374 0
-723 -1375 0
-724 -1376 0
-721 -1433 0
-722 -1434 0
-723 -1435 0
-724 -1436 0
-725 -933 0
-726 -934 0
-727 -935 0
-728 -936 0
-725 -1161 0
-726 -1162 0
-727 -1163 0
-728 -1164 0
-725 -1297 0
-726 -1298 0
-727 -1299 0
-728 -1300 0
-725 -1385 0
-726 -1386 0
-727 -1387 0
-728 -1388 0
-725 -1437 0
-726 -1438 0
-727 -1439 0
-728 -1440 0
-729 -953 0
-730 -954 0
-731 -955 0
-732 -956 0
-729 -1157 0
-730 -1158 0
-731 -1159 0
-732 -1160 0
-729 -1301 0
-730 -1302 0
-731 -1303 0
-732 -1304 0
-729 -1381 0
-730 -1382 0
-731 -1383 0
-732 -1384 0
-729 -1441 0
-730 -1442 0
-731 -1443 0
-732 -1444 0
-733 -941 0
-734 -942 0
-735 -943 0
-736 -944 0
-733 -1141 0
-734 -1142 0
-735 -1143 0
-736 -1144 0
-733 -1393 0
-734 -1394 0
-735 -1395 0
-736 -1396 0
-733 -1445 0
-734 -1446 0
-735 -1447 0
-736 -1448 0
-737 -753 0
-738 -754 0
-739 -755 0
-740 -756 0
-737 -913 0
-738 -914 0
-739 -915 0
-740 -916 0
-737 -1161 0
-738 -1162 0
-739 -1163 0
-740 -1164 0
-737 -1277 0
-738 -1278 0
-739 -1279 0
-740 -1280 0
-737 -1389 0
-738 -1390 0
-739 -1391 0
-740 -1392 0
-737 -1449 0
-738 -1450 0
-739 -1451 0
-740 -1452 0
-741 -965 0
-742 -966 0
-743 -967 0
-744 -968 0
-741 -1353 0
-742 -1354 0
-743 -1355 0
-744 -1356 0
-745 -961 0
-746 -962 0
-747 -963 0
-748 -964 0
-745 -1365 0
-746 -1366 0
-747 -1367 0
-748 -1368 0
-749 -981 0
-750 -982 0
-751 -983 0
-752 -984 0
-749 -1377 0
-750 -1378 0
-751 -1379 0
-752 -1380 0
-753 -977 0
-754 -978 0
-755 -979 0
-756 -980 0
-753 -1389 0
-754 -1390 0
-755 -1391 0
-756 -1392 0
-757 -1033 0
-758 -1034 0
-759 -1035 0
-760 -1036 0
-757 -1101 0
-758 -1102 0
-759 -1103 0
-760 -1104 0
-761 -1005 0
-762 -1006 0
-763 -1007 0
-764 -1008 0
-761 -1097 0
-762 -1098 0
-763 -1099 0
-764 -1100 0
-765 -993 0
-766 -994 0
-767 -995 0
-768 -996 0
-765 -1109 0
-766 -1110 0
-767 -1111 0
-768 -1112 0
-769 -1013 0
-770 -1014 0
-771 -1015 0
-772 -1016 0
-769 -1105 0
-770 -1106 0
-771 -1107 0
-772 -1108 0
-773 -1009 0
-774 -1010 0
-775 -1011 0
-776 -1012 0
-773 -1125 0
-774 -1126 0
-775 -1127 0
-776 -1128 0
-777 -1029 0
-778 -1030 0
-779 -1031 0
-780 -1032 0
-777 -1121 0
-778 -1122 0
-779 -1123 0
-780 -1124 0
-781 -1017 0
-782 -1018 0
-783 -1019 0
-784 -1020 0
-781 -1133 0
-782 -1134 0
-783 -1135 0
-784 -1136 0
-785 -989 0
-786 -990 0
-787 -991 0
-788 -992 0
-785 -1129 0
-786 -1130 0
-787 -1131 0
-788 -1132 0
-789 -1397 0
-790 -1398 0
-791 -1399 0
-792 -1400 0
-789 -1409 0
-790 -1410 0
-791 -1411 0
-792 -1412 0
-789 -1413 0
-790 -1414 0
-791 -1415 0
-792 -1416 0
-793 -1397 0
-794 -1398 0
-795 -1399 0
-796 -1400 0
-793 -1417 0
-794 -1418 0
-795 -1419 0
-796 -1420 0
-793 -1421 0
-794 -1422 0
-795 -1423 0
-796 -1424 0
-797 -1401 0
-798 -1402 0
-799 -1403 0
-800 -1404 0
-797 -1433 0
-798 -1434 0
-799 -1435 0
-800 -1436 0
-797 -1437 0
-798 -1438 0
-799 -1439 0
-800 -1440 0
-801 -1401 0
-802 -1402 0
-803 -1403 0
-804 -1404 0
-801 -1441 0
-802 -1442 0
-803 -1443 0
-804 -1444 0
-801 -1445 0
-802 -1446 0
-803 -1447 0
-804 -1448 0
-805 -1045 0
-806 -1046 0
-807 -1047 0
-808 -1048 0
-805 -1081 0
-806 -1082 0
-807 -1083 0
-808 -1084 0
-805 -1173 0
-806 -1174 0
-807 -1175 0
-808 -1176 0
-805 -1209 0
-806 -1210 0
-807 -1211 0
-808 -1212 0
-805 -1405 0
-806 -1406 0
-807 -1407 0
-808 -1408 0
-805 -1409 0
-806 -1410 0
-807 -1411 0
-808 -1412 0
-805 -1453 0
-806 -1454 0
-807 -1455 0
-808 -1456 0
-809 -1041 0
-810 -1042 0
-811 -1043 0
-812 -1044 0
-809 -1053 0
-810 -1054 0
-811 -1055 0
-812 -1056 0
-809 -1169 0
-810 -1170 0
-811 -1171 0
-812 -1172 0
-809 -1181 0
-810 -1182 0
-811 -1183 0
-812 -1184 0
-809 -1413 0
-810 -1414 0
-811 -1415 0
-812 -1416 0
-809 -1417 0
-810 -1418 0
-811 -1419 0
-812 -1420 0
-813 -1049 0
-814 -1050 0
-815 -1051 0
-816 -1052 0
-813 -1061 0
-814 -1062 0
-815 -1063 0
-816 -1064 0
-813 -1177 0
-814 -1178 0
-815 -1179 0
-816 -1180 0
-813 -1189 0
-814 -1190 0
-815 -1191 0
-816 -1192 0
-813 -1421 0
-814 -1422 0
-815 -1423 0
-816 -1424 0
-813 -1425 0
-814 -1426 0
-815 -1427 0
-816 -1428 0
-813 -1457 0
-814 -1458 0
-815 -1459 0
-816 -1460 0
-817 -1057 0
-818 -1058 0
-819 -1059 0
-820 -1060 0
-817 -1069 0
-818 -1070 0
-819 -1071 0
-820 -1072 0
-817 -1185 0
-818 -1186 0
-819 -1187 0
-820 -1188 0
-817 -1197 0
-818 -1198 0
-819 -1199 0
-820 -1200 0
-817 -1429 0
-818 -1430 0
-819 -1431 0
-820 -1432 0
-817 -1433 0
-818 -1434 0
-819 -1435 0
-820 -1436 0
-817 -1461 0
-818 -1462 0
-819 -1463 0
-820 -1464 0
-821 -1065 0
-822 -1066 0
-823 -1067 0
-824 -1068 0
-821 -1077 0
-822 -1078 0
-823 -1079 0
-824 -1080 0
-821 -1193 0
-822 -1194 0
-823 -1195 0
-824 -1196 0
-821 -1205 0
-822 -1206 0
-823 -1207 0
-824 -1208 0
-821 -1437 0
-822 -1438 0
-823 -1439 0
-824 -1440 0
-821 -1441 0
-822 -1442 0
-823 -1443 0
-824 -1444 0
-825 -1037 0
-826 -1038 0
-827 -1039 0
-828 -1040 0
-825 -1073 0
-826 -1074 0
-827 -1075 0
-828 -1076 0
-825 -1165 0
-826 -1166 0
-827 -1167 0
-828 -1168 0
-825 -1201 0
-826 -1202 0
-827 -1203 0
-828 -1204 0
-825 -1445 0
-826 -1446 0
-827 -1447 0
-828 -1448 0
-825 -1449 0
-826 -1450 0
-827 -1451 0
-828 -1452 0
-825 -1465 0
-826 -1466 0
-827 -1467 0
-828 -1468 0
-829 -961 0
-830 -962 0
-831 -963 0
-832 -964 0
-829 -1133 0
-830 -1134 0
-831 -1135 0
-832 -1136 0
-833 -957 0
-834 -958 0
-835 -959 0
-836 -960 0
-833 -1105 0
-834 -1106 0
-835 -1107 0
-836 -1108 0
-833 -1333 0
-834 -1334 0
-835 -1335 0
-836 -1336 0
-837 -1093 0
-838 -1094 0
-839 -1095 0
-840 -1096 0
-841 -1113 0
-842 -1114 0
-843 -1115 0
-844 -1116 0
-845 -969 0
-846 -970 0
-847 -971 0
-848 -972 0
-845 -1101 0
-846 -1102 0
-847 -1103 0
-848 -1104 0
-845 -1337 0
-846 -1338 0
-847 -1339 0
-848 -1340 0
-849 -965 0
-850 -966 0
-851 -967 0
-852 -968 0
-849 -1121 0
-850 -1122 0
-851 -1123 0
-852 -1124 0
-853 -977 0
-854 -978 0
-855 -979 0
-856 -980 0
-853 -1109 0
-854 -1110 0
-855 -1111 0
-856 -1112 0
-857 -973 0
-858 -974 0
-859 -975 0
-860 -976 0
-857 -1129 0
-858 -1130 0
-859 -1131 0
-860 -1132 0
-857 -1341 0
-858 -1342 0
-859 -1343 0
-860 -1344 0
-861 -1117 0
-862 -1118 0
-863 -1119 0
-864 -1120 0
-865 -1137 0
-866 -1138 0
-867 -1139 0
-868 -1140 0
-869 -985 0
-870 -986 0
-871 -987 0
-872 -988 0
-869 -1125 0
-870 -1126 0
-871 -1127 0
-872 -1128 0
-869 -1345 0
-870 -1346 0
-871 -1347 0
-872 -1348 0
-873 -981 0
-874 -982 0
-875 -983 0
-876 -984 0
-873 -1097 0
-874 -1098 0
-875 -1099 0
-876 -1100 0
-877 -1145 0
-878 -1146 0
-879 -1147 0
-880 -1148 0
-877 -1393 0
-878 -1394 0
-879 -1395 0
-880 -1396 0
-877 -1453 0
-878 -1454 0
-879 -1455 0
-880 -1456 0
-881 -1085 0
-882 -1086 0
-883 -1087 0
-884 -1088 0
-881 -1141 0
-882 -1142 0
-883 -1143 0
-884 -1144 0
-881 -1261 0
-882 -1262 0
-883 -1263 0
-884 -1264 0
-881 -1357 0
-882 -1358 0
-883 -1359 0
-884 -1360 0
-881 -1453 0
-882 -1454 0
-883 -1455 0
-884 -1456 0
-885 -1085 0
-886 -1086 0
-887 -1087 0
-888 -1088 0
-885 -1153 0
-886 -1154 0
-887 -1155 0
-888 -1156 0
-885 -1265 0
-886 -1266 0
-887 -1267 0
-888 -1268 0
-885 -1361 0
-886 -1362 0
-887 -1363 0
-888 -1364 0
-885 -1457 0
-886 -1458 0
-887 -1459 0
-888 -1460 0
-889 -1149 0
-890 -1150 0
-891 -1151 0
-892 -1152 0
-889 -1373 0
-890 -1374 0
-891 -1375 0
-892 -1376 0
-889 -1457 0
-890 -1458 0
-891 -1459 0
-892 -1460 0
-893 -1157 0
-894 -1158 0
-895 -1159 0
-896 -1160 0
-893 -1369 0
-894 -1370 0
-895 -1371 0
-896 -1372 0
-893 -1461 0
-894 -1462 0
-895 -1463 0
-896 -1464 0
-897 -1089 0
-898 -1090 0
-899 -1091 0
-900 -1092 0
-897 -1153 0
-898 -1154 0
-899 -1155 0
-900 -1156 0
-897 -1269 0
-898 -1270 0
-899 -1271 0
-900 -1272 0
-897 -1381 0
-898 -1382 0
-899 -1383 0
-900 -1384 0
-897 -1461 0
-898 -1462 0
-899 -1463 0
-900 -1464 0
-901 -1089 0
-902 -1090 0
-903 -1091 0
-904 -1092 0
-901 -1141 0
-902 -1142 0
-903 -1143 0
-904 -1144 0
-901 -1273 0
-902 -1274 0
-903 -1275 0
-904 -1276 0
-901 -1385 0
-902 -1386 0
-903 -1387 0
-904 -1388 0
-901 -1465 0
-902 -1466 0
-903 -1467 0
-904 -1468 0
-905 -1161 0
-906 -1162 0
-907 -1163 0
-908 -1164 0
-905 -1349 0
-906 -1350 0
-907 -1351 0
-908 -1352 0
-905 -1465 0
-906 -1466 0
-907 -1467 0
-908 -1468 0
-909 -953 0
-910 -954 0
-911 -955 0
-912 -956 0
-909 -997 0
-910 -998 0
-911 -999 0
-912 -1000 0
-909 -1313 0
-910 -1314 0
-911 -1315 0
-912 -1316 0
-909 -1409 0
-910 -1410 0
-911 -1411 0
-912 -1412 0
-913 -917 0
-914 -918 0
-915 -919 0
-916 -920 0
-913 -1033 0
-914 -1034 0
-915 -1035 0
-916 -1036 0
-913 -1273 0
-914 -1274 0
-915 -1275 0
-916 -1276 0
-913 -1309 0
-914 -1310 0
-915 -1311 0
-916 -1312 0
-913 -1405 0
-914 -1406 0
-915 -1407 0
-916 -1408 0
-917 -1005 0
-918 -1006 0
-919 -1007 0
-920 -1008 0
-917 -1317 0
-918 -1318 0
-919 -1319 0
-920 -1320 0
-917 -1417 0
-918 -1418 0
-919 -1419 0
-920 -1420 0
-921 -925 0
-922 -926 0
-923 -927 0
-924 -928 0
-921 -993 0
-922 -994 0
-923 -995 0
-924 -996 0
-921 -1313 0
-922 -1314 0
-923 -1315 0
-924 -1316 0
-921 -1413 0
-922 -1414 0
-923 -1415 0
-924 -1416 0
-925 -1013 0
-926 -1014 0
-927 -1015 0
-928 -1016 0
-925 -1269 0
-926 -1270 0
-927 -1271 0
-928 -1272 0
-925 -1321 0
-926 -1322 0
-927 -1323 0
-928 -1324 0
-925 -1425 0
-926 -1426 0
-927 -1427 0
-928 -1428 0
-929 -933 0
-930 -934 0
-931 -935 0
-932 -936 0
-929 -1001 0
-930 -1002 0
-931 -1003 0
-932 -1004 0
-929 -1317 0
-930 -1318 0
-931 -1319 0
-932 -1320 0
-929 -1421 0
-930 -1422 0
-931 -1423 0
-932 -1424 0
-933 -1021 0
-934 -1022 0
-935 -1023 0
-936 -1024 0
-933 -1325 0
-934 -1326 0
-935 -1327 0
-936 -1328 0
-933 -1433 0
-934 -1434 0
-935 -1435 0
-936 -1436 0
-937 -941 0
-938 -942 0
-939 -943 0
-940 -944 0
-937 -1009 0
-938 -1010 0
-939 -1011 0
-940 -1012 0
-937 -1265 0
-938 -1266 0
-939 -1267 0
-940 -1268 0
-937 -1321 0
-938 -1322 0
-939 -1323 0
-940 -1324 0
-937 -1429 0
-938 -1430 0
-939 -1431 0
-940 -1432 0
-941 -1029 0
-942 -1030 0
-943 -1031 0
-944 -1032 0
-941 -1329 0
-942 -1330 0
-943 -1331 0
-944 -1332 0
-941 -1441 0
-942 -1442 0
-943 -1443 0
-944 -1444 0
-945 -949 0
-946 -950 0
-947 -951 0
-948 -952 0
-945 -1017 0
-946 -1018 0
-947 -1019 0
-948 -1020 0
-945 -1325 0
-946 -1326 0
-947 -1327 0
-948 -1328 0
-945 -1437 0
-946 -1438 0
-947 -1439 0
-948 -1440 0
-949 -989 0
-950 -990 0
-951 -991 0
-952 -992 0
-949 -1261 0
-950 -1262 0
-951 -1263 0
-952 -1264 0
-949 -1309 0
-950 -1310 0
-951 -1311 0
-952 -1312 0
-949 -1449 0
-950 -1450 0
-951 -1451 0
-952 -1452 0
-953 -1025 0
-954 -1026 0
-955 -1027 0
-956 -1028 0
-953 -1329 0
-954 -1330 0
-955 -1331 0
-956 -1332 0
-953 -1445 0
-954 -1446 0
-955 -1447 0
-956 -1448 0
-957 -1077 0
-958 -1078 0
-959 -1079 0
-960 -1080 0
-957 -1281 0
-958 -1282 0
-959 -1283 0
-960 -1284 0
-961 -1049 0
-962 -1050 0
-963 -1051 0
-964 -1052 0
-961 -1277 0
-962 -1278 0
-963 -1279 0
-964 -1280 0
-961 -1397 0
-962 -1398 0
-963 -1399 0
-964 -1400 0
-965 -1045 0
-966 -1046 0
-967 -1047 0
-968 -1048 0
-965 -1289 0
-966 -1290 0
-967 -1291 0
-968 -1292 0
-965 -1397 0
-966 -1398 0
-967 -1399 0
-968 -1400 0
-969 -1065 0
-970 -1066 0
-971 -1067 0
-972 -1068 0
-969 -1285 0
-970 -1286 0
-971 -1287 0
-972 -1288 0
-973 -1053 0
-974 -1054 0
-975 -1055 0
-976 -1056 0
-973 -1297 0
-974 -1298 0
-975 -1299 0
-976 -1300 0
-977 -1073 0
-978 -1074 0
-979 -1075 0
-980 -1076 0
-977 -1293 0
-978 -1294 0
-979 -1295 0
-980 -1296 0
-977 -1401 0
-978 -1402 0
-979 -1403 0
-980 -1404 0
-981 -1069 0
-982 -1070 0
-983 -1071 0
-984 -1072 0
-981 -1305 0
-982 -1306 0
-983 -1307 0
-984 -1308 0
-981 -1401 0
-982 -1402 0
-983 -1403 0
-984 -1404 0
-985 -1041 0
-986 -1042 0
-987 -1043 0
-988 -1044 0
-985 -1301 0
-986 -1302 0
-987 -1303 0
-988 -1304 0
-989 -1353 0
-990 -1354 0
-991 -1355 0
-992 -1356 0
-989 -1449 0
-990 -1450 0
-991 -1451 0
-992 -1452 0
-989 -1453 0
-990 -1454 0
-991 -1455 0
-992 -1456 0
-993 -1333 0
-994 -1334 0
-995 -1335 0
-996 -1336 0
-993 -1349 0
-994 -1350 0
-995 -1351 0
-996 -1352 0
-993 -1413 0
-994 -1414 0
-995 -1415 0
-996 -1416 0
-993 -1453 0
-994 -1454 0
-995 -1455 0
-996 -1456 0
-997 -1361 0
-998 -1362 0
-999 -1363 0
-1000 -1364 0
-997 -1409 0
-998 -1410 0
-999 -1411 0
-1000 -1412 0
-1001 -1357 0
-1002 -1358 0
-1003 -1359 0
-1004 -1360 0
-1001 -1421 0
-1002 -1422 0
-1003 -1423 0
-1004 -1424 0
-1005 -1337 0
-1006 -1338 0
-1007 -1339 0
-1008 -1340 0
-1005 -1369 0
-1006 -1370 0
-1007 -1371 0
-1008 -1372 0
-1005 -1417 0
-1006 -1418 0
-1007 -1419 0
-1008 -1420 0
-1005 -1457 0
-1006 -1458 0
-1007 -1459 0
-1008 -1460 0
-1009 -1365 0
-1010 -1366 0
-1011 -1367 0
-1012 -1368 0
-1009 -1429 0
-1010 -1430 0
-1011 -1431 0
-1012 -1432 0
-1009 -1457 0
-1010 -1458 0
-1011 -1459 0
-1012 -1460 0
-1013 -1377 0
-1014 -1378 0
-1015 -1379 0
-1016 -1380 0
-1013 -1425 0
-1014 -1426 0
-1015 -1427 0
-1016 -1428 0
-1013 -1461 0
-1014 -1462 0
-1015 -1463 0
-1016 -1464 0
-1017 -1341 0
-1018 -1342 0
-1019 -1343 0
-1020 -1344 0
-1017 -1373 0
-1018 -1374 0
-1019 -1375 0
-1020 -1376 0
-1017 -1437 0
-1018 -1438 0
-1019 -1439 0
-1020 -1440 0
-1017 -1461 0
-1018 -1462 0
-1019 -1463 0
-1020 -1464 0
-1021 -1385 0
-1022 -1386 0
-1023 -1387 0
-1024 -1388 0
-1021 -1433 0
-1022 -1434 0
-1023 -1435 0
-1024 -1436 0
-1025 -1381 0
-1026 -1382 0
-1027 -1383 0
-1028 -1384 0
-1025 -1445 0
-1026 -1446 0
-1027 -1447 0
-1028 -1448 0
-1029 -1345 0
-1030 -1346 0
-1031 -1347 0
-1032 -1348 0
-1029 -1393 0
-1030 -1394 0
-1031 -1395 0
-1032 -1396 0
-1029 -1441 0
-1030 -1442 0
-1031 -1443 0
-1032 -1444 0
-1029 -1465 0
-1030 -1466 0
-1031 -1467 0
-1032 -1468 0
-1033 -1389 0
-1034 -1390 0
-1035 -1391 0
-1036 -1392 0
-1033 -1405 0
-1034 -1406 0
-1035 -1407 0
-1036 -1408 0
-1033 -1465 0
-1034 -1466 0
-1035 -1467 0
-1036 -1468 0
-1037 -1145 0
-1038 -1146 0
-1039 -1147 0
-1040 -1148 0
-1037 -1305 0
-1038 -1306 0
-1039 -1307 0
-1040 -1308 0
-1037 -1393 0
-1038 -1394 0
-1039 -1395 0
-1040 -1396 0
-1041 -1141 0
-1042 -1142 0
-1043 -1143 0
-1044 -1144 0
-1041 -1357 0
-1042 -1358 0
-1043 -1359 0
-1044 -1360 0
-1045 -1149 0
-1046 -1150 0
-1047 -1151 0
-1048 -1152 0
-1045 -1281 0
-1046 -1282 0
-1047 -1283 0
-1048 -1284 0
-1045 -1353 0
-1046 -1354 0
-1047 -1355 0
-1048 -1356 0
-1049 -1145 0
-1050 -1146 0
-1051 -1147 0
-1052 -1148 0
-1049 -1285 0
-1050 -1286 0
-1051 -1287 0
-1052 -1288 0
-1049 -1365 0
-1050 -1366 0
-1051 -1367 0
-1052 -1368 0
-1053 -1153 0
-1054 -1154 0
-1055 -1155 0
-1056 -1156 0
-1053 -1361 0
-1054 -1362 0
-1055 -1363 0
-1056 -1364 0
-1057 -1149 0
-1058 -1150 0
-1059 -1151 0
-1060 -1152 0
-1057 -1293 0
-1058 -1294 0
-1059 -1295 0
-1060 -1296 0
-1057 -1373 0
-1058 -1374 0
-1059 -1375 0
-1060 -1376 0
-1061 -1157 0
-1062 -1158 0
-1063 -1159 0
-1064 -1160 0
-1061 -1289 0
-1062 -1290 0
-1063 -1291 0
-1064 -1292 0
-1061 -1369 0
-1062 -1370 0
-1063 -1371 0
-1064 -1372 0
-1065 -1153 0
-1066 -1154 0
-1067 -1155 0
-1068 -1156 0
-1065 -1381 0
-1066 -1382 0
-1067 -1383 0
-1068 -1384 0
-1069 -1161 0
-1070 -1162 0
-1071 -1163 0
-1072 -1164 0
-1069 -1297 0
-1070 -1298 0
-1071 -1299 0
-1072 -1300 0
-1069 -1377 0
-1070 -1378 0
-1071 -1379 0
-1072 -1380 0
-1073 -1157 0
-1074 -1158 0
-1075 -1159 0
-1076 -1160 0
-1073 -1301 0
-1074 -1302 0
-1075 -1303 0
-1076 -1304 0
-1073 -1389 0
-1074 -1390 0
-1075 -1391 0
-1076 -1392 0
-1077 -1141 0
-1078 -1142 0
-1079 -1143 0
-1080 -1144 0
-1077 -1385 0
-1078 -1386 0
-1079 -1387 0
-1080 -1388 0
-1081 -1161 0
-1082 -1162 0
-1083 -1163 0
-1084 -1164 0
-1081 -1277 0
-1082 -1278 0
-1083 -1279 0
-1084 -1280 0
-1081 -1349 0
-1082 -1350 0
-1083 -1351 0
-1084 -1352 0
-1093 -1313 0
-1094 -1314 0
-1095 -1315 0
-1096 -1316 0
-1097 -1309 0
-1098 -1310 0
-1099 -1311 0
-1100 -1312 0
-1101 -1317 0
-1102 -1318 0
-1103 -1319 0
-1104 -1320 0
-1105 -1313 0
-1106 -1314 0
-1107 -1315 0
-1108 -1316 0
-1109 -1321 0
-1110 -1322 0
-1111 -1323 0
-1112 -1324 0
-1113 -1317 0
-1114 -1318 0
-1115 -1319 0
-1116 -1320 0
-1117 -1325 0
-1118 -1326 0
-1119 -1327 0
-1120 -1328 0
-1121 -1321 0
-1122 -1322 0
-1123 -1323 0
-1124 -1324 0
-1125 -1329 0
-1126 -1330 0
-1127 -1331 0
-1128 -1332 0
-1129 -1325 0
-1130 -1326 0
-1131 -1327 0
-1132 -1328 0
-1133 -1309 0
-1134 -1310 0
-1135 -1311 0
-1136 -1312 0
-1137 -1329 0
-1138 -1330 0
-1139 -1331 0
-1140 -1332 0
-1141 -1217 0
-1142 -1218 0
-1143 -1219 0
-1144 -1220 0
-1141 -1253 0
-1142 -1254 0
-1143 -1255 0
-1144 -1256 0
-1145 -1213 0
-1146 -1214 0
-1147 -1215 0
-1148 -1216 0
-1145 -1225 0
-1146 -1226 0
-1147 -1227 0
-1148 -1228 0
-1145 -1337 0
-1146 -1338 0
-1147 -1339 0
-1148 -1340 0
-1149 -1221 0
-1150 -1222 0
-1151 -1223 0
-1152 -1224 0
-1149 -1233 0
-1150 -1234 0
-1151 -1235 0
-1152 -1236 0
-1149 -1333 0
-1150 -1334 0
-1151 -1335 0
-1152 -1336 0
-1153 -1229 0
-1154 -1230 0
-1155 -1231 0
-1156 -1232 0
-1153 -1241 0
-1154 -1242 0
-1155 -1243 0
-1156 -1244 0
-1157 -1237 0
-1158 -1238 0
-1159 -1239 0
-1160 -1240 0
-1157 -1249 0
-1158 -1250 0
-1159 -1251 0
-1160 -1252 0
-1157 -1345 0
-1158 -1346 0
-1159 -1347 0
-1160 -1348 0
-1161 -1245 0
-1162 -1246 0
-1163 -1247 0
-1164 -1248 0
-1161 -1257 0
-1162 -1258 0
-1163 -1259 0
-1164 -1260 0
-1161 -1341 0
-1162 -1342 0
-1163 -1343 0
-1164 -1344 0
-1165 -1449 0
-1166 -1450 0
-1167 -1451 0
-1168 -1452 0
-1169 -1413 0
-1170 -1414 0
-1171 -1415 0
-1172 -1416 0
-1173 -1409 0
-1174 -1410 0
-1175 -1411 0
-1176 -1412 0
-1177 -1421 0
-1178 -1422 0
-1179 -1423 0
-1180 -1424 0
-1181 -1417 0
-1182 -1418 0
-1183 -1419 0
-1184 -1420 0
-1185 -1429 0
-1186 -1430 0
-1187 -1431 0
-1188 -1432 0
-1189 -1425 0
-1190 -1426 0
-1191 -1427 0
-1192 -1428 0
-1193 -1437 0
-1194 -1438 0
-1195 -1439 0
-1196 -1440 0
-1197 -1433 0
-1198 -1434 0
-1199 -1435 0
-1200 -1436 0
-1201 -1445 0
-1202 -1446 0
-1203 -1447 0
-1204 -1448 0
-1205 -1441 0
-1206 -1442 0
-1207 -1443 0
-1208 -1444 0
-1209 -1405 0
-1210 -1406 0
-1211 -1407 0
-1212 -1408 0
-1213 -1257 0
-1214 -1258 0
-1215 -1259 0
-1216 -1260 0
-1217 -1221 0
-1218 -1222 0
-1219 -1223 0
-1220 -1224 0
-1225 -1229 0
-1226 -1230 0
-1227 -1231 0
-1228 -1232 0
-1233 -1237 0
-1234 -1238 0
-1235 -1239 0
-1236 -1240 0
-1241 -1245 0
-1242 -1246 0
-1243 -1247 0
-1244 -1248 0
-1249 -1253 0
-1250 -1254 0
-1251 -1255 0
-1252 -1256 0
-1261 -1281 0
-1262 -1282 0
-1263 -1283 0
-1264 -1284 0
-1261 -1453 0
-1262 -1454 0
-1263 -1455 0
-1264 -1456 0
-1265 -1285 0
-1266 -1286 0
-1267 -1287 0
-1268 -1288 0
-1265 -1457 0
-1266 -1458 0
-1267 -1459 0
-1268 -1460 0
-1269 -1297 0
-1270 -1298 0
-1271 -1299 0
-1272 -1300 0
-1269 -1461 0
-1270 -1462 0
-1271 -1463 0
-1272 -1464 0
-1273 -1301 0
-1274 -1302 0
-1275 -1303 0
-1276 -1304 0
-1273 -1465 0
-1274 -1466 0
-1275 -1467 0
-1276 -1468 0
-1349 -1393 0
-1350 -1394 0
-1351 -1395 0
-1352 -1396 0
-1349 -1409 0
-1350 -1410 0
-1351 -1411 0
-1352 -1412 0
-1353 -1357 0
-1354 -1358 0
-1355 -1359 0
-1356 -1360 0
-1353 -1405 0
-1354 -1406 0
-1355 -1407 0
-1356 -1408 0
-1357 -1417 0
-1358 -1418 0
-1359 -1419 0
-1360 -1420 0
-1361 -1365 0
-1362 -1366 0
-1363 -1367 0
-1364 -1368 0
-1361 -1413 0
-1362 -1414 0
-1363 -1415 0
-1364 -1416 0
-1365 -1425 0
-1366 -1426 0
-1367 -1427 0
-1368 -1428 0
-1369 -1373 0
-1370 -1374 0
-1371 -1375 0
-1372 -1376 0
-1369 -1421 0
-1370 -1422 0
-1371 -1423 0
-1372 -1424 0
-1373 -1433 0
-1374 -1434 0
-1375 -1435 0
-1376 -1436 0
-1377 -1381 0
-1378 -1382 0
-1379 -1383 0
-1380 -1384 0
-1377 -1429 0
-1378 -1430 0
-1379 -1431 0
-1380 -1432 0
-1381 -1441 0
-1382 -1442 0
-1383 -1443 0
-1384 -1444 0
-1385 -1389 0
-1386 -1390 0
-1387 -1391 0
-1388 -1392 0
-1385 -1437 0
-1386 -1438 0
-1387 -1439 0
-1388 -1440 0
-1389 -1449 0
-1390 -1450 0
-1391 -1451 0
-1392 -1452 0
-1393 -1445 0
-1394 -1446 0
-1395 -1447 0
-1396 -1448 0
-1405 -1449 0
-1406 -1450 0
-1407 -1451 0
-1408 -1452 0
-1409 -1413 0
-1410 -1414 0
-1411 -1415 0
-1412 -1416 0
-1417 -1421 0
-1418 -1422 0
-1419 -1423 0
-1420 -1424 0
-1425 -1429 0
-1426 -1430 0
-1427 -1431 0
-1428 -1432 0
-1433 -1437 0
-1434 -1438 0
-1435 -1439 0
-1436 -1440 0
-1441 -1445 0
-1442 -1446 0
-1443 -1447 0
-1444 -1448 0
-1089 -1085 0
-1090 -1086 0
-1091 -1087 0
-1092 -1088 0
1 0
642 0
655 0
